LAMMPS Description

7609  atoms
4861  bonds
2780  angles
390  dihedrals
61  impropers

43  atom types
37  bond types
58  angle types
71  dihedral types
17  improper types

0.0 23.7750 xlo xhi
0.0 100 ylo yhi
0.0 35.6625 zlo zhi

Masses

1 15.999400  # O
2 1.007970  # H
3 16.043030  # CT
4 24.3  # Mg
5 35.453  # Cl
6 15.999  # OH
7 1.008  # HO
8 1.008  # HC
9 12.01  # CT
10 12.011  # type1
11 12.011  # type2
12 14.007  # type3
13 12.011  # type4
14 12.011  # type5
15 14.007  # type6
16 12.011  # type7
17 12.011  # type8
18 15.999  # type9
19 1.008  # type10
20 1.008  # type11
21 1.008  # type12
22 1.008  # type13
23 1.008  # type14
24 1.008  # type15
25 1.008  # type16
26 1.008  # type17
27 1.008  # type18
28 1.008  # type19
29 1.008  # type20
30 12.011  # type1
31 12.011  # type2
32 12.011  # type3
33 15.999  # type4
34 15.999  # type5
35 14.007  # type6
36 15.999  # type7
37 1.008  # type8
38 1.008  # type9
39 1.008  # type10
40 1.008  # type11
41 1.008  # type12
42 1.008  # type13
43 1.008  # type14

Atoms

1 1 1 -1.1794 0.000000 5.943750 2.971875
2 1 2 0.5897 0.009656 6.746382 2.401692
3 1 2 0.5897 0.819206 6.078805 3.500477
4 1 1 -1.1794 0.000000 5.943750 8.915625
5 1 2 0.5897 0.281067 6.808436 9.277971
6 1 2 0.5897 0.723234 5.812773 8.254920
7 1 1 -1.1794 2.971875 0.000000 5.943750
8 1 2 0.5897 2.409366 0.112795 6.741859
9 1 2 0.5897 3.506404 0.826096 5.955505
10 1 1 -1.1794 8.915625 0.000000 5.943750
11 1 2 0.5897 8.353117 0.798110 6.056546
12 1 2 0.5897 9.450153 0.011753 6.769848
13 1 1 -1.1794 5.943750 2.971875 0.000000
14 1 2 0.5897 6.224823 3.334227 0.864683
15 1 2 0.5897 6.666985 2.311172 -0.130979
16 1 1 -1.1794 5.943750 8.915625 0.000000
17 1 2 0.5897 5.953409 8.345441 0.802632
18 1 2 0.5897 6.762955 9.444227 0.135054
19 1 1 -1.1794 2.195740 2.195740 2.195740
20 1 2 0.5897 1.930743 1.402781 2.721735
21 1 2 0.5897 2.708046 2.708072 2.862811
22 1 1 -1.1794 9.691760 9.691760 2.195740
23 1 2 0.5897 9.978388 10.516781 2.648501
24 1 2 0.5897 9.116718 10.043814 1.480933
25 1 1 -1.1794 9.691760 2.195740 9.691760
26 1 2 0.5897 9.154281 2.782308 9.104938
27 1 2 0.5897 10.452871 2.782332 9.905926
28 1 1 -1.1794 2.195740 9.691760 9.691760
29 1 2 0.5897 1.433515 9.188865 10.050449
30 1 2 0.5897 2.654073 9.949780 10.533970
31 1 1 -1.1794 8.139490 8.139490 3.748010
32 1 2 0.5897 8.055452 8.606915 4.601005
33 1 2 0.5897 8.845452 8.644310 3.294149
34 1 1 -1.1794 3.748010 3.748010 3.748010
35 1 2 0.5897 4.002365 3.184788 4.519697
36 1 2 0.5897 4.639981 3.970836 3.410372
37 1 1 -1.1794 8.139490 3.748010 8.139490
38 1 2 0.5897 7.353136 4.110945 8.609681
39 1 2 0.5897 8.567214 4.572992 7.810198
40 1 1 -1.1794 3.748010 8.139490 8.139490
41 1 2 0.5897 3.235613 8.731546 8.742287
42 1 2 0.5897 4.491456 7.869471 8.725499
43 1 1 -1.1794 9.691760 9.691760 9.691760
44 1 2 0.5897 9.946137 10.463442 9.128541
45 1 2 0.5897 10.583721 9.354096 9.914592
46 1 1 -1.1794 2.195740 2.195740 9.691760
47 1 2 0.5897 1.409385 2.665929 10.054694
48 1 2 0.5897 2.623464 1.866447 10.516742
49 1 1 -1.1794 2.195740 9.691760 2.195740
50 1 2 0.5897 2.111703 10.544755 2.663166
51 1 2 0.5897 2.901702 9.237898 2.700560
52 1 1 -1.1794 9.691760 2.195740 2.195740
53 1 2 0.5897 9.179361 2.798535 2.787796
54 1 2 0.5897 10.435205 2.781750 1.925722
55 1 1 -1.1794 3.748010 3.748010 8.139490
56 1 2 0.5897 3.210531 3.161188 8.726058
57 1 2 0.5897 4.509120 3.962177 8.726082
58 1 1 -1.1794 8.139490 8.139490 8.139490
59 1 2 0.5897 7.874494 8.665484 7.346530
60 1 2 0.5897 8.651795 8.806563 8.651821
61 1 1 -1.1794 3.748010 8.139490 3.748010
62 1 2 0.5897 4.034637 8.592251 4.573031
63 1 2 0.5897 3.172969 7.424681 4.100063
64 1 1 -1.1794 8.139490 3.748010 3.748010
65 1 2 0.5897 7.377269 4.106705 3.245111
66 1 2 0.5897 8.597826 4.590218 4.006031
67 1 1 -1.1794 0.000000 3.679775 1.385607
68 1 2 0.5897 0.035498 4.459067 1.989457
69 1 2 0.5897 0.798485 3.179090 1.671756
70 1 1 -1.1794 0.000000 8.207725 1.385607
71 1 2 0.5897 -0.758631 8.731842 1.737352
72 1 2 0.5897 0.759372 8.779826 1.670376
73 1 1 -1.1794 0.000000 3.679775 10.501893
74 1 2 0.5897 -0.044368 3.851890 11.469464
75 1 2 0.5897 -0.018559 4.578141 10.109946
76 1 1 -1.1794 0.000000 8.207725 10.501893
77 1 2 0.5897 0.205529 8.274438 11.469986
78 1 2 0.5897 -0.779451 7.629397 10.587942
79 1 1 -1.1794 1.385607 0.000000 3.679775
80 1 2 0.5897 0.417726 -0.094659 3.821134
81 1 2 0.5897 1.754570 -0.099428 4.581968
82 1 1 -1.1794 1.385607 0.000000 8.207725
83 1 2 0.5897 1.716836 0.746754 8.758036
84 1 2 0.5897 1.714706 -0.771043 8.726950
85 1 1 -1.1794 10.501893 0.000000 3.679775
86 1 2 0.5897 9.916808 0.006667 4.472479
87 1 2 0.5897 10.184338 0.799264 3.201735
88 1 1 -1.1794 10.501893 0.000000 8.207725
89 1 2 0.5897 10.305638 0.798873 8.749125
90 1 2 0.5897 11.480928 0.066494 8.116678
91 1 1 -1.1794 3.679775 1.385607 0.000000
92 1 2 0.5897 3.181486 1.660080 0.803227
93 1 2 0.5897 4.465410 1.972311 0.037997
94 1 1 -1.1794 8.207725 1.385607 0.000000
95 1 2 0.5897 8.780854 1.614855 0.769515
96 1 2 0.5897 8.792041 1.653488 -0.747865
97 1 1 -1.1794 3.679775 10.501893 0.000000
98 1 2 0.5897 3.869586 11.452377 0.104347
99 1 2 0.5897 4.546334 10.068458 0.112136
100 1 1 -1.1794 8.207725 10.501893 0.000000
101 1 2 0.5897 8.122284 11.478258 -0.083426
102 1 2 0.5897 8.687717 10.276857 -0.827363
103 1 1 -1.1794 9.623525 5.943750 4.558143
104 1 2 0.5897 9.813335 6.048098 5.508627
105 1 2 0.5897 10.490084 6.055885 4.124708
106 1 1 -1.1794 2.263975 5.943750 4.558143
107 1 2 0.5897 2.178531 5.860324 5.534508
108 1 2 0.5897 2.743967 5.116387 4.333108
109 1 1 -1.1794 9.623525 5.943750 7.329357
110 1 2 0.5897 9.125238 6.746978 7.603833
111 1 2 0.5897 10.409160 5.981743 7.916061
112 1 1 -1.1794 2.263975 5.943750 7.329357
113 1 2 0.5897 2.837102 6.713267 7.558605
114 1 2 0.5897 2.848293 5.195886 7.597239
115 1 1 -1.1794 5.943750 7.329357 2.263975
116 1 2 0.5897 5.185122 7.681106 2.788093
117 1 2 0.5897 6.703124 7.614122 2.836075
118 1 1 -1.1794 5.943750 7.329357 9.623525
119 1 2 0.5897 5.979250 7.933206 10.402818
120 1 2 0.5897 6.742237 7.615502 9.122842
121 1 1 -1.1794 5.943750 4.558143 2.263975
122 1 2 0.5897 6.149264 5.526242 2.330661
123 1 2 0.5897 5.164278 4.644161 1.685681
124 1 1 -1.1794 5.943750 4.558143 9.623525
125 1 2 0.5897 5.899383 5.525713 9.795644
126 1 2 0.5897 5.925192 4.166192 10.521889
127 1 1 -1.1794 7.329357 9.623525 5.943750
128 1 2 0.5897 6.361476 9.764884 5.849090
129 1 2 0.5897 7.698320 10.525718 5.844322
130 1 1 -1.1794 7.329357 2.263975 5.943750
131 1 2 0.5897 7.660588 2.814285 6.690503
132 1 2 0.5897 7.658458 2.783199 5.172706
133 1 1 -1.1794 4.558143 9.623525 5.943750
134 1 2 0.5897 3.973056 10.416229 5.950416
135 1 2 0.5897 4.240588 9.145485 6.743014
136 1 1 -1.1794 4.558143 2.263975 5.943750
137 1 2 0.5897 4.361890 2.805372 6.742625
138 1 2 0.5897 5.537178 2.172928 6.010242
139 1 3 0.0 0.000000 0.000000 0.000000
140 1 3 0.0 5.943750 5.943750 5.943750
141 1 3 0.0 0.000000 2.971875 5.943750
142 1 3 0.0 0.000000 8.915625 5.943750
143 1 3 0.0 5.943750 0.000000 2.971875
144 1 3 0.0 5.943750 0.000000 8.915625
145 1 3 0.0 2.971875 5.943750 0.000000
146 1 3 0.0 8.915625 5.943750 0.000000
147 2 1 -1.1794 0.000000 5.943750 14.859375
148 2 2 0.5897 0.009656 6.746382 14.289192
149 2 2 0.5897 0.819206 6.078805 15.387977
150 2 1 -1.1794 0.000000 5.943750 20.803125
151 2 2 0.5897 0.281067 6.808436 21.165471
152 2 2 0.5897 0.723234 5.812773 20.142420
153 2 1 -1.1794 2.971875 0.000000 17.831250
154 2 2 0.5897 2.409366 0.112795 18.629359
155 2 2 0.5897 3.506404 0.826096 17.843005
156 2 1 -1.1794 8.915625 0.000000 17.831250
157 2 2 0.5897 8.353117 0.798110 17.944046
158 2 2 0.5897 9.450153 0.011753 18.657348
159 2 1 -1.1794 5.943750 2.971875 11.887500
160 2 2 0.5897 6.224823 3.334227 12.752183
161 2 2 0.5897 6.666985 2.311172 11.756521
162 2 1 -1.1794 5.943750 8.915625 11.887500
163 2 2 0.5897 5.953409 8.345441 12.690132
164 2 2 0.5897 6.762955 9.444227 12.022554
165 2 1 -1.1794 2.195740 2.195740 14.083240
166 2 2 0.5897 1.930743 1.402781 14.609235
167 2 2 0.5897 2.708046 2.708072 14.750311
168 2 1 -1.1794 9.691760 9.691760 14.083240
169 2 2 0.5897 9.978388 10.516781 14.536001
170 2 2 0.5897 9.116718 10.043814 13.368433
171 2 1 -1.1794 9.691760 2.195740 21.579260
172 2 2 0.5897 9.154281 2.782308 20.992438
173 2 2 0.5897 10.452871 2.782332 21.793426
174 2 1 -1.1794 2.195740 9.691760 21.579260
175 2 2 0.5897 1.433515 9.188865 21.937949
176 2 2 0.5897 2.654073 9.949780 22.421470
177 2 1 -1.1794 8.139490 8.139490 15.635510
178 2 2 0.5897 8.055452 8.606915 16.488505
179 2 2 0.5897 8.845452 8.644310 15.181649
180 2 1 -1.1794 3.748010 3.748010 15.635510
181 2 2 0.5897 4.002365 3.184788 16.407197
182 2 2 0.5897 4.639981 3.970836 15.297872
183 2 1 -1.1794 8.139490 3.748010 20.026990
184 2 2 0.5897 7.353136 4.110945 20.497181
185 2 2 0.5897 8.567214 4.572992 19.697698
186 2 1 -1.1794 3.748010 8.139490 20.026990
187 2 2 0.5897 3.235613 8.731546 20.629787
188 2 2 0.5897 4.491456 7.869471 20.612999
189 2 1 -1.1794 9.691760 9.691760 21.579260
190 2 2 0.5897 9.946137 10.463442 21.016041
191 2 2 0.5897 10.583721 9.354096 21.802092
192 2 1 -1.1794 2.195740 2.195740 21.579260
193 2 2 0.5897 1.409385 2.665929 21.942194
194 2 2 0.5897 2.623464 1.866447 22.404242
195 2 1 -1.1794 2.195740 9.691760 14.083240
196 2 2 0.5897 2.111703 10.544755 14.550666
197 2 2 0.5897 2.901702 9.237898 14.588060
198 2 1 -1.1794 9.691760 2.195740 14.083240
199 2 2 0.5897 9.179361 2.798535 14.675296
200 2 2 0.5897 10.435205 2.781750 13.813222
201 2 1 -1.1794 3.748010 3.748010 20.026990
202 2 2 0.5897 3.210531 3.161188 20.613558
203 2 2 0.5897 4.509120 3.962177 20.613582
204 2 1 -1.1794 8.139490 8.139490 20.026990
205 2 2 0.5897 7.874494 8.665484 19.234030
206 2 2 0.5897 8.651795 8.806563 20.539321
207 2 1 -1.1794 3.748010 8.139490 15.635510
208 2 2 0.5897 4.034637 8.592251 16.460531
209 2 2 0.5897 3.172969 7.424681 15.987563
210 2 1 -1.1794 8.139490 3.748010 15.635510
211 2 2 0.5897 7.377269 4.106705 15.132611
212 2 2 0.5897 8.597826 4.590218 15.893531
213 2 1 -1.1794 0.000000 3.679775 13.273107
214 2 2 0.5897 0.035498 4.459067 13.876957
215 2 2 0.5897 0.798485 3.179090 13.559256
216 2 1 -1.1794 0.000000 8.207725 13.273107
217 2 2 0.5897 -0.758631 8.731842 13.624852
218 2 2 0.5897 0.759372 8.779826 13.557876
219 2 1 -1.1794 0.000000 3.679775 22.389393
220 2 2 0.5897 -0.044368 3.851890 23.356964
221 2 2 0.5897 -0.018559 4.578141 21.997446
222 2 1 -1.1794 0.000000 8.207725 22.389393
223 2 2 0.5897 0.205529 8.274438 23.357486
224 2 2 0.5897 -0.779451 7.629397 22.475442
225 2 1 -1.1794 1.385607 0.000000 15.567275
226 2 2 0.5897 0.417726 -0.094659 15.708634
227 2 2 0.5897 1.754570 -0.099428 16.469468
228 2 1 -1.1794 1.385607 0.000000 20.095225
229 2 2 0.5897 1.716836 0.746754 20.645536
230 2 2 0.5897 1.714706 -0.771043 20.614450
231 2 1 -1.1794 10.501893 0.000000 15.567275
232 2 2 0.5897 9.916808 0.006667 16.359979
233 2 2 0.5897 10.184338 0.799264 15.089235
234 2 1 -1.1794 10.501893 0.000000 20.095225
235 2 2 0.5897 10.305638 0.798873 20.636625
236 2 2 0.5897 11.480928 0.066494 20.004178
237 2 1 -1.1794 3.679775 1.385607 11.887500
238 2 2 0.5897 3.181486 1.660080 12.690727
239 2 2 0.5897 4.465410 1.972311 11.925497
240 2 1 -1.1794 8.207725 1.385607 11.887500
241 2 2 0.5897 8.780854 1.614855 12.657015
242 2 2 0.5897 8.792041 1.653488 11.139635
243 2 1 -1.1794 3.679775 10.501893 11.887500
244 2 2 0.5897 3.869586 11.452377 11.991847
245 2 2 0.5897 4.546334 10.068458 11.999636
246 2 1 -1.1794 8.207725 10.501893 11.887500
247 2 2 0.5897 8.122284 11.478258 11.804074
248 2 2 0.5897 8.687717 10.276857 11.060137
249 2 1 -1.1794 9.623525 5.943750 16.445643
250 2 2 0.5897 9.813335 6.048098 17.396127
251 2 2 0.5897 10.490084 6.055885 16.012208
252 2 1 -1.1794 2.263975 5.943750 16.445643
253 2 2 0.5897 2.178531 5.860324 17.422008
254 2 2 0.5897 2.743967 5.116387 16.220608
255 2 1 -1.1794 9.623525 5.943750 19.216857
256 2 2 0.5897 9.125238 6.746978 19.491333
257 2 2 0.5897 10.409160 5.981743 19.803561
258 2 1 -1.1794 2.263975 5.943750 19.216857
259 2 2 0.5897 2.837102 6.713267 19.446105
260 2 2 0.5897 2.848293 5.195886 19.484739
261 2 1 -1.1794 5.943750 7.329357 14.151475
262 2 2 0.5897 5.185122 7.681106 14.675593
263 2 2 0.5897 6.703124 7.614122 14.723575
264 2 1 -1.1794 5.943750 7.329357 21.511025
265 2 2 0.5897 5.979250 7.933206 22.290318
266 2 2 0.5897 6.742237 7.615502 21.010342
267 2 1 -1.1794 5.943750 4.558143 14.151475
268 2 2 0.5897 6.149264 5.526242 14.218161
269 2 2 0.5897 5.164278 4.644161 13.573181
270 2 1 -1.1794 5.943750 4.558143 21.511025
271 2 2 0.5897 5.899383 5.525713 21.683144
272 2 2 0.5897 5.925192 4.166192 22.409389
273 2 1 -1.1794 7.329357 9.623525 17.831250
274 2 2 0.5897 6.361476 9.764884 17.736590
275 2 2 0.5897 7.698320 10.525718 17.731822
276 2 1 -1.1794 7.329357 2.263975 17.831250
277 2 2 0.5897 7.660588 2.814285 18.578003
278 2 2 0.5897 7.658458 2.783199 17.060206
279 2 1 -1.1794 4.558143 9.623525 17.831250
280 2 2 0.5897 3.973056 10.416229 17.837916
281 2 2 0.5897 4.240588 9.145485 18.630514
282 2 1 -1.1794 4.558143 2.263975 17.831250
283 2 2 0.5897 4.361890 2.805372 18.630125
284 2 2 0.5897 5.537178 2.172928 17.897742
285 2 3 0.0 0.000000 0.000000 11.887500
286 2 3 0.0 5.943750 5.943750 17.831250
287 2 3 0.0 0.000000 2.971875 17.831250
288 2 3 0.0 0.000000 8.915625 17.831250
289 2 3 0.0 5.943750 0.000000 14.859375
290 2 3 0.0 5.943750 0.000000 20.803125
291 2 3 0.0 2.971875 5.943750 11.887500
292 2 3 0.0 8.915625 5.943750 11.887500
293 3 1 -1.1794 0.000000 5.943750 26.746875
294 3 2 0.5897 0.009656 6.746382 26.176692
295 3 2 0.5897 0.819206 6.078805 27.275477
296 3 1 -1.1794 0.000000 5.943750 32.690625
297 3 2 0.5897 0.281067 6.808436 33.052971
298 3 2 0.5897 0.723234 5.812773 32.029920
299 3 1 -1.1794 2.971875 0.000000 29.718750
300 3 2 0.5897 2.409366 0.112795 30.516859
301 3 2 0.5897 3.506404 0.826096 29.730505
302 3 1 -1.1794 8.915625 0.000000 29.718750
303 3 2 0.5897 8.353117 0.798110 29.831546
304 3 2 0.5897 9.450153 0.011753 30.544848
305 3 1 -1.1794 5.943750 2.971875 23.775000
306 3 2 0.5897 6.224823 3.334227 24.639683
307 3 2 0.5897 6.666985 2.311172 23.644021
308 3 1 -1.1794 5.943750 8.915625 23.775000
309 3 2 0.5897 5.953409 8.345441 24.577632
310 3 2 0.5897 6.762955 9.444227 23.910054
311 3 1 -1.1794 2.195740 2.195740 25.970740
312 3 2 0.5897 1.930743 1.402781 26.496735
313 3 2 0.5897 2.708046 2.708072 26.637811
314 3 1 -1.1794 9.691760 9.691760 25.970740
315 3 2 0.5897 9.978388 10.516781 26.423501
316 3 2 0.5897 9.116718 10.043814 25.255933
317 3 1 -1.1794 9.691760 2.195740 33.466760
318 3 2 0.5897 9.154281 2.782308 32.879938
319 3 2 0.5897 10.452871 2.782332 33.680926
320 3 1 -1.1794 2.195740 9.691760 33.466760
321 3 2 0.5897 1.433515 9.188865 33.825449
322 3 2 0.5897 2.654073 9.949780 34.308970
323 3 1 -1.1794 8.139490 8.139490 27.523010
324 3 2 0.5897 8.055452 8.606915 28.376005
325 3 2 0.5897 8.845452 8.644310 27.069149
326 3 1 -1.1794 3.748010 3.748010 27.523010
327 3 2 0.5897 4.002365 3.184788 28.294697
328 3 2 0.5897 4.639981 3.970836 27.185372
329 3 1 -1.1794 8.139490 3.748010 31.914490
330 3 2 0.5897 7.353136 4.110945 32.384681
331 3 2 0.5897 8.567214 4.572992 31.585198
332 3 1 -1.1794 3.748010 8.139490 31.914490
333 3 2 0.5897 3.235613 8.731546 32.517287
334 3 2 0.5897 4.491456 7.869471 32.500499
335 3 1 -1.1794 9.691760 9.691760 33.466760
336 3 2 0.5897 9.946137 10.463442 32.903541
337 3 2 0.5897 10.583721 9.354096 33.689592
338 3 1 -1.1794 2.195740 2.195740 33.466760
339 3 2 0.5897 1.409385 2.665929 33.829694
340 3 2 0.5897 2.623464 1.866447 34.291742
341 3 1 -1.1794 2.195740 9.691760 25.970740
342 3 2 0.5897 2.111703 10.544755 26.438166
343 3 2 0.5897 2.901702 9.237898 26.475560
344 3 1 -1.1794 9.691760 2.195740 25.970740
345 3 2 0.5897 9.179361 2.798535 26.562796
346 3 2 0.5897 10.435205 2.781750 25.700722
347 3 1 -1.1794 3.748010 3.748010 31.914490
348 3 2 0.5897 3.210531 3.161188 32.501058
349 3 2 0.5897 4.509120 3.962177 32.501082
350 3 1 -1.1794 8.139490 8.139490 31.914490
351 3 2 0.5897 7.874494 8.665484 31.121530
352 3 2 0.5897 8.651795 8.806563 32.426821
353 3 1 -1.1794 3.748010 8.139490 27.523010
354 3 2 0.5897 4.034637 8.592251 28.348031
355 3 2 0.5897 3.172969 7.424681 27.875063
356 3 1 -1.1794 8.139490 3.748010 27.523010
357 3 2 0.5897 7.377269 4.106705 27.020111
358 3 2 0.5897 8.597826 4.590218 27.781031
359 3 1 -1.1794 0.000000 3.679775 25.160607
360 3 2 0.5897 0.035498 4.459067 25.764457
361 3 2 0.5897 0.798485 3.179090 25.446756
362 3 1 -1.1794 0.000000 8.207725 25.160607
363 3 2 0.5897 -0.758631 8.731842 25.512352
364 3 2 0.5897 0.759372 8.779826 25.445376
365 3 1 -1.1794 0.000000 3.679775 34.276893
366 3 2 0.5897 -0.044368 3.851890 35.244464
367 3 2 0.5897 -0.018559 4.578141 33.884946
368 3 1 -1.1794 0.000000 8.207725 34.276893
369 3 2 0.5897 0.205529 8.274438 35.244986
370 3 2 0.5897 -0.779451 7.629397 34.362942
371 3 1 -1.1794 1.385607 0.000000 27.454775
372 3 2 0.5897 0.417726 -0.094659 27.596134
373 3 2 0.5897 1.754570 -0.099428 28.356968
374 3 1 -1.1794 1.385607 0.000000 31.982725
375 3 2 0.5897 1.716836 0.746754 32.533036
376 3 2 0.5897 1.714706 -0.771043 32.501950
377 3 1 -1.1794 10.501893 0.000000 27.454775
378 3 2 0.5897 9.916808 0.006667 28.247479
379 3 2 0.5897 10.184338 0.799264 26.976735
380 3 1 -1.1794 10.501893 0.000000 31.982725
381 3 2 0.5897 10.305638 0.798873 32.524125
382 3 2 0.5897 11.480928 0.066494 31.891678
383 3 1 -1.1794 3.679775 1.385607 23.775000
384 3 2 0.5897 3.181486 1.660080 24.578227
385 3 2 0.5897 4.465410 1.972311 23.812997
386 3 1 -1.1794 8.207725 1.385607 23.775000
387 3 2 0.5897 8.780854 1.614855 24.544515
388 3 2 0.5897 8.792041 1.653488 23.027135
389 3 1 -1.1794 3.679775 10.501893 23.775000
390 3 2 0.5897 3.869586 11.452377 23.879347
391 3 2 0.5897 4.546334 10.068458 23.887136
392 3 1 -1.1794 8.207725 10.501893 23.775000
393 3 2 0.5897 8.122284 11.478258 23.691574
394 3 2 0.5897 8.687717 10.276857 22.947637
395 3 1 -1.1794 9.623525 5.943750 28.333143
396 3 2 0.5897 9.813335 6.048098 29.283627
397 3 2 0.5897 10.490084 6.055885 27.899708
398 3 1 -1.1794 2.263975 5.943750 28.333143
399 3 2 0.5897 2.178531 5.860324 29.309508
400 3 2 0.5897 2.743967 5.116387 28.108108
401 3 1 -1.1794 9.623525 5.943750 31.104357
402 3 2 0.5897 9.125238 6.746978 31.378833
403 3 2 0.5897 10.409160 5.981743 31.691061
404 3 1 -1.1794 2.263975 5.943750 31.104357
405 3 2 0.5897 2.837102 6.713267 31.333605
406 3 2 0.5897 2.848293 5.195886 31.372239
407 3 1 -1.1794 5.943750 7.329357 26.038975
408 3 2 0.5897 5.185122 7.681106 26.563093
409 3 2 0.5897 6.703124 7.614122 26.611075
410 3 1 -1.1794 5.943750 7.329357 33.398525
411 3 2 0.5897 5.979250 7.933206 34.177818
412 3 2 0.5897 6.742237 7.615502 32.897842
413 3 1 -1.1794 5.943750 4.558143 26.038975
414 3 2 0.5897 6.149264 5.526242 26.105661
415 3 2 0.5897 5.164278 4.644161 25.460681
416 3 1 -1.1794 5.943750 4.558143 33.398525
417 3 2 0.5897 5.899383 5.525713 33.570644
418 3 2 0.5897 5.925192 4.166192 34.296889
419 3 1 -1.1794 7.329357 9.623525 29.718750
420 3 2 0.5897 6.361476 9.764884 29.624090
421 3 2 0.5897 7.698320 10.525718 29.619322
422 3 1 -1.1794 7.329357 2.263975 29.718750
423 3 2 0.5897 7.660588 2.814285 30.465503
424 3 2 0.5897 7.658458 2.783199 28.947706
425 3 1 -1.1794 4.558143 9.623525 29.718750
426 3 2 0.5897 3.973056 10.416229 29.725416
427 3 2 0.5897 4.240588 9.145485 30.518014
428 3 1 -1.1794 4.558143 2.263975 29.718750
429 3 2 0.5897 4.361890 2.805372 30.517625
430 3 2 0.5897 5.537178 2.172928 29.785242
431 3 3 0.0 0.000000 0.000000 23.775000
432 3 3 0.0 5.943750 5.943750 29.718750
433 3 3 0.0 0.000000 2.971875 29.718750
434 3 3 0.0 0.000000 8.915625 29.718750
435 3 3 0.0 5.943750 0.000000 26.746875
436 3 3 0.0 5.943750 0.000000 32.690625
437 3 3 0.0 2.971875 5.943750 23.775000
438 3 3 0.0 8.915625 5.943750 23.775000
439 4 1 -1.1794 0.000000 17.831250 2.971875
440 4 2 0.5897 0.009656 18.633882 2.401692
441 4 2 0.5897 0.819206 17.966305 3.500477
442 4 1 -1.1794 0.000000 17.831250 8.915625
443 4 2 0.5897 0.281067 18.695936 9.277971
444 4 2 0.5897 0.723234 17.700273 8.254920
445 4 1 -1.1794 2.971875 11.887500 5.943750
446 4 2 0.5897 2.409366 12.000295 6.741859
447 4 2 0.5897 3.506404 12.713596 5.955505
448 4 1 -1.1794 8.915625 11.887500 5.943750
449 4 2 0.5897 8.353117 12.685610 6.056546
450 4 2 0.5897 9.450153 11.899253 6.769848
451 4 1 -1.1794 5.943750 14.859375 0.000000
452 4 2 0.5897 6.224823 15.221727 0.864683
453 4 2 0.5897 6.666985 14.198672 -0.130979
454 4 1 -1.1794 5.943750 20.803125 0.000000
455 4 2 0.5897 5.953409 20.232941 0.802632
456 4 2 0.5897 6.762955 21.331727 0.135054
457 4 1 -1.1794 2.195740 14.083240 2.195740
458 4 2 0.5897 1.930743 13.290281 2.721735
459 4 2 0.5897 2.708046 14.595572 2.862811
460 4 1 -1.1794 9.691760 21.579260 2.195740
461 4 2 0.5897 9.978388 22.404281 2.648501
462 4 2 0.5897 9.116718 21.931314 1.480933
463 4 1 -1.1794 9.691760 14.083240 9.691760
464 4 2 0.5897 9.154281 14.669808 9.104938
465 4 2 0.5897 10.452871 14.669832 9.905926
466 4 1 -1.1794 2.195740 21.579260 9.691760
467 4 2 0.5897 1.433515 21.076365 10.050449
468 4 2 0.5897 2.654073 21.837280 10.533970
469 4 1 -1.1794 8.139490 20.026990 3.748010
470 4 2 0.5897 8.055452 20.494415 4.601005
471 4 2 0.5897 8.845452 20.531810 3.294149
472 4 1 -1.1794 3.748010 15.635510 3.748010
473 4 2 0.5897 4.002365 15.072288 4.519697
474 4 2 0.5897 4.639981 15.858336 3.410372
475 4 1 -1.1794 8.139490 15.635510 8.139490
476 4 2 0.5897 7.353136 15.998445 8.609681
477 4 2 0.5897 8.567214 16.460492 7.810198
478 4 1 -1.1794 3.748010 20.026990 8.139490
479 4 2 0.5897 3.235613 20.619046 8.742287
480 4 2 0.5897 4.491456 19.756971 8.725499
481 4 1 -1.1794 9.691760 21.579260 9.691760
482 4 2 0.5897 9.946137 22.350942 9.128541
483 4 2 0.5897 10.583721 21.241596 9.914592
484 4 1 -1.1794 2.195740 14.083240 9.691760
485 4 2 0.5897 1.409385 14.553429 10.054694
486 4 2 0.5897 2.623464 13.753947 10.516742
487 4 1 -1.1794 2.195740 21.579260 2.195740
488 4 2 0.5897 2.111703 22.432255 2.663166
489 4 2 0.5897 2.901702 21.125398 2.700560
490 4 1 -1.1794 9.691760 14.083240 2.195740
491 4 2 0.5897 9.179361 14.686035 2.787796
492 4 2 0.5897 10.435205 14.669250 1.925722
493 4 1 -1.1794 3.748010 15.635510 8.139490
494 4 2 0.5897 3.210531 15.048688 8.726058
495 4 2 0.5897 4.509120 15.849677 8.726082
496 4 1 -1.1794 8.139490 20.026990 8.139490
497 4 2 0.5897 7.874494 20.552984 7.346530
498 4 2 0.5897 8.651795 20.694063 8.651821
499 4 1 -1.1794 3.748010 20.026990 3.748010
500 4 2 0.5897 4.034637 20.479751 4.573031
501 4 2 0.5897 3.172969 19.312181 4.100063
502 4 1 -1.1794 8.139490 15.635510 3.748010
503 4 2 0.5897 7.377269 15.994205 3.245111
504 4 2 0.5897 8.597826 16.477718 4.006031
505 4 1 -1.1794 0.000000 15.567275 1.385607
506 4 2 0.5897 0.035498 16.346567 1.989457
507 4 2 0.5897 0.798485 15.066590 1.671756
508 4 1 -1.1794 0.000000 20.095225 1.385607
509 4 2 0.5897 -0.758631 20.619342 1.737352
510 4 2 0.5897 0.759372 20.667326 1.670376
511 4 1 -1.1794 0.000000 15.567275 10.501893
512 4 2 0.5897 -0.044368 15.739390 11.469464
513 4 2 0.5897 -0.018559 16.465641 10.109946
514 4 1 -1.1794 0.000000 20.095225 10.501893
515 4 2 0.5897 0.205529 20.161938 11.469986
516 4 2 0.5897 -0.779451 19.516897 10.587942
517 4 1 -1.1794 1.385607 11.887500 3.679775
518 4 2 0.5897 0.417726 11.792841 3.821134
519 4 2 0.5897 1.754570 11.788072 4.581968
520 4 1 -1.1794 1.385607 11.887500 8.207725
521 4 2 0.5897 1.716836 12.634254 8.758036
522 4 2 0.5897 1.714706 11.116457 8.726950
523 4 1 -1.1794 10.501893 11.887500 3.679775
524 4 2 0.5897 9.916808 11.894167 4.472479
525 4 2 0.5897 10.184338 12.686764 3.201735
526 4 1 -1.1794 10.501893 11.887500 8.207725
527 4 2 0.5897 10.305638 12.686373 8.749125
528 4 2 0.5897 11.480928 11.953994 8.116678
529 4 1 -1.1794 3.679775 13.273107 0.000000
530 4 2 0.5897 3.181486 13.547580 0.803227
531 4 2 0.5897 4.465410 13.859811 0.037997
532 4 1 -1.1794 8.207725 13.273107 0.000000
533 4 2 0.5897 8.780854 13.502355 0.769515
534 4 2 0.5897 8.792041 13.540988 -0.747865
535 4 1 -1.1794 3.679775 22.389393 0.000000
536 4 2 0.5897 3.869586 23.339877 0.104347
537 4 2 0.5897 4.546334 21.955958 0.112136
538 4 1 -1.1794 8.207725 22.389393 0.000000
539 4 2 0.5897 8.122284 23.365758 -0.083426
540 4 2 0.5897 8.687717 22.164357 -0.827363
541 4 1 -1.1794 9.623525 17.831250 4.558143
542 4 2 0.5897 9.813335 17.935598 5.508627
543 4 2 0.5897 10.490084 17.943385 4.124708
544 4 1 -1.1794 2.263975 17.831250 4.558143
545 4 2 0.5897 2.178531 17.747824 5.534508
546 4 2 0.5897 2.743967 17.003887 4.333108
547 4 1 -1.1794 9.623525 17.831250 7.329357
548 4 2 0.5897 9.125238 18.634478 7.603833
549 4 2 0.5897 10.409160 17.869243 7.916061
550 4 1 -1.1794 2.263975 17.831250 7.329357
551 4 2 0.5897 2.837102 18.600767 7.558605
552 4 2 0.5897 2.848293 17.083386 7.597239
553 4 1 -1.1794 5.943750 19.216857 2.263975
554 4 2 0.5897 5.185122 19.568606 2.788093
555 4 2 0.5897 6.703124 19.501622 2.836075
556 4 1 -1.1794 5.943750 19.216857 9.623525
557 4 2 0.5897 5.979250 19.820706 10.402818
558 4 2 0.5897 6.742237 19.503002 9.122842
559 4 1 -1.1794 5.943750 16.445643 2.263975
560 4 2 0.5897 6.149264 17.413742 2.330661
561 4 2 0.5897 5.164278 16.531661 1.685681
562 4 1 -1.1794 5.943750 16.445643 9.623525
563 4 2 0.5897 5.899383 17.413213 9.795644
564 4 2 0.5897 5.925192 16.053692 10.521889
565 4 1 -1.1794 7.329357 21.511025 5.943750
566 4 2 0.5897 6.361476 21.652384 5.849090
567 4 2 0.5897 7.698320 22.413218 5.844322
568 4 1 -1.1794 7.329357 14.151475 5.943750
569 4 2 0.5897 7.660588 14.701785 6.690503
570 4 2 0.5897 7.658458 14.670699 5.172706
571 4 1 -1.1794 4.558143 21.511025 5.943750
572 4 2 0.5897 3.973056 22.303729 5.950416
573 4 2 0.5897 4.240588 21.032985 6.743014
574 4 1 -1.1794 4.558143 14.151475 5.943750
575 4 2 0.5897 4.361890 14.692872 6.742625
576 4 2 0.5897 5.537178 14.060428 6.010242
577 4 3 0.0 0.000000 11.887500 0.000000
578 4 3 0.0 5.943750 17.831250 5.943750
579 4 3 0.0 0.000000 14.859375 5.943750
580 4 3 0.0 0.000000 20.803125 5.943750
581 4 3 0.0 5.943750 11.887500 2.971875
582 4 3 0.0 5.943750 11.887500 8.915625
583 4 3 0.0 2.971875 17.831250 0.000000
584 4 3 0.0 8.915625 17.831250 0.000000
585 5 1 -1.1794 0.000000 17.831250 14.859375
586 5 2 0.5897 0.009656 18.633882 14.289192
587 5 2 0.5897 0.819206 17.966305 15.387977
588 5 1 -1.1794 0.000000 17.831250 20.803125
589 5 2 0.5897 0.281067 18.695936 21.165471
590 5 2 0.5897 0.723234 17.700273 20.142420
591 5 1 -1.1794 2.971875 11.887500 17.831250
592 5 2 0.5897 2.409366 12.000295 18.629359
593 5 2 0.5897 3.506404 12.713596 17.843005
594 5 1 -1.1794 8.915625 11.887500 17.831250
595 5 2 0.5897 8.353117 12.685610 17.944046
596 5 2 0.5897 9.450153 11.899253 18.657348
597 5 1 -1.1794 5.943750 14.859375 11.887500
598 5 2 0.5897 6.224823 15.221727 12.752183
599 5 2 0.5897 6.666985 14.198672 11.756521
600 5 1 -1.1794 5.943750 20.803125 11.887500
601 5 2 0.5897 5.953409 20.232941 12.690132
602 5 2 0.5897 6.762955 21.331727 12.022554
603 5 1 -1.1794 2.195740 14.083240 14.083240
604 5 2 0.5897 1.930743 13.290281 14.609235
605 5 2 0.5897 2.708046 14.595572 14.750311
606 5 1 -1.1794 9.691760 21.579260 14.083240
607 5 2 0.5897 9.978388 22.404281 14.536001
608 5 2 0.5897 9.116718 21.931314 13.368433
609 5 1 -1.1794 9.691760 14.083240 21.579260
610 5 2 0.5897 9.154281 14.669808 20.992438
611 5 2 0.5897 10.452871 14.669832 21.793426
612 5 1 -1.1794 2.195740 21.579260 21.579260
613 5 2 0.5897 1.433515 21.076365 21.937949
614 5 2 0.5897 2.654073 21.837280 22.421470
615 5 1 -1.1794 8.139490 20.026990 15.635510
616 5 2 0.5897 8.055452 20.494415 16.488505
617 5 2 0.5897 8.845452 20.531810 15.181649
618 5 1 -1.1794 3.748010 15.635510 15.635510
619 5 2 0.5897 4.002365 15.072288 16.407197
620 5 2 0.5897 4.639981 15.858336 15.297872
621 5 1 -1.1794 8.139490 15.635510 20.026990
622 5 2 0.5897 7.353136 15.998445 20.497181
623 5 2 0.5897 8.567214 16.460492 19.697698
624 5 1 -1.1794 3.748010 20.026990 20.026990
625 5 2 0.5897 3.235613 20.619046 20.629787
626 5 2 0.5897 4.491456 19.756971 20.612999
627 5 1 -1.1794 9.691760 21.579260 21.579260
628 5 2 0.5897 9.946137 22.350942 21.016041
629 5 2 0.5897 10.583721 21.241596 21.802092
630 5 1 -1.1794 2.195740 14.083240 21.579260
631 5 2 0.5897 1.409385 14.553429 21.942194
632 5 2 0.5897 2.623464 13.753947 22.404242
633 5 1 -1.1794 2.195740 21.579260 14.083240
634 5 2 0.5897 2.111703 22.432255 14.550666
635 5 2 0.5897 2.901702 21.125398 14.588060
636 5 1 -1.1794 9.691760 14.083240 14.083240
637 5 2 0.5897 9.179361 14.686035 14.675296
638 5 2 0.5897 10.435205 14.669250 13.813222
639 5 1 -1.1794 3.748010 15.635510 20.026990
640 5 2 0.5897 3.210531 15.048688 20.613558
641 5 2 0.5897 4.509120 15.849677 20.613582
642 5 1 -1.1794 8.139490 20.026990 20.026990
643 5 2 0.5897 7.874494 20.552984 19.234030
644 5 2 0.5897 8.651795 20.694063 20.539321
645 5 1 -1.1794 3.748010 20.026990 15.635510
646 5 2 0.5897 4.034637 20.479751 16.460531
647 5 2 0.5897 3.172969 19.312181 15.987563
648 5 1 -1.1794 8.139490 15.635510 15.635510
649 5 2 0.5897 7.377269 15.994205 15.132611
650 5 2 0.5897 8.597826 16.477718 15.893531
651 5 1 -1.1794 0.000000 15.567275 13.273107
652 5 2 0.5897 0.035498 16.346567 13.876957
653 5 2 0.5897 0.798485 15.066590 13.559256
654 5 1 -1.1794 0.000000 20.095225 13.273107
655 5 2 0.5897 -0.758631 20.619342 13.624852
656 5 2 0.5897 0.759372 20.667326 13.557876
657 5 1 -1.1794 0.000000 15.567275 22.389393
658 5 2 0.5897 -0.044368 15.739390 23.356964
659 5 2 0.5897 -0.018559 16.465641 21.997446
660 5 1 -1.1794 0.000000 20.095225 22.389393
661 5 2 0.5897 0.205529 20.161938 23.357486
662 5 2 0.5897 -0.779451 19.516897 22.475442
663 5 1 -1.1794 1.385607 11.887500 15.567275
664 5 2 0.5897 0.417726 11.792841 15.708634
665 5 2 0.5897 1.754570 11.788072 16.469468
666 5 1 -1.1794 1.385607 11.887500 20.095225
667 5 2 0.5897 1.716836 12.634254 20.645536
668 5 2 0.5897 1.714706 11.116457 20.614450
669 5 1 -1.1794 10.501893 11.887500 15.567275
670 5 2 0.5897 9.916808 11.894167 16.359979
671 5 2 0.5897 10.184338 12.686764 15.089235
672 5 1 -1.1794 10.501893 11.887500 20.095225
673 5 2 0.5897 10.305638 12.686373 20.636625
674 5 2 0.5897 11.480928 11.953994 20.004178
675 5 1 -1.1794 3.679775 13.273107 11.887500
676 5 2 0.5897 3.181486 13.547580 12.690727
677 5 2 0.5897 4.465410 13.859811 11.925497
678 5 1 -1.1794 8.207725 13.273107 11.887500
679 5 2 0.5897 8.780854 13.502355 12.657015
680 5 2 0.5897 8.792041 13.540988 11.139635
681 5 1 -1.1794 3.679775 22.389393 11.887500
682 5 2 0.5897 3.869586 23.339877 11.991847
683 5 2 0.5897 4.546334 21.955958 11.999636
684 5 1 -1.1794 8.207725 22.389393 11.887500
685 5 2 0.5897 8.122284 23.365758 11.804074
686 5 2 0.5897 8.687717 22.164357 11.060137
687 5 1 -1.1794 9.623525 17.831250 16.445643
688 5 2 0.5897 9.813335 17.935598 17.396127
689 5 2 0.5897 10.490084 17.943385 16.012208
690 5 1 -1.1794 2.263975 17.831250 16.445643
691 5 2 0.5897 2.178531 17.747824 17.422008
692 5 2 0.5897 2.743967 17.003887 16.220608
693 5 1 -1.1794 9.623525 17.831250 19.216857
694 5 2 0.5897 9.125238 18.634478 19.491333
695 5 2 0.5897 10.409160 17.869243 19.803561
696 5 1 -1.1794 2.263975 17.831250 19.216857
697 5 2 0.5897 2.837102 18.600767 19.446105
698 5 2 0.5897 2.848293 17.083386 19.484739
699 5 1 -1.1794 5.943750 19.216857 14.151475
700 5 2 0.5897 5.185122 19.568606 14.675593
701 5 2 0.5897 6.703124 19.501622 14.723575
702 5 1 -1.1794 5.943750 19.216857 21.511025
703 5 2 0.5897 5.979250 19.820706 22.290318
704 5 2 0.5897 6.742237 19.503002 21.010342
705 5 1 -1.1794 5.943750 16.445643 14.151475
706 5 2 0.5897 6.149264 17.413742 14.218161
707 5 2 0.5897 5.164278 16.531661 13.573181
708 5 1 -1.1794 5.943750 16.445643 21.511025
709 5 2 0.5897 5.899383 17.413213 21.683144
710 5 2 0.5897 5.925192 16.053692 22.409389
711 5 1 -1.1794 7.329357 21.511025 17.831250
712 5 2 0.5897 6.361476 21.652384 17.736590
713 5 2 0.5897 7.698320 22.413218 17.731822
714 5 1 -1.1794 7.329357 14.151475 17.831250
715 5 2 0.5897 7.660588 14.701785 18.578003
716 5 2 0.5897 7.658458 14.670699 17.060206
717 5 1 -1.1794 4.558143 21.511025 17.831250
718 5 2 0.5897 3.973056 22.303729 17.837916
719 5 2 0.5897 4.240588 21.032985 18.630514
720 5 1 -1.1794 4.558143 14.151475 17.831250
721 5 2 0.5897 4.361890 14.692872 18.630125
722 5 2 0.5897 5.537178 14.060428 17.897742
723 5 3 0.0 0.000000 11.887500 11.887500
724 5 3 0.0 5.943750 17.831250 17.831250
725 5 3 0.0 0.000000 14.859375 17.831250
726 5 3 0.0 0.000000 20.803125 17.831250
727 5 3 0.0 5.943750 11.887500 14.859375
728 5 3 0.0 5.943750 11.887500 20.803125
729 5 3 0.0 2.971875 17.831250 11.887500
730 5 3 0.0 8.915625 17.831250 11.887500
731 6 1 -1.1794 0.000000 17.831250 26.746875
732 6 2 0.5897 0.009656 18.633882 26.176692
733 6 2 0.5897 0.819206 17.966305 27.275477
734 6 1 -1.1794 0.000000 17.831250 32.690625
735 6 2 0.5897 0.281067 18.695936 33.052971
736 6 2 0.5897 0.723234 17.700273 32.029920
737 6 1 -1.1794 2.971875 11.887500 29.718750
738 6 2 0.5897 2.409366 12.000295 30.516859
739 6 2 0.5897 3.506404 12.713596 29.730505
740 6 1 -1.1794 8.915625 11.887500 29.718750
741 6 2 0.5897 8.353117 12.685610 29.831546
742 6 2 0.5897 9.450153 11.899253 30.544848
743 6 1 -1.1794 5.943750 14.859375 23.775000
744 6 2 0.5897 6.224823 15.221727 24.639683
745 6 2 0.5897 6.666985 14.198672 23.644021
746 6 1 -1.1794 5.943750 20.803125 23.775000
747 6 2 0.5897 5.953409 20.232941 24.577632
748 6 2 0.5897 6.762955 21.331727 23.910054
749 6 1 -1.1794 2.195740 14.083240 25.970740
750 6 2 0.5897 1.930743 13.290281 26.496735
751 6 2 0.5897 2.708046 14.595572 26.637811
752 6 1 -1.1794 9.691760 21.579260 25.970740
753 6 2 0.5897 9.978388 22.404281 26.423501
754 6 2 0.5897 9.116718 21.931314 25.255933
755 6 1 -1.1794 9.691760 14.083240 33.466760
756 6 2 0.5897 9.154281 14.669808 32.879938
757 6 2 0.5897 10.452871 14.669832 33.680926
758 6 1 -1.1794 2.195740 21.579260 33.466760
759 6 2 0.5897 1.433515 21.076365 33.825449
760 6 2 0.5897 2.654073 21.837280 34.308970
761 6 1 -1.1794 8.139490 20.026990 27.523010
762 6 2 0.5897 8.055452 20.494415 28.376005
763 6 2 0.5897 8.845452 20.531810 27.069149
764 6 1 -1.1794 3.748010 15.635510 27.523010
765 6 2 0.5897 4.002365 15.072288 28.294697
766 6 2 0.5897 4.639981 15.858336 27.185372
767 6 1 -1.1794 8.139490 15.635510 31.914490
768 6 2 0.5897 7.353136 15.998445 32.384681
769 6 2 0.5897 8.567214 16.460492 31.585198
770 6 1 -1.1794 3.748010 20.026990 31.914490
771 6 2 0.5897 3.235613 20.619046 32.517287
772 6 2 0.5897 4.491456 19.756971 32.500499
773 6 1 -1.1794 9.691760 21.579260 33.466760
774 6 2 0.5897 9.946137 22.350942 32.903541
775 6 2 0.5897 10.583721 21.241596 33.689592
776 6 1 -1.1794 2.195740 14.083240 33.466760
777 6 2 0.5897 1.409385 14.553429 33.829694
778 6 2 0.5897 2.623464 13.753947 34.291742
779 6 1 -1.1794 2.195740 21.579260 25.970740
780 6 2 0.5897 2.111703 22.432255 26.438166
781 6 2 0.5897 2.901702 21.125398 26.475560
782 6 1 -1.1794 9.691760 14.083240 25.970740
783 6 2 0.5897 9.179361 14.686035 26.562796
784 6 2 0.5897 10.435205 14.669250 25.700722
785 6 1 -1.1794 3.748010 15.635510 31.914490
786 6 2 0.5897 3.210531 15.048688 32.501058
787 6 2 0.5897 4.509120 15.849677 32.501082
788 6 1 -1.1794 8.139490 20.026990 31.914490
789 6 2 0.5897 7.874494 20.552984 31.121530
790 6 2 0.5897 8.651795 20.694063 32.426821
791 6 1 -1.1794 3.748010 20.026990 27.523010
792 6 2 0.5897 4.034637 20.479751 28.348031
793 6 2 0.5897 3.172969 19.312181 27.875063
794 6 1 -1.1794 8.139490 15.635510 27.523010
795 6 2 0.5897 7.377269 15.994205 27.020111
796 6 2 0.5897 8.597826 16.477718 27.781031
797 6 1 -1.1794 0.000000 15.567275 25.160607
798 6 2 0.5897 0.035498 16.346567 25.764457
799 6 2 0.5897 0.798485 15.066590 25.446756
800 6 1 -1.1794 0.000000 20.095225 25.160607
801 6 2 0.5897 -0.758631 20.619342 25.512352
802 6 2 0.5897 0.759372 20.667326 25.445376
803 6 1 -1.1794 0.000000 15.567275 34.276893
804 6 2 0.5897 -0.044368 15.739390 35.244464
805 6 2 0.5897 -0.018559 16.465641 33.884946
806 6 1 -1.1794 0.000000 20.095225 34.276893
807 6 2 0.5897 0.205529 20.161938 35.244986
808 6 2 0.5897 -0.779451 19.516897 34.362942
809 6 1 -1.1794 1.385607 11.887500 27.454775
810 6 2 0.5897 0.417726 11.792841 27.596134
811 6 2 0.5897 1.754570 11.788072 28.356968
812 6 1 -1.1794 1.385607 11.887500 31.982725
813 6 2 0.5897 1.716836 12.634254 32.533036
814 6 2 0.5897 1.714706 11.116457 32.501950
815 6 1 -1.1794 10.501893 11.887500 27.454775
816 6 2 0.5897 9.916808 11.894167 28.247479
817 6 2 0.5897 10.184338 12.686764 26.976735
818 6 1 -1.1794 10.501893 11.887500 31.982725
819 6 2 0.5897 10.305638 12.686373 32.524125
820 6 2 0.5897 11.480928 11.953994 31.891678
821 6 1 -1.1794 3.679775 13.273107 23.775000
822 6 2 0.5897 3.181486 13.547580 24.578227
823 6 2 0.5897 4.465410 13.859811 23.812997
824 6 1 -1.1794 8.207725 13.273107 23.775000
825 6 2 0.5897 8.780854 13.502355 24.544515
826 6 2 0.5897 8.792041 13.540988 23.027135
827 6 1 -1.1794 3.679775 22.389393 23.775000
828 6 2 0.5897 3.869586 23.339877 23.879347
829 6 2 0.5897 4.546334 21.955958 23.887136
830 6 1 -1.1794 8.207725 22.389393 23.775000
831 6 2 0.5897 8.122284 23.365758 23.691574
832 6 2 0.5897 8.687717 22.164357 22.947637
833 6 1 -1.1794 9.623525 17.831250 28.333143
834 6 2 0.5897 9.813335 17.935598 29.283627
835 6 2 0.5897 10.490084 17.943385 27.899708
836 6 1 -1.1794 2.263975 17.831250 28.333143
837 6 2 0.5897 2.178531 17.747824 29.309508
838 6 2 0.5897 2.743967 17.003887 28.108108
839 6 1 -1.1794 9.623525 17.831250 31.104357
840 6 2 0.5897 9.125238 18.634478 31.378833
841 6 2 0.5897 10.409160 17.869243 31.691061
842 6 1 -1.1794 2.263975 17.831250 31.104357
843 6 2 0.5897 2.837102 18.600767 31.333605
844 6 2 0.5897 2.848293 17.083386 31.372239
845 6 1 -1.1794 5.943750 19.216857 26.038975
846 6 2 0.5897 5.185122 19.568606 26.563093
847 6 2 0.5897 6.703124 19.501622 26.611075
848 6 1 -1.1794 5.943750 19.216857 33.398525
849 6 2 0.5897 5.979250 19.820706 34.177818
850 6 2 0.5897 6.742237 19.503002 32.897842
851 6 1 -1.1794 5.943750 16.445643 26.038975
852 6 2 0.5897 6.149264 17.413742 26.105661
853 6 2 0.5897 5.164278 16.531661 25.460681
854 6 1 -1.1794 5.943750 16.445643 33.398525
855 6 2 0.5897 5.899383 17.413213 33.570644
856 6 2 0.5897 5.925192 16.053692 34.296889
857 6 1 -1.1794 7.329357 21.511025 29.718750
858 6 2 0.5897 6.361476 21.652384 29.624090
859 6 2 0.5897 7.698320 22.413218 29.619322
860 6 1 -1.1794 7.329357 14.151475 29.718750
861 6 2 0.5897 7.660588 14.701785 30.465503
862 6 2 0.5897 7.658458 14.670699 28.947706
863 6 1 -1.1794 4.558143 21.511025 29.718750
864 6 2 0.5897 3.973056 22.303729 29.725416
865 6 2 0.5897 4.240588 21.032985 30.518014
866 6 1 -1.1794 4.558143 14.151475 29.718750
867 6 2 0.5897 4.361890 14.692872 30.517625
868 6 2 0.5897 5.537178 14.060428 29.785242
869 6 3 0.0 0.000000 11.887500 23.775000
870 6 3 0.0 5.943750 17.831250 29.718750
871 6 3 0.0 0.000000 14.859375 29.718750
872 6 3 0.0 0.000000 20.803125 29.718750
873 6 3 0.0 5.943750 11.887500 26.746875
874 6 3 0.0 5.943750 11.887500 32.690625
875 6 3 0.0 2.971875 17.831250 23.775000
876 6 3 0.0 8.915625 17.831250 23.775000
877 7 1 -1.1794 0.000000 29.718750 2.971875
878 7 2 0.5897 0.009656 30.521382 2.401692
879 7 2 0.5897 0.819206 29.853805 3.500477
880 7 1 -1.1794 0.000000 29.718750 8.915625
881 7 2 0.5897 0.281067 30.583436 9.277971
882 7 2 0.5897 0.723234 29.587773 8.254920
883 7 1 -1.1794 2.971875 23.775000 5.943750
884 7 2 0.5897 2.409366 23.887795 6.741859
885 7 2 0.5897 3.506404 24.601096 5.955505
886 7 1 -1.1794 8.915625 23.775000 5.943750
887 7 2 0.5897 8.353117 24.573110 6.056546
888 7 2 0.5897 9.450153 23.786753 6.769848
889 7 1 -1.1794 5.943750 26.746875 0.000000
890 7 2 0.5897 6.224823 27.109227 0.864683
891 7 2 0.5897 6.666985 26.086172 -0.130979
892 7 1 -1.1794 5.943750 32.690625 0.000000
893 7 2 0.5897 5.953409 32.120441 0.802632
894 7 2 0.5897 6.762955 33.219227 0.135054
895 7 1 -1.1794 2.195740 25.970740 2.195740
896 7 2 0.5897 1.930743 25.177781 2.721735
897 7 2 0.5897 2.708046 26.483072 2.862811
898 7 1 -1.1794 9.691760 33.466760 2.195740
899 7 2 0.5897 9.978388 34.291781 2.648501
900 7 2 0.5897 9.116718 33.818814 1.480933
901 7 1 -1.1794 9.691760 25.970740 9.691760
902 7 2 0.5897 9.154281 26.557308 9.104938
903 7 2 0.5897 10.452871 26.557332 9.905926
904 7 1 -1.1794 2.195740 33.466760 9.691760
905 7 2 0.5897 1.433515 32.963865 10.050449
906 7 2 0.5897 2.654073 33.724780 10.533970
907 7 1 -1.1794 8.139490 31.914490 3.748010
908 7 2 0.5897 8.055452 32.381915 4.601005
909 7 2 0.5897 8.845452 32.419310 3.294149
910 7 1 -1.1794 3.748010 27.523010 3.748010
911 7 2 0.5897 4.002365 26.959788 4.519697
912 7 2 0.5897 4.639981 27.745836 3.410372
913 7 1 -1.1794 8.139490 27.523010 8.139490
914 7 2 0.5897 7.353136 27.885945 8.609681
915 7 2 0.5897 8.567214 28.347992 7.810198
916 7 1 -1.1794 3.748010 31.914490 8.139490
917 7 2 0.5897 3.235613 32.506546 8.742287
918 7 2 0.5897 4.491456 31.644471 8.725499
919 7 1 -1.1794 9.691760 33.466760 9.691760
920 7 2 0.5897 9.946137 34.238442 9.128541
921 7 2 0.5897 10.583721 33.129096 9.914592
922 7 1 -1.1794 2.195740 25.970740 9.691760
923 7 2 0.5897 1.409385 26.440929 10.054694
924 7 2 0.5897 2.623464 25.641447 10.516742
925 7 1 -1.1794 2.195740 33.466760 2.195740
926 7 2 0.5897 2.111703 34.319755 2.663166
927 7 2 0.5897 2.901702 33.012898 2.700560
928 7 1 -1.1794 9.691760 25.970740 2.195740
929 7 2 0.5897 9.179361 26.573535 2.787796
930 7 2 0.5897 10.435205 26.556750 1.925722
931 7 1 -1.1794 3.748010 27.523010 8.139490
932 7 2 0.5897 3.210531 26.936188 8.726058
933 7 2 0.5897 4.509120 27.737177 8.726082
934 7 1 -1.1794 8.139490 31.914490 8.139490
935 7 2 0.5897 7.874494 32.440484 7.346530
936 7 2 0.5897 8.651795 32.581563 8.651821
937 7 1 -1.1794 3.748010 31.914490 3.748010
938 7 2 0.5897 4.034637 32.367251 4.573031
939 7 2 0.5897 3.172969 31.199681 4.100063
940 7 1 -1.1794 8.139490 27.523010 3.748010
941 7 2 0.5897 7.377269 27.881705 3.245111
942 7 2 0.5897 8.597826 28.365218 4.006031
943 7 1 -1.1794 0.000000 27.454775 1.385607
944 7 2 0.5897 0.035498 28.234067 1.989457
945 7 2 0.5897 0.798485 26.954090 1.671756
946 7 1 -1.1794 0.000000 31.982725 1.385607
947 7 2 0.5897 -0.758631 32.506842 1.737352
948 7 2 0.5897 0.759372 32.554826 1.670376
949 7 1 -1.1794 0.000000 27.454775 10.501893
950 7 2 0.5897 -0.044368 27.626890 11.469464
951 7 2 0.5897 -0.018559 28.353141 10.109946
952 7 1 -1.1794 0.000000 31.982725 10.501893
953 7 2 0.5897 0.205529 32.049438 11.469986
954 7 2 0.5897 -0.779451 31.404397 10.587942
955 7 1 -1.1794 1.385607 23.775000 3.679775
956 7 2 0.5897 0.417726 23.680341 3.821134
957 7 2 0.5897 1.754570 23.675572 4.581968
958 7 1 -1.1794 1.385607 23.775000 8.207725
959 7 2 0.5897 1.716836 24.521754 8.758036
960 7 2 0.5897 1.714706 23.003957 8.726950
961 7 1 -1.1794 10.501893 23.775000 3.679775
962 7 2 0.5897 9.916808 23.781667 4.472479
963 7 2 0.5897 10.184338 24.574264 3.201735
964 7 1 -1.1794 10.501893 23.775000 8.207725
965 7 2 0.5897 10.305638 24.573873 8.749125
966 7 2 0.5897 11.480928 23.841494 8.116678
967 7 1 -1.1794 3.679775 25.160607 0.000000
968 7 2 0.5897 3.181486 25.435080 0.803227
969 7 2 0.5897 4.465410 25.747311 0.037997
970 7 1 -1.1794 8.207725 25.160607 0.000000
971 7 2 0.5897 8.780854 25.389855 0.769515
972 7 2 0.5897 8.792041 25.428488 -0.747865
973 7 1 -1.1794 3.679775 34.276893 0.000000
974 7 2 0.5897 3.869586 35.227377 0.104347
975 7 2 0.5897 4.546334 33.843458 0.112136
976 7 1 -1.1794 8.207725 34.276893 0.000000
977 7 2 0.5897 8.122284 35.253258 -0.083426
978 7 2 0.5897 8.687717 34.051857 -0.827363
979 7 1 -1.1794 9.623525 29.718750 4.558143
980 7 2 0.5897 9.813335 29.823098 5.508627
981 7 2 0.5897 10.490084 29.830885 4.124708
982 7 1 -1.1794 2.263975 29.718750 4.558143
983 7 2 0.5897 2.178531 29.635324 5.534508
984 7 2 0.5897 2.743967 28.891387 4.333108
985 7 1 -1.1794 9.623525 29.718750 7.329357
986 7 2 0.5897 9.125238 30.521978 7.603833
987 7 2 0.5897 10.409160 29.756743 7.916061
988 7 1 -1.1794 2.263975 29.718750 7.329357
989 7 2 0.5897 2.837102 30.488267 7.558605
990 7 2 0.5897 2.848293 28.970886 7.597239
991 7 1 -1.1794 5.943750 31.104357 2.263975
992 7 2 0.5897 5.185122 31.456106 2.788093
993 7 2 0.5897 6.703124 31.389122 2.836075
994 7 1 -1.1794 5.943750 31.104357 9.623525
995 7 2 0.5897 5.979250 31.708206 10.402818
996 7 2 0.5897 6.742237 31.390502 9.122842
997 7 1 -1.1794 5.943750 28.333143 2.263975
998 7 2 0.5897 6.149264 29.301242 2.330661
999 7 2 0.5897 5.164278 28.419161 1.685681
1000 7 1 -1.1794 5.943750 28.333143 9.623525
1001 7 2 0.5897 5.899383 29.300713 9.795644
1002 7 2 0.5897 5.925192 27.941192 10.521889
1003 7 1 -1.1794 7.329357 33.398525 5.943750
1004 7 2 0.5897 6.361476 33.539884 5.849090
1005 7 2 0.5897 7.698320 34.300718 5.844322
1006 7 1 -1.1794 7.329357 26.038975 5.943750
1007 7 2 0.5897 7.660588 26.589285 6.690503
1008 7 2 0.5897 7.658458 26.558199 5.172706
1009 7 1 -1.1794 4.558143 33.398525 5.943750
1010 7 2 0.5897 3.973056 34.191229 5.950416
1011 7 2 0.5897 4.240588 32.920485 6.743014
1012 7 1 -1.1794 4.558143 26.038975 5.943750
1013 7 2 0.5897 4.361890 26.580372 6.742625
1014 7 2 0.5897 5.537178 25.947928 6.010242
1015 7 3 0.0 0.000000 23.775000 0.000000
1016 7 3 0.0 5.943750 29.718750 5.943750
1017 7 3 0.0 0.000000 26.746875 5.943750
1018 7 3 0.0 0.000000 32.690625 5.943750
1019 7 3 0.0 5.943750 23.775000 2.971875
1020 7 3 0.0 5.943750 23.775000 8.915625
1021 7 3 0.0 2.971875 29.718750 0.000000
1022 7 3 0.0 8.915625 29.718750 0.000000
1023 8 1 -1.1794 0.000000 29.718750 14.859375
1024 8 2 0.5897 0.009656 30.521382 14.289192
1025 8 2 0.5897 0.819206 29.853805 15.387977
1026 8 1 -1.1794 0.000000 29.718750 20.803125
1027 8 2 0.5897 0.281067 30.583436 21.165471
1028 8 2 0.5897 0.723234 29.587773 20.142420
1029 8 1 -1.1794 2.971875 23.775000 17.831250
1030 8 2 0.5897 2.409366 23.887795 18.629359
1031 8 2 0.5897 3.506404 24.601096 17.843005
1032 8 1 -1.1794 8.915625 23.775000 17.831250
1033 8 2 0.5897 8.353117 24.573110 17.944046
1034 8 2 0.5897 9.450153 23.786753 18.657348
1035 8 1 -1.1794 5.943750 26.746875 11.887500
1036 8 2 0.5897 6.224823 27.109227 12.752183
1037 8 2 0.5897 6.666985 26.086172 11.756521
1038 8 1 -1.1794 5.943750 32.690625 11.887500
1039 8 2 0.5897 5.953409 32.120441 12.690132
1040 8 2 0.5897 6.762955 33.219227 12.022554
1041 8 1 -1.1794 2.195740 25.970740 14.083240
1042 8 2 0.5897 1.930743 25.177781 14.609235
1043 8 2 0.5897 2.708046 26.483072 14.750311
1044 8 1 -1.1794 9.691760 33.466760 14.083240
1045 8 2 0.5897 9.978388 34.291781 14.536001
1046 8 2 0.5897 9.116718 33.818814 13.368433
1047 8 1 -1.1794 9.691760 25.970740 21.579260
1048 8 2 0.5897 9.154281 26.557308 20.992438
1049 8 2 0.5897 10.452871 26.557332 21.793426
1050 8 1 -1.1794 2.195740 33.466760 21.579260
1051 8 2 0.5897 1.433515 32.963865 21.937949
1052 8 2 0.5897 2.654073 33.724780 22.421470
1053 8 1 -1.1794 8.139490 31.914490 15.635510
1054 8 2 0.5897 8.055452 32.381915 16.488505
1055 8 2 0.5897 8.845452 32.419310 15.181649
1056 8 1 -1.1794 3.748010 27.523010 15.635510
1057 8 2 0.5897 4.002365 26.959788 16.407197
1058 8 2 0.5897 4.639981 27.745836 15.297872
1059 8 1 -1.1794 8.139490 27.523010 20.026990
1060 8 2 0.5897 7.353136 27.885945 20.497181
1061 8 2 0.5897 8.567214 28.347992 19.697698
1062 8 1 -1.1794 3.748010 31.914490 20.026990
1063 8 2 0.5897 3.235613 32.506546 20.629787
1064 8 2 0.5897 4.491456 31.644471 20.612999
1065 8 1 -1.1794 9.691760 33.466760 21.579260
1066 8 2 0.5897 9.946137 34.238442 21.016041
1067 8 2 0.5897 10.583721 33.129096 21.802092
1068 8 1 -1.1794 2.195740 25.970740 21.579260
1069 8 2 0.5897 1.409385 26.440929 21.942194
1070 8 2 0.5897 2.623464 25.641447 22.404242
1071 8 1 -1.1794 2.195740 33.466760 14.083240
1072 8 2 0.5897 2.111703 34.319755 14.550666
1073 8 2 0.5897 2.901702 33.012898 14.588060
1074 8 1 -1.1794 9.691760 25.970740 14.083240
1075 8 2 0.5897 9.179361 26.573535 14.675296
1076 8 2 0.5897 10.435205 26.556750 13.813222
1077 8 1 -1.1794 3.748010 27.523010 20.026990
1078 8 2 0.5897 3.210531 26.936188 20.613558
1079 8 2 0.5897 4.509120 27.737177 20.613582
1080 8 1 -1.1794 8.139490 31.914490 20.026990
1081 8 2 0.5897 7.874494 32.440484 19.234030
1082 8 2 0.5897 8.651795 32.581563 20.539321
1083 8 1 -1.1794 3.748010 31.914490 15.635510
1084 8 2 0.5897 4.034637 32.367251 16.460531
1085 8 2 0.5897 3.172969 31.199681 15.987563
1086 8 1 -1.1794 8.139490 27.523010 15.635510
1087 8 2 0.5897 7.377269 27.881705 15.132611
1088 8 2 0.5897 8.597826 28.365218 15.893531
1089 8 1 -1.1794 0.000000 27.454775 13.273107
1090 8 2 0.5897 0.035498 28.234067 13.876957
1091 8 2 0.5897 0.798485 26.954090 13.559256
1092 8 1 -1.1794 0.000000 31.982725 13.273107
1093 8 2 0.5897 -0.758631 32.506842 13.624852
1094 8 2 0.5897 0.759372 32.554826 13.557876
1095 8 1 -1.1794 0.000000 27.454775 22.389393
1096 8 2 0.5897 -0.044368 27.626890 23.356964
1097 8 2 0.5897 -0.018559 28.353141 21.997446
1098 8 1 -1.1794 0.000000 31.982725 22.389393
1099 8 2 0.5897 0.205529 32.049438 23.357486
1100 8 2 0.5897 -0.779451 31.404397 22.475442
1101 8 1 -1.1794 1.385607 23.775000 15.567275
1102 8 2 0.5897 0.417726 23.680341 15.708634
1103 8 2 0.5897 1.754570 23.675572 16.469468
1104 8 1 -1.1794 1.385607 23.775000 20.095225
1105 8 2 0.5897 1.716836 24.521754 20.645536
1106 8 2 0.5897 1.714706 23.003957 20.614450
1107 8 1 -1.1794 10.501893 23.775000 15.567275
1108 8 2 0.5897 9.916808 23.781667 16.359979
1109 8 2 0.5897 10.184338 24.574264 15.089235
1110 8 1 -1.1794 10.501893 23.775000 20.095225
1111 8 2 0.5897 10.305638 24.573873 20.636625
1112 8 2 0.5897 11.480928 23.841494 20.004178
1113 8 1 -1.1794 3.679775 25.160607 11.887500
1114 8 2 0.5897 3.181486 25.435080 12.690727
1115 8 2 0.5897 4.465410 25.747311 11.925497
1116 8 1 -1.1794 8.207725 25.160607 11.887500
1117 8 2 0.5897 8.780854 25.389855 12.657015
1118 8 2 0.5897 8.792041 25.428488 11.139635
1119 8 1 -1.1794 3.679775 34.276893 11.887500
1120 8 2 0.5897 3.869586 35.227377 11.991847
1121 8 2 0.5897 4.546334 33.843458 11.999636
1122 8 1 -1.1794 8.207725 34.276893 11.887500
1123 8 2 0.5897 8.122284 35.253258 11.804074
1124 8 2 0.5897 8.687717 34.051857 11.060137
1125 8 1 -1.1794 9.623525 29.718750 16.445643
1126 8 2 0.5897 9.813335 29.823098 17.396127
1127 8 2 0.5897 10.490084 29.830885 16.012208
1128 8 1 -1.1794 2.263975 29.718750 16.445643
1129 8 2 0.5897 2.178531 29.635324 17.422008
1130 8 2 0.5897 2.743967 28.891387 16.220608
1131 8 1 -1.1794 9.623525 29.718750 19.216857
1132 8 2 0.5897 9.125238 30.521978 19.491333
1133 8 2 0.5897 10.409160 29.756743 19.803561
1134 8 1 -1.1794 2.263975 29.718750 19.216857
1135 8 2 0.5897 2.837102 30.488267 19.446105
1136 8 2 0.5897 2.848293 28.970886 19.484739
1137 8 1 -1.1794 5.943750 31.104357 14.151475
1138 8 2 0.5897 5.185122 31.456106 14.675593
1139 8 2 0.5897 6.703124 31.389122 14.723575
1140 8 1 -1.1794 5.943750 31.104357 21.511025
1141 8 2 0.5897 5.979250 31.708206 22.290318
1142 8 2 0.5897 6.742237 31.390502 21.010342
1143 8 1 -1.1794 5.943750 28.333143 14.151475
1144 8 2 0.5897 6.149264 29.301242 14.218161
1145 8 2 0.5897 5.164278 28.419161 13.573181
1146 8 1 -1.1794 5.943750 28.333143 21.511025
1147 8 2 0.5897 5.899383 29.300713 21.683144
1148 8 2 0.5897 5.925192 27.941192 22.409389
1149 8 1 -1.1794 7.329357 33.398525 17.831250
1150 8 2 0.5897 6.361476 33.539884 17.736590
1151 8 2 0.5897 7.698320 34.300718 17.731822
1152 8 1 -1.1794 7.329357 26.038975 17.831250
1153 8 2 0.5897 7.660588 26.589285 18.578003
1154 8 2 0.5897 7.658458 26.558199 17.060206
1155 8 1 -1.1794 4.558143 33.398525 17.831250
1156 8 2 0.5897 3.973056 34.191229 17.837916
1157 8 2 0.5897 4.240588 32.920485 18.630514
1158 8 1 -1.1794 4.558143 26.038975 17.831250
1159 8 2 0.5897 4.361890 26.580372 18.630125
1160 8 2 0.5897 5.537178 25.947928 17.897742
1161 8 3 0.0 0.000000 23.775000 11.887500
1162 8 3 0.0 5.943750 29.718750 17.831250
1163 8 3 0.0 0.000000 26.746875 17.831250
1164 8 3 0.0 0.000000 32.690625 17.831250
1165 8 3 0.0 5.943750 23.775000 14.859375
1166 8 3 0.0 5.943750 23.775000 20.803125
1167 8 3 0.0 2.971875 29.718750 11.887500
1168 8 3 0.0 8.915625 29.718750 11.887500
1169 9 1 -1.1794 0.000000 29.718750 26.746875
1170 9 2 0.5897 0.009656 30.521382 26.176692
1171 9 2 0.5897 0.819206 29.853805 27.275477
1172 9 1 -1.1794 0.000000 29.718750 32.690625
1173 9 2 0.5897 0.281067 30.583436 33.052971
1174 9 2 0.5897 0.723234 29.587773 32.029920
1175 9 1 -1.1794 2.971875 23.775000 29.718750
1176 9 2 0.5897 2.409366 23.887795 30.516859
1177 9 2 0.5897 3.506404 24.601096 29.730505
1178 9 1 -1.1794 8.915625 23.775000 29.718750
1179 9 2 0.5897 8.353117 24.573110 29.831546
1180 9 2 0.5897 9.450153 23.786753 30.544848
1181 9 1 -1.1794 5.943750 26.746875 23.775000
1182 9 2 0.5897 6.224823 27.109227 24.639683
1183 9 2 0.5897 6.666985 26.086172 23.644021
1184 9 1 -1.1794 5.943750 32.690625 23.775000
1185 9 2 0.5897 5.953409 32.120441 24.577632
1186 9 2 0.5897 6.762955 33.219227 23.910054
1187 9 1 -1.1794 2.195740 25.970740 25.970740
1188 9 2 0.5897 1.930743 25.177781 26.496735
1189 9 2 0.5897 2.708046 26.483072 26.637811
1190 9 1 -1.1794 9.691760 33.466760 25.970740
1191 9 2 0.5897 9.978388 34.291781 26.423501
1192 9 2 0.5897 9.116718 33.818814 25.255933
1193 9 1 -1.1794 9.691760 25.970740 33.466760
1194 9 2 0.5897 9.154281 26.557308 32.879938
1195 9 2 0.5897 10.452871 26.557332 33.680926
1196 9 1 -1.1794 2.195740 33.466760 33.466760
1197 9 2 0.5897 1.433515 32.963865 33.825449
1198 9 2 0.5897 2.654073 33.724780 34.308970
1199 9 1 -1.1794 8.139490 31.914490 27.523010
1200 9 2 0.5897 8.055452 32.381915 28.376005
1201 9 2 0.5897 8.845452 32.419310 27.069149
1202 9 1 -1.1794 3.748010 27.523010 27.523010
1203 9 2 0.5897 4.002365 26.959788 28.294697
1204 9 2 0.5897 4.639981 27.745836 27.185372
1205 9 1 -1.1794 8.139490 27.523010 31.914490
1206 9 2 0.5897 7.353136 27.885945 32.384681
1207 9 2 0.5897 8.567214 28.347992 31.585198
1208 9 1 -1.1794 3.748010 31.914490 31.914490
1209 9 2 0.5897 3.235613 32.506546 32.517287
1210 9 2 0.5897 4.491456 31.644471 32.500499
1211 9 1 -1.1794 9.691760 33.466760 33.466760
1212 9 2 0.5897 9.946137 34.238442 32.903541
1213 9 2 0.5897 10.583721 33.129096 33.689592
1214 9 1 -1.1794 2.195740 25.970740 33.466760
1215 9 2 0.5897 1.409385 26.440929 33.829694
1216 9 2 0.5897 2.623464 25.641447 34.291742
1217 9 1 -1.1794 2.195740 33.466760 25.970740
1218 9 2 0.5897 2.111703 34.319755 26.438166
1219 9 2 0.5897 2.901702 33.012898 26.475560
1220 9 1 -1.1794 9.691760 25.970740 25.970740
1221 9 2 0.5897 9.179361 26.573535 26.562796
1222 9 2 0.5897 10.435205 26.556750 25.700722
1223 9 1 -1.1794 3.748010 27.523010 31.914490
1224 9 2 0.5897 3.210531 26.936188 32.501058
1225 9 2 0.5897 4.509120 27.737177 32.501082
1226 9 1 -1.1794 8.139490 31.914490 31.914490
1227 9 2 0.5897 7.874494 32.440484 31.121530
1228 9 2 0.5897 8.651795 32.581563 32.426821
1229 9 1 -1.1794 3.748010 31.914490 27.523010
1230 9 2 0.5897 4.034637 32.367251 28.348031
1231 9 2 0.5897 3.172969 31.199681 27.875063
1232 9 1 -1.1794 8.139490 27.523010 27.523010
1233 9 2 0.5897 7.377269 27.881705 27.020111
1234 9 2 0.5897 8.597826 28.365218 27.781031
1235 9 1 -1.1794 0.000000 27.454775 25.160607
1236 9 2 0.5897 0.035498 28.234067 25.764457
1237 9 2 0.5897 0.798485 26.954090 25.446756
1238 9 1 -1.1794 0.000000 31.982725 25.160607
1239 9 2 0.5897 -0.758631 32.506842 25.512352
1240 9 2 0.5897 0.759372 32.554826 25.445376
1241 9 1 -1.1794 0.000000 27.454775 34.276893
1242 9 2 0.5897 -0.044368 27.626890 35.244464
1243 9 2 0.5897 -0.018559 28.353141 33.884946
1244 9 1 -1.1794 0.000000 31.982725 34.276893
1245 9 2 0.5897 0.205529 32.049438 35.244986
1246 9 2 0.5897 -0.779451 31.404397 34.362942
1247 9 1 -1.1794 1.385607 23.775000 27.454775
1248 9 2 0.5897 0.417726 23.680341 27.596134
1249 9 2 0.5897 1.754570 23.675572 28.356968
1250 9 1 -1.1794 1.385607 23.775000 31.982725
1251 9 2 0.5897 1.716836 24.521754 32.533036
1252 9 2 0.5897 1.714706 23.003957 32.501950
1253 9 1 -1.1794 10.501893 23.775000 27.454775
1254 9 2 0.5897 9.916808 23.781667 28.247479
1255 9 2 0.5897 10.184338 24.574264 26.976735
1256 9 1 -1.1794 10.501893 23.775000 31.982725
1257 9 2 0.5897 10.305638 24.573873 32.524125
1258 9 2 0.5897 11.480928 23.841494 31.891678
1259 9 1 -1.1794 3.679775 25.160607 23.775000
1260 9 2 0.5897 3.181486 25.435080 24.578227
1261 9 2 0.5897 4.465410 25.747311 23.812997
1262 9 1 -1.1794 8.207725 25.160607 23.775000
1263 9 2 0.5897 8.780854 25.389855 24.544515
1264 9 2 0.5897 8.792041 25.428488 23.027135
1265 9 1 -1.1794 3.679775 34.276893 23.775000
1266 9 2 0.5897 3.869586 35.227377 23.879347
1267 9 2 0.5897 4.546334 33.843458 23.887136
1268 9 1 -1.1794 8.207725 34.276893 23.775000
1269 9 2 0.5897 8.122284 35.253258 23.691574
1270 9 2 0.5897 8.687717 34.051857 22.947637
1271 9 1 -1.1794 9.623525 29.718750 28.333143
1272 9 2 0.5897 9.813335 29.823098 29.283627
1273 9 2 0.5897 10.490084 29.830885 27.899708
1274 9 1 -1.1794 2.263975 29.718750 28.333143
1275 9 2 0.5897 2.178531 29.635324 29.309508
1276 9 2 0.5897 2.743967 28.891387 28.108108
1277 9 1 -1.1794 9.623525 29.718750 31.104357
1278 9 2 0.5897 9.125238 30.521978 31.378833
1279 9 2 0.5897 10.409160 29.756743 31.691061
1280 9 1 -1.1794 2.263975 29.718750 31.104357
1281 9 2 0.5897 2.837102 30.488267 31.333605
1282 9 2 0.5897 2.848293 28.970886 31.372239
1283 9 1 -1.1794 5.943750 31.104357 26.038975
1284 9 2 0.5897 5.185122 31.456106 26.563093
1285 9 2 0.5897 6.703124 31.389122 26.611075
1286 9 1 -1.1794 5.943750 31.104357 33.398525
1287 9 2 0.5897 5.979250 31.708206 34.177818
1288 9 2 0.5897 6.742237 31.390502 32.897842
1289 9 1 -1.1794 5.943750 28.333143 26.038975
1290 9 2 0.5897 6.149264 29.301242 26.105661
1291 9 2 0.5897 5.164278 28.419161 25.460681
1292 9 1 -1.1794 5.943750 28.333143 33.398525
1293 9 2 0.5897 5.899383 29.300713 33.570644
1294 9 2 0.5897 5.925192 27.941192 34.296889
1295 9 1 -1.1794 7.329357 33.398525 29.718750
1296 9 2 0.5897 6.361476 33.539884 29.624090
1297 9 2 0.5897 7.698320 34.300718 29.619322
1298 9 1 -1.1794 7.329357 26.038975 29.718750
1299 9 2 0.5897 7.660588 26.589285 30.465503
1300 9 2 0.5897 7.658458 26.558199 28.947706
1301 9 1 -1.1794 4.558143 33.398525 29.718750
1302 9 2 0.5897 3.973056 34.191229 29.725416
1303 9 2 0.5897 4.240588 32.920485 30.518014
1304 9 1 -1.1794 4.558143 26.038975 29.718750
1305 9 2 0.5897 4.361890 26.580372 30.517625
1306 9 2 0.5897 5.537178 25.947928 29.785242
1307 9 3 0.0 0.000000 23.775000 23.775000
1308 9 3 0.0 5.943750 29.718750 29.718750
1309 9 3 0.0 0.000000 26.746875 29.718750
1310 9 3 0.0 0.000000 32.690625 29.718750
1311 9 3 0.0 5.943750 23.775000 26.746875
1312 9 3 0.0 5.943750 23.775000 32.690625
1313 9 3 0.0 2.971875 29.718750 23.775000
1314 9 3 0.0 8.915625 29.718750 23.775000
1315 10 1 -1.1794 0.000000 41.606250 2.971875
1316 10 2 0.5897 0.009656 42.408882 2.401692
1317 10 2 0.5897 0.819206 41.741305 3.500477
1318 10 1 -1.1794 0.000000 41.606250 8.915625
1319 10 2 0.5897 0.281067 42.470936 9.277971
1320 10 2 0.5897 0.723234 41.475273 8.254920
1321 10 1 -1.1794 2.971875 35.662500 5.943750
1322 10 2 0.5897 2.409366 35.775295 6.741859
1323 10 2 0.5897 3.506404 36.488596 5.955505
1324 10 1 -1.1794 8.915625 35.662500 5.943750
1325 10 2 0.5897 8.353117 36.460610 6.056546
1326 10 2 0.5897 9.450153 35.674253 6.769848
1327 10 1 -1.1794 5.943750 38.634375 0.000000
1328 10 2 0.5897 6.224823 38.996727 0.864683
1329 10 2 0.5897 6.666985 37.973672 -0.130979
1330 10 1 -1.1794 5.943750 44.578125 0.000000
1331 10 2 0.5897 5.953409 44.007941 0.802632
1332 10 2 0.5897 6.762955 45.106727 0.135054
1333 10 1 -1.1794 2.195740 37.858240 2.195740
1334 10 2 0.5897 1.930743 37.065281 2.721735
1335 10 2 0.5897 2.708046 38.370572 2.862811
1336 10 1 -1.1794 9.691760 45.354260 2.195740
1337 10 2 0.5897 9.978388 46.179281 2.648501
1338 10 2 0.5897 9.116718 45.706314 1.480933
1339 10 1 -1.1794 9.691760 37.858240 9.691760
1340 10 2 0.5897 9.154281 38.444808 9.104938
1341 10 2 0.5897 10.452871 38.444832 9.905926
1342 10 1 -1.1794 2.195740 45.354260 9.691760
1343 10 2 0.5897 1.433515 44.851365 10.050449
1344 10 2 0.5897 2.654073 45.612280 10.533970
1345 10 1 -1.1794 8.139490 43.801990 3.748010
1346 10 2 0.5897 8.055452 44.269415 4.601005
1347 10 2 0.5897 8.845452 44.306810 3.294149
1348 10 1 -1.1794 3.748010 39.410510 3.748010
1349 10 2 0.5897 4.002365 38.847288 4.519697
1350 10 2 0.5897 4.639981 39.633336 3.410372
1351 10 1 -1.1794 8.139490 39.410510 8.139490
1352 10 2 0.5897 7.353136 39.773445 8.609681
1353 10 2 0.5897 8.567214 40.235492 7.810198
1354 10 1 -1.1794 3.748010 43.801990 8.139490
1355 10 2 0.5897 3.235613 44.394046 8.742287
1356 10 2 0.5897 4.491456 43.531971 8.725499
1357 10 1 -1.1794 9.691760 45.354260 9.691760
1358 10 2 0.5897 9.946137 46.125942 9.128541
1359 10 2 0.5897 10.583721 45.016596 9.914592
1360 10 1 -1.1794 2.195740 37.858240 9.691760
1361 10 2 0.5897 1.409385 38.328429 10.054694
1362 10 2 0.5897 2.623464 37.528947 10.516742
1363 10 1 -1.1794 2.195740 45.354260 2.195740
1364 10 2 0.5897 2.111703 46.207255 2.663166
1365 10 2 0.5897 2.901702 44.900398 2.700560
1366 10 1 -1.1794 9.691760 37.858240 2.195740
1367 10 2 0.5897 9.179361 38.461035 2.787796
1368 10 2 0.5897 10.435205 38.444250 1.925722
1369 10 1 -1.1794 3.748010 39.410510 8.139490
1370 10 2 0.5897 3.210531 38.823688 8.726058
1371 10 2 0.5897 4.509120 39.624677 8.726082
1372 10 1 -1.1794 8.139490 43.801990 8.139490
1373 10 2 0.5897 7.874494 44.327984 7.346530
1374 10 2 0.5897 8.651795 44.469063 8.651821
1375 10 1 -1.1794 3.748010 43.801990 3.748010
1376 10 2 0.5897 4.034637 44.254751 4.573031
1377 10 2 0.5897 3.172969 43.087181 4.100063
1378 10 1 -1.1794 8.139490 39.410510 3.748010
1379 10 2 0.5897 7.377269 39.769205 3.245111
1380 10 2 0.5897 8.597826 40.252718 4.006031
1381 10 1 -1.1794 0.000000 39.342275 1.385607
1382 10 2 0.5897 0.035498 40.121567 1.989457
1383 10 2 0.5897 0.798485 38.841590 1.671756
1384 10 1 -1.1794 0.000000 43.870225 1.385607
1385 10 2 0.5897 -0.758631 44.394342 1.737352
1386 10 2 0.5897 0.759372 44.442326 1.670376
1387 10 1 -1.1794 0.000000 39.342275 10.501893
1388 10 2 0.5897 -0.044368 39.514390 11.469464
1389 10 2 0.5897 -0.018559 40.240641 10.109946
1390 10 1 -1.1794 0.000000 43.870225 10.501893
1391 10 2 0.5897 0.205529 43.936938 11.469986
1392 10 2 0.5897 -0.779451 43.291897 10.587942
1393 10 1 -1.1794 1.385607 35.662500 3.679775
1394 10 2 0.5897 0.417726 35.567841 3.821134
1395 10 2 0.5897 1.754570 35.563072 4.581968
1396 10 1 -1.1794 1.385607 35.662500 8.207725
1397 10 2 0.5897 1.716836 36.409254 8.758036
1398 10 2 0.5897 1.714706 34.891457 8.726950
1399 10 1 -1.1794 10.501893 35.662500 3.679775
1400 10 2 0.5897 9.916808 35.669167 4.472479
1401 10 2 0.5897 10.184338 36.461764 3.201735
1402 10 1 -1.1794 10.501893 35.662500 8.207725
1403 10 2 0.5897 10.305638 36.461373 8.749125
1404 10 2 0.5897 11.480928 35.728994 8.116678
1405 10 1 -1.1794 3.679775 37.048107 0.000000
1406 10 2 0.5897 3.181486 37.322580 0.803227
1407 10 2 0.5897 4.465410 37.634811 0.037997
1408 10 1 -1.1794 8.207725 37.048107 0.000000
1409 10 2 0.5897 8.780854 37.277355 0.769515
1410 10 2 0.5897 8.792041 37.315988 -0.747865
1411 10 1 -1.1794 3.679775 46.164393 0.000000
1412 10 2 0.5897 3.869586 47.114877 0.104347
1413 10 2 0.5897 4.546334 45.730958 0.112136
1414 10 1 -1.1794 8.207725 46.164393 0.000000
1415 10 2 0.5897 8.122284 47.140758 -0.083426
1416 10 2 0.5897 8.687717 45.939357 -0.827363
1417 10 1 -1.1794 9.623525 41.606250 4.558143
1418 10 2 0.5897 9.813335 41.710598 5.508627
1419 10 2 0.5897 10.490084 41.718385 4.124708
1420 10 1 -1.1794 2.263975 41.606250 4.558143
1421 10 2 0.5897 2.178531 41.522824 5.534508
1422 10 2 0.5897 2.743967 40.778887 4.333108
1423 10 1 -1.1794 9.623525 41.606250 7.329357
1424 10 2 0.5897 9.125238 42.409478 7.603833
1425 10 2 0.5897 10.409160 41.644243 7.916061
1426 10 1 -1.1794 2.263975 41.606250 7.329357
1427 10 2 0.5897 2.837102 42.375767 7.558605
1428 10 2 0.5897 2.848293 40.858386 7.597239
1429 10 1 -1.1794 5.943750 42.991857 2.263975
1430 10 2 0.5897 5.185122 43.343606 2.788093
1431 10 2 0.5897 6.703124 43.276622 2.836075
1432 10 1 -1.1794 5.943750 42.991857 9.623525
1433 10 2 0.5897 5.979250 43.595706 10.402818
1434 10 2 0.5897 6.742237 43.278002 9.122842
1435 10 1 -1.1794 5.943750 40.220643 2.263975
1436 10 2 0.5897 6.149264 41.188742 2.330661
1437 10 2 0.5897 5.164278 40.306661 1.685681
1438 10 1 -1.1794 5.943750 40.220643 9.623525
1439 10 2 0.5897 5.899383 41.188213 9.795644
1440 10 2 0.5897 5.925192 39.828692 10.521889
1441 10 1 -1.1794 7.329357 45.286025 5.943750
1442 10 2 0.5897 6.361476 45.427384 5.849090
1443 10 2 0.5897 7.698320 46.188218 5.844322
1444 10 1 -1.1794 7.329357 37.926475 5.943750
1445 10 2 0.5897 7.660588 38.476785 6.690503
1446 10 2 0.5897 7.658458 38.445699 5.172706
1447 10 1 -1.1794 4.558143 45.286025 5.943750
1448 10 2 0.5897 3.973056 46.078729 5.950416
1449 10 2 0.5897 4.240588 44.807985 6.743014
1450 10 1 -1.1794 4.558143 37.926475 5.943750
1451 10 2 0.5897 4.361890 38.467872 6.742625
1452 10 2 0.5897 5.537178 37.835428 6.010242
1453 10 3 0.0 0.000000 35.662500 0.000000
1454 10 3 0.0 5.943750 41.606250 5.943750
1455 10 3 0.0 0.000000 38.634375 5.943750
1456 10 3 0.0 0.000000 44.578125 5.943750
1457 10 3 0.0 5.943750 35.662500 2.971875
1458 10 3 0.0 5.943750 35.662500 8.915625
1459 10 3 0.0 2.971875 41.606250 0.000000
1460 10 3 0.0 8.915625 41.606250 0.000000
1461 11 1 -1.1794 0.000000 41.606250 14.859375
1462 11 2 0.5897 0.009656 42.408882 14.289192
1463 11 2 0.5897 0.819206 41.741305 15.387977
1464 11 1 -1.1794 0.000000 41.606250 20.803125
1465 11 2 0.5897 0.281067 42.470936 21.165471
1466 11 2 0.5897 0.723234 41.475273 20.142420
1467 11 1 -1.1794 2.971875 35.662500 17.831250
1468 11 2 0.5897 2.409366 35.775295 18.629359
1469 11 2 0.5897 3.506404 36.488596 17.843005
1470 11 1 -1.1794 8.915625 35.662500 17.831250
1471 11 2 0.5897 8.353117 36.460610 17.944046
1472 11 2 0.5897 9.450153 35.674253 18.657348
1473 11 1 -1.1794 5.943750 38.634375 11.887500
1474 11 2 0.5897 6.224823 38.996727 12.752183
1475 11 2 0.5897 6.666985 37.973672 11.756521
1476 11 1 -1.1794 5.943750 44.578125 11.887500
1477 11 2 0.5897 5.953409 44.007941 12.690132
1478 11 2 0.5897 6.762955 45.106727 12.022554
1479 11 1 -1.1794 2.195740 37.858240 14.083240
1480 11 2 0.5897 1.930743 37.065281 14.609235
1481 11 2 0.5897 2.708046 38.370572 14.750311
1482 11 1 -1.1794 9.691760 45.354260 14.083240
1483 11 2 0.5897 9.978388 46.179281 14.536001
1484 11 2 0.5897 9.116718 45.706314 13.368433
1485 11 1 -1.1794 9.691760 37.858240 21.579260
1486 11 2 0.5897 9.154281 38.444808 20.992438
1487 11 2 0.5897 10.452871 38.444832 21.793426
1488 11 1 -1.1794 2.195740 45.354260 21.579260
1489 11 2 0.5897 1.433515 44.851365 21.937949
1490 11 2 0.5897 2.654073 45.612280 22.421470
1491 11 1 -1.1794 8.139490 43.801990 15.635510
1492 11 2 0.5897 8.055452 44.269415 16.488505
1493 11 2 0.5897 8.845452 44.306810 15.181649
1494 11 1 -1.1794 3.748010 39.410510 15.635510
1495 11 2 0.5897 4.002365 38.847288 16.407197
1496 11 2 0.5897 4.639981 39.633336 15.297872
1497 11 1 -1.1794 8.139490 39.410510 20.026990
1498 11 2 0.5897 7.353136 39.773445 20.497181
1499 11 2 0.5897 8.567214 40.235492 19.697698
1500 11 1 -1.1794 3.748010 43.801990 20.026990
1501 11 2 0.5897 3.235613 44.394046 20.629787
1502 11 2 0.5897 4.491456 43.531971 20.612999
1503 11 1 -1.1794 9.691760 45.354260 21.579260
1504 11 2 0.5897 9.946137 46.125942 21.016041
1505 11 2 0.5897 10.583721 45.016596 21.802092
1506 11 1 -1.1794 2.195740 37.858240 21.579260
1507 11 2 0.5897 1.409385 38.328429 21.942194
1508 11 2 0.5897 2.623464 37.528947 22.404242
1509 11 1 -1.1794 2.195740 45.354260 14.083240
1510 11 2 0.5897 2.111703 46.207255 14.550666
1511 11 2 0.5897 2.901702 44.900398 14.588060
1512 11 1 -1.1794 9.691760 37.858240 14.083240
1513 11 2 0.5897 9.179361 38.461035 14.675296
1514 11 2 0.5897 10.435205 38.444250 13.813222
1515 11 1 -1.1794 3.748010 39.410510 20.026990
1516 11 2 0.5897 3.210531 38.823688 20.613558
1517 11 2 0.5897 4.509120 39.624677 20.613582
1518 11 1 -1.1794 8.139490 43.801990 20.026990
1519 11 2 0.5897 7.874494 44.327984 19.234030
1520 11 2 0.5897 8.651795 44.469063 20.539321
1521 11 1 -1.1794 3.748010 43.801990 15.635510
1522 11 2 0.5897 4.034637 44.254751 16.460531
1523 11 2 0.5897 3.172969 43.087181 15.987563
1524 11 1 -1.1794 8.139490 39.410510 15.635510
1525 11 2 0.5897 7.377269 39.769205 15.132611
1526 11 2 0.5897 8.597826 40.252718 15.893531
1527 11 1 -1.1794 0.000000 39.342275 13.273107
1528 11 2 0.5897 0.035498 40.121567 13.876957
1529 11 2 0.5897 0.798485 38.841590 13.559256
1530 11 1 -1.1794 0.000000 43.870225 13.273107
1531 11 2 0.5897 -0.758631 44.394342 13.624852
1532 11 2 0.5897 0.759372 44.442326 13.557876
1533 11 1 -1.1794 0.000000 39.342275 22.389393
1534 11 2 0.5897 -0.044368 39.514390 23.356964
1535 11 2 0.5897 -0.018559 40.240641 21.997446
1536 11 1 -1.1794 0.000000 43.870225 22.389393
1537 11 2 0.5897 0.205529 43.936938 23.357486
1538 11 2 0.5897 -0.779451 43.291897 22.475442
1539 11 1 -1.1794 1.385607 35.662500 15.567275
1540 11 2 0.5897 0.417726 35.567841 15.708634
1541 11 2 0.5897 1.754570 35.563072 16.469468
1542 11 1 -1.1794 1.385607 35.662500 20.095225
1543 11 2 0.5897 1.716836 36.409254 20.645536
1544 11 2 0.5897 1.714706 34.891457 20.614450
1545 11 1 -1.1794 10.501893 35.662500 15.567275
1546 11 2 0.5897 9.916808 35.669167 16.359979
1547 11 2 0.5897 10.184338 36.461764 15.089235
1548 11 1 -1.1794 10.501893 35.662500 20.095225
1549 11 2 0.5897 10.305638 36.461373 20.636625
1550 11 2 0.5897 11.480928 35.728994 20.004178
1551 11 1 -1.1794 3.679775 37.048107 11.887500
1552 11 2 0.5897 3.181486 37.322580 12.690727
1553 11 2 0.5897 4.465410 37.634811 11.925497
1554 11 1 -1.1794 8.207725 37.048107 11.887500
1555 11 2 0.5897 8.780854 37.277355 12.657015
1556 11 2 0.5897 8.792041 37.315988 11.139635
1557 11 1 -1.1794 3.679775 46.164393 11.887500
1558 11 2 0.5897 3.869586 47.114877 11.991847
1559 11 2 0.5897 4.546334 45.730958 11.999636
1560 11 1 -1.1794 8.207725 46.164393 11.887500
1561 11 2 0.5897 8.122284 47.140758 11.804074
1562 11 2 0.5897 8.687717 45.939357 11.060137
1563 11 1 -1.1794 9.623525 41.606250 16.445643
1564 11 2 0.5897 9.813335 41.710598 17.396127
1565 11 2 0.5897 10.490084 41.718385 16.012208
1566 11 1 -1.1794 2.263975 41.606250 16.445643
1567 11 2 0.5897 2.178531 41.522824 17.422008
1568 11 2 0.5897 2.743967 40.778887 16.220608
1569 11 1 -1.1794 9.623525 41.606250 19.216857
1570 11 2 0.5897 9.125238 42.409478 19.491333
1571 11 2 0.5897 10.409160 41.644243 19.803561
1572 11 1 -1.1794 2.263975 41.606250 19.216857
1573 11 2 0.5897 2.837102 42.375767 19.446105
1574 11 2 0.5897 2.848293 40.858386 19.484739
1575 11 1 -1.1794 5.943750 42.991857 14.151475
1576 11 2 0.5897 5.185122 43.343606 14.675593
1577 11 2 0.5897 6.703124 43.276622 14.723575
1578 11 1 -1.1794 5.943750 42.991857 21.511025
1579 11 2 0.5897 5.979250 43.595706 22.290318
1580 11 2 0.5897 6.742237 43.278002 21.010342
1581 11 1 -1.1794 5.943750 40.220643 14.151475
1582 11 2 0.5897 6.149264 41.188742 14.218161
1583 11 2 0.5897 5.164278 40.306661 13.573181
1584 11 1 -1.1794 5.943750 40.220643 21.511025
1585 11 2 0.5897 5.899383 41.188213 21.683144
1586 11 2 0.5897 5.925192 39.828692 22.409389
1587 11 1 -1.1794 7.329357 45.286025 17.831250
1588 11 2 0.5897 6.361476 45.427384 17.736590
1589 11 2 0.5897 7.698320 46.188218 17.731822
1590 11 1 -1.1794 7.329357 37.926475 17.831250
1591 11 2 0.5897 7.660588 38.476785 18.578003
1592 11 2 0.5897 7.658458 38.445699 17.060206
1593 11 1 -1.1794 4.558143 45.286025 17.831250
1594 11 2 0.5897 3.973056 46.078729 17.837916
1595 11 2 0.5897 4.240588 44.807985 18.630514
1596 11 1 -1.1794 4.558143 37.926475 17.831250
1597 11 2 0.5897 4.361890 38.467872 18.630125
1598 11 2 0.5897 5.537178 37.835428 17.897742
1599 11 3 0.0 0.000000 35.662500 11.887500
1600 11 3 0.0 5.943750 41.606250 17.831250
1601 11 3 0.0 0.000000 38.634375 17.831250
1602 11 3 0.0 0.000000 44.578125 17.831250
1603 11 3 0.0 5.943750 35.662500 14.859375
1604 11 3 0.0 5.943750 35.662500 20.803125
1605 11 3 0.0 2.971875 41.606250 11.887500
1606 11 3 0.0 8.915625 41.606250 11.887500
1607 12 1 -1.1794 0.000000 41.606250 26.746875
1608 12 2 0.5897 0.009656 42.408882 26.176692
1609 12 2 0.5897 0.819206 41.741305 27.275477
1610 12 1 -1.1794 0.000000 41.606250 32.690625
1611 12 2 0.5897 0.281067 42.470936 33.052971
1612 12 2 0.5897 0.723234 41.475273 32.029920
1613 12 1 -1.1794 2.971875 35.662500 29.718750
1614 12 2 0.5897 2.409366 35.775295 30.516859
1615 12 2 0.5897 3.506404 36.488596 29.730505
1616 12 1 -1.1794 8.915625 35.662500 29.718750
1617 12 2 0.5897 8.353117 36.460610 29.831546
1618 12 2 0.5897 9.450153 35.674253 30.544848
1619 12 1 -1.1794 5.943750 38.634375 23.775000
1620 12 2 0.5897 6.224823 38.996727 24.639683
1621 12 2 0.5897 6.666985 37.973672 23.644021
1622 12 1 -1.1794 5.943750 44.578125 23.775000
1623 12 2 0.5897 5.953409 44.007941 24.577632
1624 12 2 0.5897 6.762955 45.106727 23.910054
1625 12 1 -1.1794 2.195740 37.858240 25.970740
1626 12 2 0.5897 1.930743 37.065281 26.496735
1627 12 2 0.5897 2.708046 38.370572 26.637811
1628 12 1 -1.1794 9.691760 45.354260 25.970740
1629 12 2 0.5897 9.978388 46.179281 26.423501
1630 12 2 0.5897 9.116718 45.706314 25.255933
1631 12 1 -1.1794 9.691760 37.858240 33.466760
1632 12 2 0.5897 9.154281 38.444808 32.879938
1633 12 2 0.5897 10.452871 38.444832 33.680926
1634 12 1 -1.1794 2.195740 45.354260 33.466760
1635 12 2 0.5897 1.433515 44.851365 33.825449
1636 12 2 0.5897 2.654073 45.612280 34.308970
1637 12 1 -1.1794 8.139490 43.801990 27.523010
1638 12 2 0.5897 8.055452 44.269415 28.376005
1639 12 2 0.5897 8.845452 44.306810 27.069149
1640 12 1 -1.1794 3.748010 39.410510 27.523010
1641 12 2 0.5897 4.002365 38.847288 28.294697
1642 12 2 0.5897 4.639981 39.633336 27.185372
1643 12 1 -1.1794 8.139490 39.410510 31.914490
1644 12 2 0.5897 7.353136 39.773445 32.384681
1645 12 2 0.5897 8.567214 40.235492 31.585198
1646 12 1 -1.1794 3.748010 43.801990 31.914490
1647 12 2 0.5897 3.235613 44.394046 32.517287
1648 12 2 0.5897 4.491456 43.531971 32.500499
1649 12 1 -1.1794 9.691760 45.354260 33.466760
1650 12 2 0.5897 9.946137 46.125942 32.903541
1651 12 2 0.5897 10.583721 45.016596 33.689592
1652 12 1 -1.1794 2.195740 37.858240 33.466760
1653 12 2 0.5897 1.409385 38.328429 33.829694
1654 12 2 0.5897 2.623464 37.528947 34.291742
1655 12 1 -1.1794 2.195740 45.354260 25.970740
1656 12 2 0.5897 2.111703 46.207255 26.438166
1657 12 2 0.5897 2.901702 44.900398 26.475560
1658 12 1 -1.1794 9.691760 37.858240 25.970740
1659 12 2 0.5897 9.179361 38.461035 26.562796
1660 12 2 0.5897 10.435205 38.444250 25.700722
1661 12 1 -1.1794 3.748010 39.410510 31.914490
1662 12 2 0.5897 3.210531 38.823688 32.501058
1663 12 2 0.5897 4.509120 39.624677 32.501082
1664 12 1 -1.1794 8.139490 43.801990 31.914490
1665 12 2 0.5897 7.874494 44.327984 31.121530
1666 12 2 0.5897 8.651795 44.469063 32.426821
1667 12 1 -1.1794 3.748010 43.801990 27.523010
1668 12 2 0.5897 4.034637 44.254751 28.348031
1669 12 2 0.5897 3.172969 43.087181 27.875063
1670 12 1 -1.1794 8.139490 39.410510 27.523010
1671 12 2 0.5897 7.377269 39.769205 27.020111
1672 12 2 0.5897 8.597826 40.252718 27.781031
1673 12 1 -1.1794 0.000000 39.342275 25.160607
1674 12 2 0.5897 0.035498 40.121567 25.764457
1675 12 2 0.5897 0.798485 38.841590 25.446756
1676 12 1 -1.1794 0.000000 43.870225 25.160607
1677 12 2 0.5897 -0.758631 44.394342 25.512352
1678 12 2 0.5897 0.759372 44.442326 25.445376
1679 12 1 -1.1794 0.000000 39.342275 34.276893
1680 12 2 0.5897 -0.044368 39.514390 35.244464
1681 12 2 0.5897 -0.018559 40.240641 33.884946
1682 12 1 -1.1794 0.000000 43.870225 34.276893
1683 12 2 0.5897 0.205529 43.936938 35.244986
1684 12 2 0.5897 -0.779451 43.291897 34.362942
1685 12 1 -1.1794 1.385607 35.662500 27.454775
1686 12 2 0.5897 0.417726 35.567841 27.596134
1687 12 2 0.5897 1.754570 35.563072 28.356968
1688 12 1 -1.1794 1.385607 35.662500 31.982725
1689 12 2 0.5897 1.716836 36.409254 32.533036
1690 12 2 0.5897 1.714706 34.891457 32.501950
1691 12 1 -1.1794 10.501893 35.662500 27.454775
1692 12 2 0.5897 9.916808 35.669167 28.247479
1693 12 2 0.5897 10.184338 36.461764 26.976735
1694 12 1 -1.1794 10.501893 35.662500 31.982725
1695 12 2 0.5897 10.305638 36.461373 32.524125
1696 12 2 0.5897 11.480928 35.728994 31.891678
1697 12 1 -1.1794 3.679775 37.048107 23.775000
1698 12 2 0.5897 3.181486 37.322580 24.578227
1699 12 2 0.5897 4.465410 37.634811 23.812997
1700 12 1 -1.1794 8.207725 37.048107 23.775000
1701 12 2 0.5897 8.780854 37.277355 24.544515
1702 12 2 0.5897 8.792041 37.315988 23.027135
1703 12 1 -1.1794 3.679775 46.164393 23.775000
1704 12 2 0.5897 3.869586 47.114877 23.879347
1705 12 2 0.5897 4.546334 45.730958 23.887136
1706 12 1 -1.1794 8.207725 46.164393 23.775000
1707 12 2 0.5897 8.122284 47.140758 23.691574
1708 12 2 0.5897 8.687717 45.939357 22.947637
1709 12 1 -1.1794 9.623525 41.606250 28.333143
1710 12 2 0.5897 9.813335 41.710598 29.283627
1711 12 2 0.5897 10.490084 41.718385 27.899708
1712 12 1 -1.1794 2.263975 41.606250 28.333143
1713 12 2 0.5897 2.178531 41.522824 29.309508
1714 12 2 0.5897 2.743967 40.778887 28.108108
1715 12 1 -1.1794 9.623525 41.606250 31.104357
1716 12 2 0.5897 9.125238 42.409478 31.378833
1717 12 2 0.5897 10.409160 41.644243 31.691061
1718 12 1 -1.1794 2.263975 41.606250 31.104357
1719 12 2 0.5897 2.837102 42.375767 31.333605
1720 12 2 0.5897 2.848293 40.858386 31.372239
1721 12 1 -1.1794 5.943750 42.991857 26.038975
1722 12 2 0.5897 5.185122 43.343606 26.563093
1723 12 2 0.5897 6.703124 43.276622 26.611075
1724 12 1 -1.1794 5.943750 42.991857 33.398525
1725 12 2 0.5897 5.979250 43.595706 34.177818
1726 12 2 0.5897 6.742237 43.278002 32.897842
1727 12 1 -1.1794 5.943750 40.220643 26.038975
1728 12 2 0.5897 6.149264 41.188742 26.105661
1729 12 2 0.5897 5.164278 40.306661 25.460681
1730 12 1 -1.1794 5.943750 40.220643 33.398525
1731 12 2 0.5897 5.899383 41.188213 33.570644
1732 12 2 0.5897 5.925192 39.828692 34.296889
1733 12 1 -1.1794 7.329357 45.286025 29.718750
1734 12 2 0.5897 6.361476 45.427384 29.624090
1735 12 2 0.5897 7.698320 46.188218 29.619322
1736 12 1 -1.1794 7.329357 37.926475 29.718750
1737 12 2 0.5897 7.660588 38.476785 30.465503
1738 12 2 0.5897 7.658458 38.445699 28.947706
1739 12 1 -1.1794 4.558143 45.286025 29.718750
1740 12 2 0.5897 3.973056 46.078729 29.725416
1741 12 2 0.5897 4.240588 44.807985 30.518014
1742 12 1 -1.1794 4.558143 37.926475 29.718750
1743 12 2 0.5897 4.361890 38.467872 30.517625
1744 12 2 0.5897 5.537178 37.835428 29.785242
1745 12 3 0.0 0.000000 35.662500 23.775000
1746 12 3 0.0 5.943750 41.606250 29.718750
1747 12 3 0.0 0.000000 38.634375 29.718750
1748 12 3 0.0 0.000000 44.578125 29.718750
1749 12 3 0.0 5.943750 35.662500 26.746875
1750 12 3 0.0 5.943750 35.662500 32.690625
1751 12 3 0.0 2.971875 41.606250 23.775000
1752 12 3 0.0 8.915625 41.606250 23.775000
1753 13 1 -1.1794 11.887500 5.943750 2.971875
1754 13 2 0.5897 11.897156 6.746382 2.401692
1755 13 2 0.5897 12.706706 6.078805 3.500477
1756 13 1 -1.1794 11.887500 5.943750 8.915625
1757 13 2 0.5897 12.168567 6.808436 9.277971
1758 13 2 0.5897 12.610734 5.812773 8.254920
1759 13 1 -1.1794 14.859375 0.000000 5.943750
1760 13 2 0.5897 14.296866 0.112795 6.741859
1761 13 2 0.5897 15.393904 0.826096 5.955505
1762 13 1 -1.1794 20.803125 0.000000 5.943750
1763 13 2 0.5897 20.240617 0.798110 6.056546
1764 13 2 0.5897 21.337653 0.011753 6.769848
1765 13 1 -1.1794 17.831250 2.971875 0.000000
1766 13 2 0.5897 18.112323 3.334227 0.864683
1767 13 2 0.5897 18.554485 2.311172 -0.130979
1768 13 1 -1.1794 17.831250 8.915625 0.000000
1769 13 2 0.5897 17.840909 8.345441 0.802632
1770 13 2 0.5897 18.650455 9.444227 0.135054
1771 13 1 -1.1794 14.083240 2.195740 2.195740
1772 13 2 0.5897 13.818243 1.402781 2.721735
1773 13 2 0.5897 14.595546 2.708072 2.862811
1774 13 1 -1.1794 21.579260 9.691760 2.195740
1775 13 2 0.5897 21.865888 10.516781 2.648501
1776 13 2 0.5897 21.004218 10.043814 1.480933
1777 13 1 -1.1794 21.579260 2.195740 9.691760
1778 13 2 0.5897 21.041781 2.782308 9.104938
1779 13 2 0.5897 22.340371 2.782332 9.905926
1780 13 1 -1.1794 14.083240 9.691760 9.691760
1781 13 2 0.5897 13.321015 9.188865 10.050449
1782 13 2 0.5897 14.541573 9.949780 10.533970
1783 13 1 -1.1794 20.026990 8.139490 3.748010
1784 13 2 0.5897 19.942952 8.606915 4.601005
1785 13 2 0.5897 20.732952 8.644310 3.294149
1786 13 1 -1.1794 15.635510 3.748010 3.748010
1787 13 2 0.5897 15.889865 3.184788 4.519697
1788 13 2 0.5897 16.527481 3.970836 3.410372
1789 13 1 -1.1794 20.026990 3.748010 8.139490
1790 13 2 0.5897 19.240636 4.110945 8.609681
1791 13 2 0.5897 20.454714 4.572992 7.810198
1792 13 1 -1.1794 15.635510 8.139490 8.139490
1793 13 2 0.5897 15.123113 8.731546 8.742287
1794 13 2 0.5897 16.378956 7.869471 8.725499
1795 13 1 -1.1794 21.579260 9.691760 9.691760
1796 13 2 0.5897 21.833637 10.463442 9.128541
1797 13 2 0.5897 22.471221 9.354096 9.914592
1798 13 1 -1.1794 14.083240 2.195740 9.691760
1799 13 2 0.5897 13.296885 2.665929 10.054694
1800 13 2 0.5897 14.510964 1.866447 10.516742
1801 13 1 -1.1794 14.083240 9.691760 2.195740
1802 13 2 0.5897 13.999203 10.544755 2.663166
1803 13 2 0.5897 14.789202 9.237898 2.700560
1804 13 1 -1.1794 21.579260 2.195740 2.195740
1805 13 2 0.5897 21.066861 2.798535 2.787796
1806 13 2 0.5897 22.322705 2.781750 1.925722
1807 13 1 -1.1794 15.635510 3.748010 8.139490
1808 13 2 0.5897 15.098031 3.161188 8.726058
1809 13 2 0.5897 16.396620 3.962177 8.726082
1810 13 1 -1.1794 20.026990 8.139490 8.139490
1811 13 2 0.5897 19.761994 8.665484 7.346530
1812 13 2 0.5897 20.539295 8.806563 8.651821
1813 13 1 -1.1794 15.635510 8.139490 3.748010
1814 13 2 0.5897 15.922137 8.592251 4.573031
1815 13 2 0.5897 15.060469 7.424681 4.100063
1816 13 1 -1.1794 20.026990 3.748010 3.748010
1817 13 2 0.5897 19.264769 4.106705 3.245111
1818 13 2 0.5897 20.485326 4.590218 4.006031
1819 13 1 -1.1794 11.887500 3.679775 1.385607
1820 13 2 0.5897 11.922998 4.459067 1.989457
1821 13 2 0.5897 12.685985 3.179090 1.671756
1822 13 1 -1.1794 11.887500 8.207725 1.385607
1823 13 2 0.5897 11.128869 8.731842 1.737352
1824 13 2 0.5897 12.646872 8.779826 1.670376
1825 13 1 -1.1794 11.887500 3.679775 10.501893
1826 13 2 0.5897 11.843132 3.851890 11.469464
1827 13 2 0.5897 11.868941 4.578141 10.109946
1828 13 1 -1.1794 11.887500 8.207725 10.501893
1829 13 2 0.5897 12.093029 8.274438 11.469986
1830 13 2 0.5897 11.108049 7.629397 10.587942
1831 13 1 -1.1794 13.273107 0.000000 3.679775
1832 13 2 0.5897 12.305226 -0.094659 3.821134
1833 13 2 0.5897 13.642070 -0.099428 4.581968
1834 13 1 -1.1794 13.273107 0.000000 8.207725
1835 13 2 0.5897 13.604336 0.746754 8.758036
1836 13 2 0.5897 13.602206 -0.771043 8.726950
1837 13 1 -1.1794 22.389393 0.000000 3.679775
1838 13 2 0.5897 21.804308 0.006667 4.472479
1839 13 2 0.5897 22.071838 0.799264 3.201735
1840 13 1 -1.1794 22.389393 0.000000 8.207725
1841 13 2 0.5897 22.193138 0.798873 8.749125
1842 13 2 0.5897 23.368428 0.066494 8.116678
1843 13 1 -1.1794 15.567275 1.385607 0.000000
1844 13 2 0.5897 15.068986 1.660080 0.803227
1845 13 2 0.5897 16.352910 1.972311 0.037997
1846 13 1 -1.1794 20.095225 1.385607 0.000000
1847 13 2 0.5897 20.668354 1.614855 0.769515
1848 13 2 0.5897 20.679541 1.653488 -0.747865
1849 13 1 -1.1794 15.567275 10.501893 0.000000
1850 13 2 0.5897 15.757086 11.452377 0.104347
1851 13 2 0.5897 16.433834 10.068458 0.112136
1852 13 1 -1.1794 20.095225 10.501893 0.000000
1853 13 2 0.5897 20.009784 11.478258 -0.083426
1854 13 2 0.5897 20.575217 10.276857 -0.827363
1855 13 1 -1.1794 21.511025 5.943750 4.558143
1856 13 2 0.5897 21.700835 6.048098 5.508627
1857 13 2 0.5897 22.377584 6.055885 4.124708
1858 13 1 -1.1794 14.151475 5.943750 4.558143
1859 13 2 0.5897 14.066031 5.860324 5.534508
1860 13 2 0.5897 14.631467 5.116387 4.333108
1861 13 1 -1.1794 21.511025 5.943750 7.329357
1862 13 2 0.5897 21.012738 6.746978 7.603833
1863 13 2 0.5897 22.296660 5.981743 7.916061
1864 13 1 -1.1794 14.151475 5.943750 7.329357
1865 13 2 0.5897 14.724602 6.713267 7.558605
1866 13 2 0.5897 14.735793 5.195886 7.597239
1867 13 1 -1.1794 17.831250 7.329357 2.263975
1868 13 2 0.5897 17.072622 7.681106 2.788093
1869 13 2 0.5897 18.590624 7.614122 2.836075
1870 13 1 -1.1794 17.831250 7.329357 9.623525
1871 13 2 0.5897 17.866750 7.933206 10.402818
1872 13 2 0.5897 18.629737 7.615502 9.122842
1873 13 1 -1.1794 17.831250 4.558143 2.263975
1874 13 2 0.5897 18.036764 5.526242 2.330661
1875 13 2 0.5897 17.051778 4.644161 1.685681
1876 13 1 -1.1794 17.831250 4.558143 9.623525
1877 13 2 0.5897 17.786883 5.525713 9.795644
1878 13 2 0.5897 17.812692 4.166192 10.521889
1879 13 1 -1.1794 19.216857 9.623525 5.943750
1880 13 2 0.5897 18.248976 9.764884 5.849090
1881 13 2 0.5897 19.585820 10.525718 5.844322
1882 13 1 -1.1794 19.216857 2.263975 5.943750
1883 13 2 0.5897 19.548088 2.814285 6.690503
1884 13 2 0.5897 19.545958 2.783199 5.172706
1885 13 1 -1.1794 16.445643 9.623525 5.943750
1886 13 2 0.5897 15.860556 10.416229 5.950416
1887 13 2 0.5897 16.128088 9.145485 6.743014
1888 13 1 -1.1794 16.445643 2.263975 5.943750
1889 13 2 0.5897 16.249390 2.805372 6.742625
1890 13 2 0.5897 17.424678 2.172928 6.010242
1891 13 3 0.0 11.887500 0.000000 0.000000
1892 13 3 0.0 17.831250 5.943750 5.943750
1893 13 3 0.0 11.887500 2.971875 5.943750
1894 13 3 0.0 11.887500 8.915625 5.943750
1895 13 3 0.0 17.831250 0.000000 2.971875
1896 13 3 0.0 17.831250 0.000000 8.915625
1897 13 3 0.0 14.859375 5.943750 0.000000
1898 13 3 0.0 20.803125 5.943750 0.000000
1899 14 1 -1.1794 11.887500 5.943750 14.859375
1900 14 2 0.5897 11.897156 6.746382 14.289192
1901 14 2 0.5897 12.706706 6.078805 15.387977
1902 14 1 -1.1794 11.887500 5.943750 20.803125
1903 14 2 0.5897 12.168567 6.808436 21.165471
1904 14 2 0.5897 12.610734 5.812773 20.142420
1905 14 1 -1.1794 14.859375 0.000000 17.831250
1906 14 2 0.5897 14.296866 0.112795 18.629359
1907 14 2 0.5897 15.393904 0.826096 17.843005
1908 14 1 -1.1794 20.803125 0.000000 17.831250
1909 14 2 0.5897 20.240617 0.798110 17.944046
1910 14 2 0.5897 21.337653 0.011753 18.657348
1911 14 1 -1.1794 17.831250 2.971875 11.887500
1912 14 2 0.5897 18.112323 3.334227 12.752183
1913 14 2 0.5897 18.554485 2.311172 11.756521
1914 14 1 -1.1794 17.831250 8.915625 11.887500
1915 14 2 0.5897 17.840909 8.345441 12.690132
1916 14 2 0.5897 18.650455 9.444227 12.022554
1917 14 1 -1.1794 14.083240 2.195740 14.083240
1918 14 2 0.5897 13.818243 1.402781 14.609235
1919 14 2 0.5897 14.595546 2.708072 14.750311
1920 14 1 -1.1794 21.579260 9.691760 14.083240
1921 14 2 0.5897 21.865888 10.516781 14.536001
1922 14 2 0.5897 21.004218 10.043814 13.368433
1923 14 1 -1.1794 21.579260 2.195740 21.579260
1924 14 2 0.5897 21.041781 2.782308 20.992438
1925 14 2 0.5897 22.340371 2.782332 21.793426
1926 14 1 -1.1794 14.083240 9.691760 21.579260
1927 14 2 0.5897 13.321015 9.188865 21.937949
1928 14 2 0.5897 14.541573 9.949780 22.421470
1929 14 1 -1.1794 20.026990 8.139490 15.635510
1930 14 2 0.5897 19.942952 8.606915 16.488505
1931 14 2 0.5897 20.732952 8.644310 15.181649
1932 14 1 -1.1794 15.635510 3.748010 15.635510
1933 14 2 0.5897 15.889865 3.184788 16.407197
1934 14 2 0.5897 16.527481 3.970836 15.297872
1935 14 1 -1.1794 20.026990 3.748010 20.026990
1936 14 2 0.5897 19.240636 4.110945 20.497181
1937 14 2 0.5897 20.454714 4.572992 19.697698
1938 14 1 -1.1794 15.635510 8.139490 20.026990
1939 14 2 0.5897 15.123113 8.731546 20.629787
1940 14 2 0.5897 16.378956 7.869471 20.612999
1941 14 1 -1.1794 21.579260 9.691760 21.579260
1942 14 2 0.5897 21.833637 10.463442 21.016041
1943 14 2 0.5897 22.471221 9.354096 21.802092
1944 14 1 -1.1794 14.083240 2.195740 21.579260
1945 14 2 0.5897 13.296885 2.665929 21.942194
1946 14 2 0.5897 14.510964 1.866447 22.404242
1947 14 1 -1.1794 14.083240 9.691760 14.083240
1948 14 2 0.5897 13.999203 10.544755 14.550666
1949 14 2 0.5897 14.789202 9.237898 14.588060
1950 14 1 -1.1794 21.579260 2.195740 14.083240
1951 14 2 0.5897 21.066861 2.798535 14.675296
1952 14 2 0.5897 22.322705 2.781750 13.813222
1953 14 1 -1.1794 15.635510 3.748010 20.026990
1954 14 2 0.5897 15.098031 3.161188 20.613558
1955 14 2 0.5897 16.396620 3.962177 20.613582
1956 14 1 -1.1794 20.026990 8.139490 20.026990
1957 14 2 0.5897 19.761994 8.665484 19.234030
1958 14 2 0.5897 20.539295 8.806563 20.539321
1959 14 1 -1.1794 15.635510 8.139490 15.635510
1960 14 2 0.5897 15.922137 8.592251 16.460531
1961 14 2 0.5897 15.060469 7.424681 15.987563
1962 14 1 -1.1794 20.026990 3.748010 15.635510
1963 14 2 0.5897 19.264769 4.106705 15.132611
1964 14 2 0.5897 20.485326 4.590218 15.893531
1965 14 1 -1.1794 11.887500 3.679775 13.273107
1966 14 2 0.5897 11.922998 4.459067 13.876957
1967 14 2 0.5897 12.685985 3.179090 13.559256
1968 14 1 -1.1794 11.887500 8.207725 13.273107
1969 14 2 0.5897 11.128869 8.731842 13.624852
1970 14 2 0.5897 12.646872 8.779826 13.557876
1971 14 1 -1.1794 11.887500 3.679775 22.389393
1972 14 2 0.5897 11.843132 3.851890 23.356964
1973 14 2 0.5897 11.868941 4.578141 21.997446
1974 14 1 -1.1794 11.887500 8.207725 22.389393
1975 14 2 0.5897 12.093029 8.274438 23.357486
1976 14 2 0.5897 11.108049 7.629397 22.475442
1977 14 1 -1.1794 13.273107 0.000000 15.567275
1978 14 2 0.5897 12.305226 -0.094659 15.708634
1979 14 2 0.5897 13.642070 -0.099428 16.469468
1980 14 1 -1.1794 13.273107 0.000000 20.095225
1981 14 2 0.5897 13.604336 0.746754 20.645536
1982 14 2 0.5897 13.602206 -0.771043 20.614450
1983 14 1 -1.1794 22.389393 0.000000 15.567275
1984 14 2 0.5897 21.804308 0.006667 16.359979
1985 14 2 0.5897 22.071838 0.799264 15.089235
1986 14 1 -1.1794 22.389393 0.000000 20.095225
1987 14 2 0.5897 22.193138 0.798873 20.636625
1988 14 2 0.5897 23.368428 0.066494 20.004178
1989 14 1 -1.1794 15.567275 1.385607 11.887500
1990 14 2 0.5897 15.068986 1.660080 12.690727
1991 14 2 0.5897 16.352910 1.972311 11.925497
1992 14 1 -1.1794 20.095225 1.385607 11.887500
1993 14 2 0.5897 20.668354 1.614855 12.657015
1994 14 2 0.5897 20.679541 1.653488 11.139635
1995 14 1 -1.1794 15.567275 10.501893 11.887500
1996 14 2 0.5897 15.757086 11.452377 11.991847
1997 14 2 0.5897 16.433834 10.068458 11.999636
1998 14 1 -1.1794 20.095225 10.501893 11.887500
1999 14 2 0.5897 20.009784 11.478258 11.804074
2000 14 2 0.5897 20.575217 10.276857 11.060137
2001 14 1 -1.1794 21.511025 5.943750 16.445643
2002 14 2 0.5897 21.700835 6.048098 17.396127
2003 14 2 0.5897 22.377584 6.055885 16.012208
2004 14 1 -1.1794 14.151475 5.943750 16.445643
2005 14 2 0.5897 14.066031 5.860324 17.422008
2006 14 2 0.5897 14.631467 5.116387 16.220608
2007 14 1 -1.1794 21.511025 5.943750 19.216857
2008 14 2 0.5897 21.012738 6.746978 19.491333
2009 14 2 0.5897 22.296660 5.981743 19.803561
2010 14 1 -1.1794 14.151475 5.943750 19.216857
2011 14 2 0.5897 14.724602 6.713267 19.446105
2012 14 2 0.5897 14.735793 5.195886 19.484739
2013 14 1 -1.1794 17.831250 7.329357 14.151475
2014 14 2 0.5897 17.072622 7.681106 14.675593
2015 14 2 0.5897 18.590624 7.614122 14.723575
2016 14 1 -1.1794 17.831250 7.329357 21.511025
2017 14 2 0.5897 17.866750 7.933206 22.290318
2018 14 2 0.5897 18.629737 7.615502 21.010342
2019 14 1 -1.1794 17.831250 4.558143 14.151475
2020 14 2 0.5897 18.036764 5.526242 14.218161
2021 14 2 0.5897 17.051778 4.644161 13.573181
2022 14 1 -1.1794 17.831250 4.558143 21.511025
2023 14 2 0.5897 17.786883 5.525713 21.683144
2024 14 2 0.5897 17.812692 4.166192 22.409389
2025 14 1 -1.1794 19.216857 9.623525 17.831250
2026 14 2 0.5897 18.248976 9.764884 17.736590
2027 14 2 0.5897 19.585820 10.525718 17.731822
2028 14 1 -1.1794 19.216857 2.263975 17.831250
2029 14 2 0.5897 19.548088 2.814285 18.578003
2030 14 2 0.5897 19.545958 2.783199 17.060206
2031 14 1 -1.1794 16.445643 9.623525 17.831250
2032 14 2 0.5897 15.860556 10.416229 17.837916
2033 14 2 0.5897 16.128088 9.145485 18.630514
2034 14 1 -1.1794 16.445643 2.263975 17.831250
2035 14 2 0.5897 16.249390 2.805372 18.630125
2036 14 2 0.5897 17.424678 2.172928 17.897742
2037 14 3 0.0 11.887500 0.000000 11.887500
2038 14 3 0.0 17.831250 5.943750 17.831250
2039 14 3 0.0 11.887500 2.971875 17.831250
2040 14 3 0.0 11.887500 8.915625 17.831250
2041 14 3 0.0 17.831250 0.000000 14.859375
2042 14 3 0.0 17.831250 0.000000 20.803125
2043 14 3 0.0 14.859375 5.943750 11.887500
2044 14 3 0.0 20.803125 5.943750 11.887500
2045 15 1 -1.1794 11.887500 5.943750 26.746875
2046 15 2 0.5897 11.897156 6.746382 26.176692
2047 15 2 0.5897 12.706706 6.078805 27.275477
2048 15 1 -1.1794 11.887500 5.943750 32.690625
2049 15 2 0.5897 12.168567 6.808436 33.052971
2050 15 2 0.5897 12.610734 5.812773 32.029920
2051 15 1 -1.1794 14.859375 0.000000 29.718750
2052 15 2 0.5897 14.296866 0.112795 30.516859
2053 15 2 0.5897 15.393904 0.826096 29.730505
2054 15 1 -1.1794 20.803125 0.000000 29.718750
2055 15 2 0.5897 20.240617 0.798110 29.831546
2056 15 2 0.5897 21.337653 0.011753 30.544848
2057 15 1 -1.1794 17.831250 2.971875 23.775000
2058 15 2 0.5897 18.112323 3.334227 24.639683
2059 15 2 0.5897 18.554485 2.311172 23.644021
2060 15 1 -1.1794 17.831250 8.915625 23.775000
2061 15 2 0.5897 17.840909 8.345441 24.577632
2062 15 2 0.5897 18.650455 9.444227 23.910054
2063 15 1 -1.1794 14.083240 2.195740 25.970740
2064 15 2 0.5897 13.818243 1.402781 26.496735
2065 15 2 0.5897 14.595546 2.708072 26.637811
2066 15 1 -1.1794 21.579260 9.691760 25.970740
2067 15 2 0.5897 21.865888 10.516781 26.423501
2068 15 2 0.5897 21.004218 10.043814 25.255933
2069 15 1 -1.1794 21.579260 2.195740 33.466760
2070 15 2 0.5897 21.041781 2.782308 32.879938
2071 15 2 0.5897 22.340371 2.782332 33.680926
2072 15 1 -1.1794 14.083240 9.691760 33.466760
2073 15 2 0.5897 13.321015 9.188865 33.825449
2074 15 2 0.5897 14.541573 9.949780 34.308970
2075 15 1 -1.1794 20.026990 8.139490 27.523010
2076 15 2 0.5897 19.942952 8.606915 28.376005
2077 15 2 0.5897 20.732952 8.644310 27.069149
2078 15 1 -1.1794 15.635510 3.748010 27.523010
2079 15 2 0.5897 15.889865 3.184788 28.294697
2080 15 2 0.5897 16.527481 3.970836 27.185372
2081 15 1 -1.1794 20.026990 3.748010 31.914490
2082 15 2 0.5897 19.240636 4.110945 32.384681
2083 15 2 0.5897 20.454714 4.572992 31.585198
2084 15 1 -1.1794 15.635510 8.139490 31.914490
2085 15 2 0.5897 15.123113 8.731546 32.517287
2086 15 2 0.5897 16.378956 7.869471 32.500499
2087 15 1 -1.1794 21.579260 9.691760 33.466760
2088 15 2 0.5897 21.833637 10.463442 32.903541
2089 15 2 0.5897 22.471221 9.354096 33.689592
2090 15 1 -1.1794 14.083240 2.195740 33.466760
2091 15 2 0.5897 13.296885 2.665929 33.829694
2092 15 2 0.5897 14.510964 1.866447 34.291742
2093 15 1 -1.1794 14.083240 9.691760 25.970740
2094 15 2 0.5897 13.999203 10.544755 26.438166
2095 15 2 0.5897 14.789202 9.237898 26.475560
2096 15 1 -1.1794 21.579260 2.195740 25.970740
2097 15 2 0.5897 21.066861 2.798535 26.562796
2098 15 2 0.5897 22.322705 2.781750 25.700722
2099 15 1 -1.1794 15.635510 3.748010 31.914490
2100 15 2 0.5897 15.098031 3.161188 32.501058
2101 15 2 0.5897 16.396620 3.962177 32.501082
2102 15 1 -1.1794 20.026990 8.139490 31.914490
2103 15 2 0.5897 19.761994 8.665484 31.121530
2104 15 2 0.5897 20.539295 8.806563 32.426821
2105 15 1 -1.1794 15.635510 8.139490 27.523010
2106 15 2 0.5897 15.922137 8.592251 28.348031
2107 15 2 0.5897 15.060469 7.424681 27.875063
2108 15 1 -1.1794 20.026990 3.748010 27.523010
2109 15 2 0.5897 19.264769 4.106705 27.020111
2110 15 2 0.5897 20.485326 4.590218 27.781031
2111 15 1 -1.1794 11.887500 3.679775 25.160607
2112 15 2 0.5897 11.922998 4.459067 25.764457
2113 15 2 0.5897 12.685985 3.179090 25.446756
2114 15 1 -1.1794 11.887500 8.207725 25.160607
2115 15 2 0.5897 11.128869 8.731842 25.512352
2116 15 2 0.5897 12.646872 8.779826 25.445376
2117 15 1 -1.1794 11.887500 3.679775 34.276893
2118 15 2 0.5897 11.843132 3.851890 35.244464
2119 15 2 0.5897 11.868941 4.578141 33.884946
2120 15 1 -1.1794 11.887500 8.207725 34.276893
2121 15 2 0.5897 12.093029 8.274438 35.244986
2122 15 2 0.5897 11.108049 7.629397 34.362942
2123 15 1 -1.1794 13.273107 0.000000 27.454775
2124 15 2 0.5897 12.305226 -0.094659 27.596134
2125 15 2 0.5897 13.642070 -0.099428 28.356968
2126 15 1 -1.1794 13.273107 0.000000 31.982725
2127 15 2 0.5897 13.604336 0.746754 32.533036
2128 15 2 0.5897 13.602206 -0.771043 32.501950
2129 15 1 -1.1794 22.389393 0.000000 27.454775
2130 15 2 0.5897 21.804308 0.006667 28.247479
2131 15 2 0.5897 22.071838 0.799264 26.976735
2132 15 1 -1.1794 22.389393 0.000000 31.982725
2133 15 2 0.5897 22.193138 0.798873 32.524125
2134 15 2 0.5897 23.368428 0.066494 31.891678
2135 15 1 -1.1794 15.567275 1.385607 23.775000
2136 15 2 0.5897 15.068986 1.660080 24.578227
2137 15 2 0.5897 16.352910 1.972311 23.812997
2138 15 1 -1.1794 20.095225 1.385607 23.775000
2139 15 2 0.5897 20.668354 1.614855 24.544515
2140 15 2 0.5897 20.679541 1.653488 23.027135
2141 15 1 -1.1794 15.567275 10.501893 23.775000
2142 15 2 0.5897 15.757086 11.452377 23.879347
2143 15 2 0.5897 16.433834 10.068458 23.887136
2144 15 1 -1.1794 20.095225 10.501893 23.775000
2145 15 2 0.5897 20.009784 11.478258 23.691574
2146 15 2 0.5897 20.575217 10.276857 22.947637
2147 15 1 -1.1794 21.511025 5.943750 28.333143
2148 15 2 0.5897 21.700835 6.048098 29.283627
2149 15 2 0.5897 22.377584 6.055885 27.899708
2150 15 1 -1.1794 14.151475 5.943750 28.333143
2151 15 2 0.5897 14.066031 5.860324 29.309508
2152 15 2 0.5897 14.631467 5.116387 28.108108
2153 15 1 -1.1794 21.511025 5.943750 31.104357
2154 15 2 0.5897 21.012738 6.746978 31.378833
2155 15 2 0.5897 22.296660 5.981743 31.691061
2156 15 1 -1.1794 14.151475 5.943750 31.104357
2157 15 2 0.5897 14.724602 6.713267 31.333605
2158 15 2 0.5897 14.735793 5.195886 31.372239
2159 15 1 -1.1794 17.831250 7.329357 26.038975
2160 15 2 0.5897 17.072622 7.681106 26.563093
2161 15 2 0.5897 18.590624 7.614122 26.611075
2162 15 1 -1.1794 17.831250 7.329357 33.398525
2163 15 2 0.5897 17.866750 7.933206 34.177818
2164 15 2 0.5897 18.629737 7.615502 32.897842
2165 15 1 -1.1794 17.831250 4.558143 26.038975
2166 15 2 0.5897 18.036764 5.526242 26.105661
2167 15 2 0.5897 17.051778 4.644161 25.460681
2168 15 1 -1.1794 17.831250 4.558143 33.398525
2169 15 2 0.5897 17.786883 5.525713 33.570644
2170 15 2 0.5897 17.812692 4.166192 34.296889
2171 15 1 -1.1794 19.216857 9.623525 29.718750
2172 15 2 0.5897 18.248976 9.764884 29.624090
2173 15 2 0.5897 19.585820 10.525718 29.619322
2174 15 1 -1.1794 19.216857 2.263975 29.718750
2175 15 2 0.5897 19.548088 2.814285 30.465503
2176 15 2 0.5897 19.545958 2.783199 28.947706
2177 15 1 -1.1794 16.445643 9.623525 29.718750
2178 15 2 0.5897 15.860556 10.416229 29.725416
2179 15 2 0.5897 16.128088 9.145485 30.518014
2180 15 1 -1.1794 16.445643 2.263975 29.718750
2181 15 2 0.5897 16.249390 2.805372 30.517625
2182 15 2 0.5897 17.424678 2.172928 29.785242
2183 15 3 0.0 11.887500 0.000000 23.775000
2184 15 3 0.0 17.831250 5.943750 29.718750
2185 15 3 0.0 11.887500 2.971875 29.718750
2186 15 3 0.0 11.887500 8.915625 29.718750
2187 15 3 0.0 17.831250 0.000000 26.746875
2188 15 3 0.0 17.831250 0.000000 32.690625
2189 15 3 0.0 14.859375 5.943750 23.775000
2190 15 3 0.0 20.803125 5.943750 23.775000
2191 16 1 -1.1794 11.887500 17.831250 2.971875
2192 16 2 0.5897 11.897156 18.633882 2.401692
2193 16 2 0.5897 12.706706 17.966305 3.500477
2194 16 1 -1.1794 11.887500 17.831250 8.915625
2195 16 2 0.5897 12.168567 18.695936 9.277971
2196 16 2 0.5897 12.610734 17.700273 8.254920
2197 16 1 -1.1794 14.859375 11.887500 5.943750
2198 16 2 0.5897 14.296866 12.000295 6.741859
2199 16 2 0.5897 15.393904 12.713596 5.955505
2200 16 1 -1.1794 20.803125 11.887500 5.943750
2201 16 2 0.5897 20.240617 12.685610 6.056546
2202 16 2 0.5897 21.337653 11.899253 6.769848
2203 16 1 -1.1794 17.831250 14.859375 0.000000
2204 16 2 0.5897 18.112323 15.221727 0.864683
2205 16 2 0.5897 18.554485 14.198672 -0.130979
2206 16 1 -1.1794 17.831250 20.803125 0.000000
2207 16 2 0.5897 17.840909 20.232941 0.802632
2208 16 2 0.5897 18.650455 21.331727 0.135054
2209 16 1 -1.1794 14.083240 14.083240 2.195740
2210 16 2 0.5897 13.818243 13.290281 2.721735
2211 16 2 0.5897 14.595546 14.595572 2.862811
2212 16 1 -1.1794 21.579260 21.579260 2.195740
2213 16 2 0.5897 21.865888 22.404281 2.648501
2214 16 2 0.5897 21.004218 21.931314 1.480933
2215 16 1 -1.1794 21.579260 14.083240 9.691760
2216 16 2 0.5897 21.041781 14.669808 9.104938
2217 16 2 0.5897 22.340371 14.669832 9.905926
2218 16 1 -1.1794 14.083240 21.579260 9.691760
2219 16 2 0.5897 13.321015 21.076365 10.050449
2220 16 2 0.5897 14.541573 21.837280 10.533970
2221 16 1 -1.1794 20.026990 20.026990 3.748010
2222 16 2 0.5897 19.942952 20.494415 4.601005
2223 16 2 0.5897 20.732952 20.531810 3.294149
2224 16 1 -1.1794 15.635510 15.635510 3.748010
2225 16 2 0.5897 15.889865 15.072288 4.519697
2226 16 2 0.5897 16.527481 15.858336 3.410372
2227 16 1 -1.1794 20.026990 15.635510 8.139490
2228 16 2 0.5897 19.240636 15.998445 8.609681
2229 16 2 0.5897 20.454714 16.460492 7.810198
2230 16 1 -1.1794 15.635510 20.026990 8.139490
2231 16 2 0.5897 15.123113 20.619046 8.742287
2232 16 2 0.5897 16.378956 19.756971 8.725499
2233 16 1 -1.1794 21.579260 21.579260 9.691760
2234 16 2 0.5897 21.833637 22.350942 9.128541
2235 16 2 0.5897 22.471221 21.241596 9.914592
2236 16 1 -1.1794 14.083240 14.083240 9.691760
2237 16 2 0.5897 13.296885 14.553429 10.054694
2238 16 2 0.5897 14.510964 13.753947 10.516742
2239 16 1 -1.1794 14.083240 21.579260 2.195740
2240 16 2 0.5897 13.999203 22.432255 2.663166
2241 16 2 0.5897 14.789202 21.125398 2.700560
2242 16 1 -1.1794 21.579260 14.083240 2.195740
2243 16 2 0.5897 21.066861 14.686035 2.787796
2244 16 2 0.5897 22.322705 14.669250 1.925722
2245 16 1 -1.1794 15.635510 15.635510 8.139490
2246 16 2 0.5897 15.098031 15.048688 8.726058
2247 16 2 0.5897 16.396620 15.849677 8.726082
2248 16 1 -1.1794 20.026990 20.026990 8.139490
2249 16 2 0.5897 19.761994 20.552984 7.346530
2250 16 2 0.5897 20.539295 20.694063 8.651821
2251 16 1 -1.1794 15.635510 20.026990 3.748010
2252 16 2 0.5897 15.922137 20.479751 4.573031
2253 16 2 0.5897 15.060469 19.312181 4.100063
2254 16 1 -1.1794 20.026990 15.635510 3.748010
2255 16 2 0.5897 19.264769 15.994205 3.245111
2256 16 2 0.5897 20.485326 16.477718 4.006031
2257 16 1 -1.1794 11.887500 15.567275 1.385607
2258 16 2 0.5897 11.922998 16.346567 1.989457
2259 16 2 0.5897 12.685985 15.066590 1.671756
2260 16 1 -1.1794 11.887500 20.095225 1.385607
2261 16 2 0.5897 11.128869 20.619342 1.737352
2262 16 2 0.5897 12.646872 20.667326 1.670376
2263 16 1 -1.1794 11.887500 15.567275 10.501893
2264 16 2 0.5897 11.843132 15.739390 11.469464
2265 16 2 0.5897 11.868941 16.465641 10.109946
2266 16 1 -1.1794 11.887500 20.095225 10.501893
2267 16 2 0.5897 12.093029 20.161938 11.469986
2268 16 2 0.5897 11.108049 19.516897 10.587942
2269 16 1 -1.1794 13.273107 11.887500 3.679775
2270 16 2 0.5897 12.305226 11.792841 3.821134
2271 16 2 0.5897 13.642070 11.788072 4.581968
2272 16 1 -1.1794 13.273107 11.887500 8.207725
2273 16 2 0.5897 13.604336 12.634254 8.758036
2274 16 2 0.5897 13.602206 11.116457 8.726950
2275 16 1 -1.1794 22.389393 11.887500 3.679775
2276 16 2 0.5897 21.804308 11.894167 4.472479
2277 16 2 0.5897 22.071838 12.686764 3.201735
2278 16 1 -1.1794 22.389393 11.887500 8.207725
2279 16 2 0.5897 22.193138 12.686373 8.749125
2280 16 2 0.5897 23.368428 11.953994 8.116678
2281 16 1 -1.1794 15.567275 13.273107 0.000000
2282 16 2 0.5897 15.068986 13.547580 0.803227
2283 16 2 0.5897 16.352910 13.859811 0.037997
2284 16 1 -1.1794 20.095225 13.273107 0.000000
2285 16 2 0.5897 20.668354 13.502355 0.769515
2286 16 2 0.5897 20.679541 13.540988 -0.747865
2287 16 1 -1.1794 15.567275 22.389393 0.000000
2288 16 2 0.5897 15.757086 23.339877 0.104347
2289 16 2 0.5897 16.433834 21.955958 0.112136
2290 16 1 -1.1794 20.095225 22.389393 0.000000
2291 16 2 0.5897 20.009784 23.365758 -0.083426
2292 16 2 0.5897 20.575217 22.164357 -0.827363
2293 16 1 -1.1794 21.511025 17.831250 4.558143
2294 16 2 0.5897 21.700835 17.935598 5.508627
2295 16 2 0.5897 22.377584 17.943385 4.124708
2296 16 1 -1.1794 14.151475 17.831250 4.558143
2297 16 2 0.5897 14.066031 17.747824 5.534508
2298 16 2 0.5897 14.631467 17.003887 4.333108
2299 16 1 -1.1794 21.511025 17.831250 7.329357
2300 16 2 0.5897 21.012738 18.634478 7.603833
2301 16 2 0.5897 22.296660 17.869243 7.916061
2302 16 1 -1.1794 14.151475 17.831250 7.329357
2303 16 2 0.5897 14.724602 18.600767 7.558605
2304 16 2 0.5897 14.735793 17.083386 7.597239
2305 16 1 -1.1794 17.831250 19.216857 2.263975
2306 16 2 0.5897 17.072622 19.568606 2.788093
2307 16 2 0.5897 18.590624 19.501622 2.836075
2308 16 1 -1.1794 17.831250 19.216857 9.623525
2309 16 2 0.5897 17.866750 19.820706 10.402818
2310 16 2 0.5897 18.629737 19.503002 9.122842
2311 16 1 -1.1794 17.831250 16.445643 2.263975
2312 16 2 0.5897 18.036764 17.413742 2.330661
2313 16 2 0.5897 17.051778 16.531661 1.685681
2314 16 1 -1.1794 17.831250 16.445643 9.623525
2315 16 2 0.5897 17.786883 17.413213 9.795644
2316 16 2 0.5897 17.812692 16.053692 10.521889
2317 16 1 -1.1794 19.216857 21.511025 5.943750
2318 16 2 0.5897 18.248976 21.652384 5.849090
2319 16 2 0.5897 19.585820 22.413218 5.844322
2320 16 1 -1.1794 19.216857 14.151475 5.943750
2321 16 2 0.5897 19.548088 14.701785 6.690503
2322 16 2 0.5897 19.545958 14.670699 5.172706
2323 16 1 -1.1794 16.445643 21.511025 5.943750
2324 16 2 0.5897 15.860556 22.303729 5.950416
2325 16 2 0.5897 16.128088 21.032985 6.743014
2326 16 1 -1.1794 16.445643 14.151475 5.943750
2327 16 2 0.5897 16.249390 14.692872 6.742625
2328 16 2 0.5897 17.424678 14.060428 6.010242
2329 16 3 0.0 11.887500 11.887500 0.000000
2330 16 3 0.0 17.831250 17.831250 5.943750
2331 16 3 0.0 11.887500 14.859375 5.943750
2332 16 3 0.0 11.887500 20.803125 5.943750
2333 16 3 0.0 17.831250 11.887500 2.971875
2334 16 3 0.0 17.831250 11.887500 8.915625
2335 16 3 0.0 14.859375 17.831250 0.000000
2336 16 3 0.0 20.803125 17.831250 0.000000
2337 17 1 -1.1794 11.887500 17.831250 14.859375
2338 17 2 0.5897 11.897156 18.633882 14.289192
2339 17 2 0.5897 12.706706 17.966305 15.387977
2340 17 1 -1.1794 11.887500 17.831250 20.803125
2341 17 2 0.5897 12.168567 18.695936 21.165471
2342 17 2 0.5897 12.610734 17.700273 20.142420
2343 17 1 -1.1794 14.859375 11.887500 17.831250
2344 17 2 0.5897 14.296866 12.000295 18.629359
2345 17 2 0.5897 15.393904 12.713596 17.843005
2346 17 1 -1.1794 20.803125 11.887500 17.831250
2347 17 2 0.5897 20.240617 12.685610 17.944046
2348 17 2 0.5897 21.337653 11.899253 18.657348
2349 17 1 -1.1794 17.831250 14.859375 11.887500
2350 17 2 0.5897 18.112323 15.221727 12.752183
2351 17 2 0.5897 18.554485 14.198672 11.756521
2352 17 1 -1.1794 17.831250 20.803125 11.887500
2353 17 2 0.5897 17.840909 20.232941 12.690132
2354 17 2 0.5897 18.650455 21.331727 12.022554
2355 17 1 -1.1794 14.083240 14.083240 14.083240
2356 17 2 0.5897 13.818243 13.290281 14.609235
2357 17 2 0.5897 14.595546 14.595572 14.750311
2358 17 1 -1.1794 21.579260 21.579260 14.083240
2359 17 2 0.5897 21.865888 22.404281 14.536001
2360 17 2 0.5897 21.004218 21.931314 13.368433
2361 17 1 -1.1794 21.579260 14.083240 21.579260
2362 17 2 0.5897 21.041781 14.669808 20.992438
2363 17 2 0.5897 22.340371 14.669832 21.793426
2364 17 1 -1.1794 14.083240 21.579260 21.579260
2365 17 2 0.5897 13.321015 21.076365 21.937949
2366 17 2 0.5897 14.541573 21.837280 22.421470
2367 17 1 -1.1794 20.026990 20.026990 15.635510
2368 17 2 0.5897 19.942952 20.494415 16.488505
2369 17 2 0.5897 20.732952 20.531810 15.181649
2370 17 1 -1.1794 15.635510 15.635510 15.635510
2371 17 2 0.5897 15.889865 15.072288 16.407197
2372 17 2 0.5897 16.527481 15.858336 15.297872
2373 17 1 -1.1794 20.026990 15.635510 20.026990
2374 17 2 0.5897 19.240636 15.998445 20.497181
2375 17 2 0.5897 20.454714 16.460492 19.697698
2376 17 1 -1.1794 15.635510 20.026990 20.026990
2377 17 2 0.5897 15.123113 20.619046 20.629787
2378 17 2 0.5897 16.378956 19.756971 20.612999
2379 17 1 -1.1794 21.579260 21.579260 21.579260
2380 17 2 0.5897 21.833637 22.350942 21.016041
2381 17 2 0.5897 22.471221 21.241596 21.802092
2382 17 1 -1.1794 14.083240 14.083240 21.579260
2383 17 2 0.5897 13.296885 14.553429 21.942194
2384 17 2 0.5897 14.510964 13.753947 22.404242
2385 17 1 -1.1794 14.083240 21.579260 14.083240
2386 17 2 0.5897 13.999203 22.432255 14.550666
2387 17 2 0.5897 14.789202 21.125398 14.588060
2388 17 1 -1.1794 21.579260 14.083240 14.083240
2389 17 2 0.5897 21.066861 14.686035 14.675296
2390 17 2 0.5897 22.322705 14.669250 13.813222
2391 17 1 -1.1794 15.635510 15.635510 20.026990
2392 17 2 0.5897 15.098031 15.048688 20.613558
2393 17 2 0.5897 16.396620 15.849677 20.613582
2394 17 1 -1.1794 20.026990 20.026990 20.026990
2395 17 2 0.5897 19.761994 20.552984 19.234030
2396 17 2 0.5897 20.539295 20.694063 20.539321
2397 17 1 -1.1794 15.635510 20.026990 15.635510
2398 17 2 0.5897 15.922137 20.479751 16.460531
2399 17 2 0.5897 15.060469 19.312181 15.987563
2400 17 1 -1.1794 20.026990 15.635510 15.635510
2401 17 2 0.5897 19.264769 15.994205 15.132611
2402 17 2 0.5897 20.485326 16.477718 15.893531
2403 17 1 -1.1794 11.887500 15.567275 13.273107
2404 17 2 0.5897 11.922998 16.346567 13.876957
2405 17 2 0.5897 12.685985 15.066590 13.559256
2406 17 1 -1.1794 11.887500 20.095225 13.273107
2407 17 2 0.5897 11.128869 20.619342 13.624852
2408 17 2 0.5897 12.646872 20.667326 13.557876
2409 17 1 -1.1794 11.887500 15.567275 22.389393
2410 17 2 0.5897 11.843132 15.739390 23.356964
2411 17 2 0.5897 11.868941 16.465641 21.997446
2412 17 1 -1.1794 11.887500 20.095225 22.389393
2413 17 2 0.5897 12.093029 20.161938 23.357486
2414 17 2 0.5897 11.108049 19.516897 22.475442
2415 17 1 -1.1794 13.273107 11.887500 15.567275
2416 17 2 0.5897 12.305226 11.792841 15.708634
2417 17 2 0.5897 13.642070 11.788072 16.469468
2418 17 1 -1.1794 13.273107 11.887500 20.095225
2419 17 2 0.5897 13.604336 12.634254 20.645536
2420 17 2 0.5897 13.602206 11.116457 20.614450
2421 17 1 -1.1794 22.389393 11.887500 15.567275
2422 17 2 0.5897 21.804308 11.894167 16.359979
2423 17 2 0.5897 22.071838 12.686764 15.089235
2424 17 1 -1.1794 22.389393 11.887500 20.095225
2425 17 2 0.5897 22.193138 12.686373 20.636625
2426 17 2 0.5897 23.368428 11.953994 20.004178
2427 17 1 -1.1794 15.567275 13.273107 11.887500
2428 17 2 0.5897 15.068986 13.547580 12.690727
2429 17 2 0.5897 16.352910 13.859811 11.925497
2430 17 1 -1.1794 20.095225 13.273107 11.887500
2431 17 2 0.5897 20.668354 13.502355 12.657015
2432 17 2 0.5897 20.679541 13.540988 11.139635
2433 17 1 -1.1794 15.567275 22.389393 11.887500
2434 17 2 0.5897 15.757086 23.339877 11.991847
2435 17 2 0.5897 16.433834 21.955958 11.999636
2436 17 1 -1.1794 20.095225 22.389393 11.887500
2437 17 2 0.5897 20.009784 23.365758 11.804074
2438 17 2 0.5897 20.575217 22.164357 11.060137
2439 17 1 -1.1794 21.511025 17.831250 16.445643
2440 17 2 0.5897 21.700835 17.935598 17.396127
2441 17 2 0.5897 22.377584 17.943385 16.012208
2442 17 1 -1.1794 14.151475 17.831250 16.445643
2443 17 2 0.5897 14.066031 17.747824 17.422008
2444 17 2 0.5897 14.631467 17.003887 16.220608
2445 17 1 -1.1794 21.511025 17.831250 19.216857
2446 17 2 0.5897 21.012738 18.634478 19.491333
2447 17 2 0.5897 22.296660 17.869243 19.803561
2448 17 1 -1.1794 14.151475 17.831250 19.216857
2449 17 2 0.5897 14.724602 18.600767 19.446105
2450 17 2 0.5897 14.735793 17.083386 19.484739
2451 17 1 -1.1794 17.831250 19.216857 14.151475
2452 17 2 0.5897 17.072622 19.568606 14.675593
2453 17 2 0.5897 18.590624 19.501622 14.723575
2454 17 1 -1.1794 17.831250 19.216857 21.511025
2455 17 2 0.5897 17.866750 19.820706 22.290318
2456 17 2 0.5897 18.629737 19.503002 21.010342
2457 17 1 -1.1794 17.831250 16.445643 14.151475
2458 17 2 0.5897 18.036764 17.413742 14.218161
2459 17 2 0.5897 17.051778 16.531661 13.573181
2460 17 1 -1.1794 17.831250 16.445643 21.511025
2461 17 2 0.5897 17.786883 17.413213 21.683144
2462 17 2 0.5897 17.812692 16.053692 22.409389
2463 17 1 -1.1794 19.216857 21.511025 17.831250
2464 17 2 0.5897 18.248976 21.652384 17.736590
2465 17 2 0.5897 19.585820 22.413218 17.731822
2466 17 1 -1.1794 19.216857 14.151475 17.831250
2467 17 2 0.5897 19.548088 14.701785 18.578003
2468 17 2 0.5897 19.545958 14.670699 17.060206
2469 17 1 -1.1794 16.445643 21.511025 17.831250
2470 17 2 0.5897 15.860556 22.303729 17.837916
2471 17 2 0.5897 16.128088 21.032985 18.630514
2472 17 1 -1.1794 16.445643 14.151475 17.831250
2473 17 2 0.5897 16.249390 14.692872 18.630125
2474 17 2 0.5897 17.424678 14.060428 17.897742
2475 17 3 0.0 11.887500 11.887500 11.887500
2476 17 3 0.0 17.831250 17.831250 17.831250
2477 17 3 0.0 11.887500 14.859375 17.831250
2478 17 3 0.0 11.887500 20.803125 17.831250
2479 17 3 0.0 17.831250 11.887500 14.859375
2480 17 3 0.0 17.831250 11.887500 20.803125
2481 17 3 0.0 14.859375 17.831250 11.887500
2482 17 3 0.0 20.803125 17.831250 11.887500
2483 18 1 -1.1794 11.887500 17.831250 26.746875
2484 18 2 0.5897 11.897156 18.633882 26.176692
2485 18 2 0.5897 12.706706 17.966305 27.275477
2486 18 1 -1.1794 11.887500 17.831250 32.690625
2487 18 2 0.5897 12.168567 18.695936 33.052971
2488 18 2 0.5897 12.610734 17.700273 32.029920
2489 18 1 -1.1794 14.859375 11.887500 29.718750
2490 18 2 0.5897 14.296866 12.000295 30.516859
2491 18 2 0.5897 15.393904 12.713596 29.730505
2492 18 1 -1.1794 20.803125 11.887500 29.718750
2493 18 2 0.5897 20.240617 12.685610 29.831546
2494 18 2 0.5897 21.337653 11.899253 30.544848
2495 18 1 -1.1794 17.831250 14.859375 23.775000
2496 18 2 0.5897 18.112323 15.221727 24.639683
2497 18 2 0.5897 18.554485 14.198672 23.644021
2498 18 1 -1.1794 17.831250 20.803125 23.775000
2499 18 2 0.5897 17.840909 20.232941 24.577632
2500 18 2 0.5897 18.650455 21.331727 23.910054
2501 18 1 -1.1794 14.083240 14.083240 25.970740
2502 18 2 0.5897 13.818243 13.290281 26.496735
2503 18 2 0.5897 14.595546 14.595572 26.637811
2504 18 1 -1.1794 21.579260 21.579260 25.970740
2505 18 2 0.5897 21.865888 22.404281 26.423501
2506 18 2 0.5897 21.004218 21.931314 25.255933
2507 18 1 -1.1794 21.579260 14.083240 33.466760
2508 18 2 0.5897 21.041781 14.669808 32.879938
2509 18 2 0.5897 22.340371 14.669832 33.680926
2510 18 1 -1.1794 14.083240 21.579260 33.466760
2511 18 2 0.5897 13.321015 21.076365 33.825449
2512 18 2 0.5897 14.541573 21.837280 34.308970
2513 18 1 -1.1794 20.026990 20.026990 27.523010
2514 18 2 0.5897 19.942952 20.494415 28.376005
2515 18 2 0.5897 20.732952 20.531810 27.069149
2516 18 1 -1.1794 15.635510 15.635510 27.523010
2517 18 2 0.5897 15.889865 15.072288 28.294697
2518 18 2 0.5897 16.527481 15.858336 27.185372
2519 18 1 -1.1794 20.026990 15.635510 31.914490
2520 18 2 0.5897 19.240636 15.998445 32.384681
2521 18 2 0.5897 20.454714 16.460492 31.585198
2522 18 1 -1.1794 15.635510 20.026990 31.914490
2523 18 2 0.5897 15.123113 20.619046 32.517287
2524 18 2 0.5897 16.378956 19.756971 32.500499
2525 18 1 -1.1794 21.579260 21.579260 33.466760
2526 18 2 0.5897 21.833637 22.350942 32.903541
2527 18 2 0.5897 22.471221 21.241596 33.689592
2528 18 1 -1.1794 14.083240 14.083240 33.466760
2529 18 2 0.5897 13.296885 14.553429 33.829694
2530 18 2 0.5897 14.510964 13.753947 34.291742
2531 18 1 -1.1794 14.083240 21.579260 25.970740
2532 18 2 0.5897 13.999203 22.432255 26.438166
2533 18 2 0.5897 14.789202 21.125398 26.475560
2534 18 1 -1.1794 21.579260 14.083240 25.970740
2535 18 2 0.5897 21.066861 14.686035 26.562796
2536 18 2 0.5897 22.322705 14.669250 25.700722
2537 18 1 -1.1794 15.635510 15.635510 31.914490
2538 18 2 0.5897 15.098031 15.048688 32.501058
2539 18 2 0.5897 16.396620 15.849677 32.501082
2540 18 1 -1.1794 20.026990 20.026990 31.914490
2541 18 2 0.5897 19.761994 20.552984 31.121530
2542 18 2 0.5897 20.539295 20.694063 32.426821
2543 18 1 -1.1794 15.635510 20.026990 27.523010
2544 18 2 0.5897 15.922137 20.479751 28.348031
2545 18 2 0.5897 15.060469 19.312181 27.875063
2546 18 1 -1.1794 20.026990 15.635510 27.523010
2547 18 2 0.5897 19.264769 15.994205 27.020111
2548 18 2 0.5897 20.485326 16.477718 27.781031
2549 18 1 -1.1794 11.887500 15.567275 25.160607
2550 18 2 0.5897 11.922998 16.346567 25.764457
2551 18 2 0.5897 12.685985 15.066590 25.446756
2552 18 1 -1.1794 11.887500 20.095225 25.160607
2553 18 2 0.5897 11.128869 20.619342 25.512352
2554 18 2 0.5897 12.646872 20.667326 25.445376
2555 18 1 -1.1794 11.887500 15.567275 34.276893
2556 18 2 0.5897 11.843132 15.739390 35.244464
2557 18 2 0.5897 11.868941 16.465641 33.884946
2558 18 1 -1.1794 11.887500 20.095225 34.276893
2559 18 2 0.5897 12.093029 20.161938 35.244986
2560 18 2 0.5897 11.108049 19.516897 34.362942
2561 18 1 -1.1794 13.273107 11.887500 27.454775
2562 18 2 0.5897 12.305226 11.792841 27.596134
2563 18 2 0.5897 13.642070 11.788072 28.356968
2564 18 1 -1.1794 13.273107 11.887500 31.982725
2565 18 2 0.5897 13.604336 12.634254 32.533036
2566 18 2 0.5897 13.602206 11.116457 32.501950
2567 18 1 -1.1794 22.389393 11.887500 27.454775
2568 18 2 0.5897 21.804308 11.894167 28.247479
2569 18 2 0.5897 22.071838 12.686764 26.976735
2570 18 1 -1.1794 22.389393 11.887500 31.982725
2571 18 2 0.5897 22.193138 12.686373 32.524125
2572 18 2 0.5897 23.368428 11.953994 31.891678
2573 18 1 -1.1794 15.567275 13.273107 23.775000
2574 18 2 0.5897 15.068986 13.547580 24.578227
2575 18 2 0.5897 16.352910 13.859811 23.812997
2576 18 1 -1.1794 20.095225 13.273107 23.775000
2577 18 2 0.5897 20.668354 13.502355 24.544515
2578 18 2 0.5897 20.679541 13.540988 23.027135
2579 18 1 -1.1794 15.567275 22.389393 23.775000
2580 18 2 0.5897 15.757086 23.339877 23.879347
2581 18 2 0.5897 16.433834 21.955958 23.887136
2582 18 1 -1.1794 20.095225 22.389393 23.775000
2583 18 2 0.5897 20.009784 23.365758 23.691574
2584 18 2 0.5897 20.575217 22.164357 22.947637
2585 18 1 -1.1794 21.511025 17.831250 28.333143
2586 18 2 0.5897 21.700835 17.935598 29.283627
2587 18 2 0.5897 22.377584 17.943385 27.899708
2588 18 1 -1.1794 14.151475 17.831250 28.333143
2589 18 2 0.5897 14.066031 17.747824 29.309508
2590 18 2 0.5897 14.631467 17.003887 28.108108
2591 18 1 -1.1794 21.511025 17.831250 31.104357
2592 18 2 0.5897 21.012738 18.634478 31.378833
2593 18 2 0.5897 22.296660 17.869243 31.691061
2594 18 1 -1.1794 14.151475 17.831250 31.104357
2595 18 2 0.5897 14.724602 18.600767 31.333605
2596 18 2 0.5897 14.735793 17.083386 31.372239
2597 18 1 -1.1794 17.831250 19.216857 26.038975
2598 18 2 0.5897 17.072622 19.568606 26.563093
2599 18 2 0.5897 18.590624 19.501622 26.611075
2600 18 1 -1.1794 17.831250 19.216857 33.398525
2601 18 2 0.5897 17.866750 19.820706 34.177818
2602 18 2 0.5897 18.629737 19.503002 32.897842
2603 18 1 -1.1794 17.831250 16.445643 26.038975
2604 18 2 0.5897 18.036764 17.413742 26.105661
2605 18 2 0.5897 17.051778 16.531661 25.460681
2606 18 1 -1.1794 17.831250 16.445643 33.398525
2607 18 2 0.5897 17.786883 17.413213 33.570644
2608 18 2 0.5897 17.812692 16.053692 34.296889
2609 18 1 -1.1794 19.216857 21.511025 29.718750
2610 18 2 0.5897 18.248976 21.652384 29.624090
2611 18 2 0.5897 19.585820 22.413218 29.619322
2612 18 1 -1.1794 19.216857 14.151475 29.718750
2613 18 2 0.5897 19.548088 14.701785 30.465503
2614 18 2 0.5897 19.545958 14.670699 28.947706
2615 18 1 -1.1794 16.445643 21.511025 29.718750
2616 18 2 0.5897 15.860556 22.303729 29.725416
2617 18 2 0.5897 16.128088 21.032985 30.518014
2618 18 1 -1.1794 16.445643 14.151475 29.718750
2619 18 2 0.5897 16.249390 14.692872 30.517625
2620 18 2 0.5897 17.424678 14.060428 29.785242
2621 18 3 0.0 11.887500 11.887500 23.775000
2622 18 3 0.0 17.831250 17.831250 29.718750
2623 18 3 0.0 11.887500 14.859375 29.718750
2624 18 3 0.0 11.887500 20.803125 29.718750
2625 18 3 0.0 17.831250 11.887500 26.746875
2626 18 3 0.0 17.831250 11.887500 32.690625
2627 18 3 0.0 14.859375 17.831250 23.775000
2628 18 3 0.0 20.803125 17.831250 23.775000
2629 19 1 -1.1794 11.887500 29.718750 2.971875
2630 19 2 0.5897 11.897156 30.521382 2.401692
2631 19 2 0.5897 12.706706 29.853805 3.500477
2632 19 1 -1.1794 11.887500 29.718750 8.915625
2633 19 2 0.5897 12.168567 30.583436 9.277971
2634 19 2 0.5897 12.610734 29.587773 8.254920
2635 19 1 -1.1794 14.859375 23.775000 5.943750
2636 19 2 0.5897 14.296866 23.887795 6.741859
2637 19 2 0.5897 15.393904 24.601096 5.955505
2638 19 1 -1.1794 20.803125 23.775000 5.943750
2639 19 2 0.5897 20.240617 24.573110 6.056546
2640 19 2 0.5897 21.337653 23.786753 6.769848
2641 19 1 -1.1794 17.831250 26.746875 0.000000
2642 19 2 0.5897 18.112323 27.109227 0.864683
2643 19 2 0.5897 18.554485 26.086172 -0.130979
2644 19 1 -1.1794 17.831250 32.690625 0.000000
2645 19 2 0.5897 17.840909 32.120441 0.802632
2646 19 2 0.5897 18.650455 33.219227 0.135054
2647 19 1 -1.1794 14.083240 25.970740 2.195740
2648 19 2 0.5897 13.818243 25.177781 2.721735
2649 19 2 0.5897 14.595546 26.483072 2.862811
2650 19 1 -1.1794 21.579260 33.466760 2.195740
2651 19 2 0.5897 21.865888 34.291781 2.648501
2652 19 2 0.5897 21.004218 33.818814 1.480933
2653 19 1 -1.1794 21.579260 25.970740 9.691760
2654 19 2 0.5897 21.041781 26.557308 9.104938
2655 19 2 0.5897 22.340371 26.557332 9.905926
2656 19 1 -1.1794 14.083240 33.466760 9.691760
2657 19 2 0.5897 13.321015 32.963865 10.050449
2658 19 2 0.5897 14.541573 33.724780 10.533970
2659 19 1 -1.1794 20.026990 31.914490 3.748010
2660 19 2 0.5897 19.942952 32.381915 4.601005
2661 19 2 0.5897 20.732952 32.419310 3.294149
2662 19 1 -1.1794 15.635510 27.523010 3.748010
2663 19 2 0.5897 15.889865 26.959788 4.519697
2664 19 2 0.5897 16.527481 27.745836 3.410372
2665 19 1 -1.1794 20.026990 27.523010 8.139490
2666 19 2 0.5897 19.240636 27.885945 8.609681
2667 19 2 0.5897 20.454714 28.347992 7.810198
2668 19 1 -1.1794 15.635510 31.914490 8.139490
2669 19 2 0.5897 15.123113 32.506546 8.742287
2670 19 2 0.5897 16.378956 31.644471 8.725499
2671 19 1 -1.1794 21.579260 33.466760 9.691760
2672 19 2 0.5897 21.833637 34.238442 9.128541
2673 19 2 0.5897 22.471221 33.129096 9.914592
2674 19 1 -1.1794 14.083240 25.970740 9.691760
2675 19 2 0.5897 13.296885 26.440929 10.054694
2676 19 2 0.5897 14.510964 25.641447 10.516742
2677 19 1 -1.1794 14.083240 33.466760 2.195740
2678 19 2 0.5897 13.999203 34.319755 2.663166
2679 19 2 0.5897 14.789202 33.012898 2.700560
2680 19 1 -1.1794 21.579260 25.970740 2.195740
2681 19 2 0.5897 21.066861 26.573535 2.787796
2682 19 2 0.5897 22.322705 26.556750 1.925722
2683 19 1 -1.1794 15.635510 27.523010 8.139490
2684 19 2 0.5897 15.098031 26.936188 8.726058
2685 19 2 0.5897 16.396620 27.737177 8.726082
2686 19 1 -1.1794 20.026990 31.914490 8.139490
2687 19 2 0.5897 19.761994 32.440484 7.346530
2688 19 2 0.5897 20.539295 32.581563 8.651821
2689 19 1 -1.1794 15.635510 31.914490 3.748010
2690 19 2 0.5897 15.922137 32.367251 4.573031
2691 19 2 0.5897 15.060469 31.199681 4.100063
2692 19 1 -1.1794 20.026990 27.523010 3.748010
2693 19 2 0.5897 19.264769 27.881705 3.245111
2694 19 2 0.5897 20.485326 28.365218 4.006031
2695 19 1 -1.1794 11.887500 27.454775 1.385607
2696 19 2 0.5897 11.922998 28.234067 1.989457
2697 19 2 0.5897 12.685985 26.954090 1.671756
2698 19 1 -1.1794 11.887500 31.982725 1.385607
2699 19 2 0.5897 11.128869 32.506842 1.737352
2700 19 2 0.5897 12.646872 32.554826 1.670376
2701 19 1 -1.1794 11.887500 27.454775 10.501893
2702 19 2 0.5897 11.843132 27.626890 11.469464
2703 19 2 0.5897 11.868941 28.353141 10.109946
2704 19 1 -1.1794 11.887500 31.982725 10.501893
2705 19 2 0.5897 12.093029 32.049438 11.469986
2706 19 2 0.5897 11.108049 31.404397 10.587942
2707 19 1 -1.1794 13.273107 23.775000 3.679775
2708 19 2 0.5897 12.305226 23.680341 3.821134
2709 19 2 0.5897 13.642070 23.675572 4.581968
2710 19 1 -1.1794 13.273107 23.775000 8.207725
2711 19 2 0.5897 13.604336 24.521754 8.758036
2712 19 2 0.5897 13.602206 23.003957 8.726950
2713 19 1 -1.1794 22.389393 23.775000 3.679775
2714 19 2 0.5897 21.804308 23.781667 4.472479
2715 19 2 0.5897 22.071838 24.574264 3.201735
2716 19 1 -1.1794 22.389393 23.775000 8.207725
2717 19 2 0.5897 22.193138 24.573873 8.749125
2718 19 2 0.5897 23.368428 23.841494 8.116678
2719 19 1 -1.1794 15.567275 25.160607 0.000000
2720 19 2 0.5897 15.068986 25.435080 0.803227
2721 19 2 0.5897 16.352910 25.747311 0.037997
2722 19 1 -1.1794 20.095225 25.160607 0.000000
2723 19 2 0.5897 20.668354 25.389855 0.769515
2724 19 2 0.5897 20.679541 25.428488 -0.747865
2725 19 1 -1.1794 15.567275 34.276893 0.000000
2726 19 2 0.5897 15.757086 35.227377 0.104347
2727 19 2 0.5897 16.433834 33.843458 0.112136
2728 19 1 -1.1794 20.095225 34.276893 0.000000
2729 19 2 0.5897 20.009784 35.253258 -0.083426
2730 19 2 0.5897 20.575217 34.051857 -0.827363
2731 19 1 -1.1794 21.511025 29.718750 4.558143
2732 19 2 0.5897 21.700835 29.823098 5.508627
2733 19 2 0.5897 22.377584 29.830885 4.124708
2734 19 1 -1.1794 14.151475 29.718750 4.558143
2735 19 2 0.5897 14.066031 29.635324 5.534508
2736 19 2 0.5897 14.631467 28.891387 4.333108
2737 19 1 -1.1794 21.511025 29.718750 7.329357
2738 19 2 0.5897 21.012738 30.521978 7.603833
2739 19 2 0.5897 22.296660 29.756743 7.916061
2740 19 1 -1.1794 14.151475 29.718750 7.329357
2741 19 2 0.5897 14.724602 30.488267 7.558605
2742 19 2 0.5897 14.735793 28.970886 7.597239
2743 19 1 -1.1794 17.831250 31.104357 2.263975
2744 19 2 0.5897 17.072622 31.456106 2.788093
2745 19 2 0.5897 18.590624 31.389122 2.836075
2746 19 1 -1.1794 17.831250 31.104357 9.623525
2747 19 2 0.5897 17.866750 31.708206 10.402818
2748 19 2 0.5897 18.629737 31.390502 9.122842
2749 19 1 -1.1794 17.831250 28.333143 2.263975
2750 19 2 0.5897 18.036764 29.301242 2.330661
2751 19 2 0.5897 17.051778 28.419161 1.685681
2752 19 1 -1.1794 17.831250 28.333143 9.623525
2753 19 2 0.5897 17.786883 29.300713 9.795644
2754 19 2 0.5897 17.812692 27.941192 10.521889
2755 19 1 -1.1794 19.216857 33.398525 5.943750
2756 19 2 0.5897 18.248976 33.539884 5.849090
2757 19 2 0.5897 19.585820 34.300718 5.844322
2758 19 1 -1.1794 19.216857 26.038975 5.943750
2759 19 2 0.5897 19.548088 26.589285 6.690503
2760 19 2 0.5897 19.545958 26.558199 5.172706
2761 19 1 -1.1794 16.445643 33.398525 5.943750
2762 19 2 0.5897 15.860556 34.191229 5.950416
2763 19 2 0.5897 16.128088 32.920485 6.743014
2764 19 1 -1.1794 16.445643 26.038975 5.943750
2765 19 2 0.5897 16.249390 26.580372 6.742625
2766 19 2 0.5897 17.424678 25.947928 6.010242
2767 19 3 0.0 11.887500 23.775000 0.000000
2768 19 3 0.0 17.831250 29.718750 5.943750
2769 19 3 0.0 11.887500 26.746875 5.943750
2770 19 3 0.0 11.887500 32.690625 5.943750
2771 19 3 0.0 17.831250 23.775000 2.971875
2772 19 3 0.0 17.831250 23.775000 8.915625
2773 19 3 0.0 14.859375 29.718750 0.000000
2774 19 3 0.0 20.803125 29.718750 0.000000
2775 20 1 -1.1794 11.887500 29.718750 14.859375
2776 20 2 0.5897 11.897156 30.521382 14.289192
2777 20 2 0.5897 12.706706 29.853805 15.387977
2778 20 1 -1.1794 11.887500 29.718750 20.803125
2779 20 2 0.5897 12.168567 30.583436 21.165471
2780 20 2 0.5897 12.610734 29.587773 20.142420
2781 20 1 -1.1794 14.859375 23.775000 17.831250
2782 20 2 0.5897 14.296866 23.887795 18.629359
2783 20 2 0.5897 15.393904 24.601096 17.843005
2784 20 1 -1.1794 20.803125 23.775000 17.831250
2785 20 2 0.5897 20.240617 24.573110 17.944046
2786 20 2 0.5897 21.337653 23.786753 18.657348
2787 20 1 -1.1794 17.831250 26.746875 11.887500
2788 20 2 0.5897 18.112323 27.109227 12.752183
2789 20 2 0.5897 18.554485 26.086172 11.756521
2790 20 1 -1.1794 17.831250 32.690625 11.887500
2791 20 2 0.5897 17.840909 32.120441 12.690132
2792 20 2 0.5897 18.650455 33.219227 12.022554
2793 20 1 -1.1794 14.083240 25.970740 14.083240
2794 20 2 0.5897 13.818243 25.177781 14.609235
2795 20 2 0.5897 14.595546 26.483072 14.750311
2796 20 1 -1.1794 21.579260 33.466760 14.083240
2797 20 2 0.5897 21.865888 34.291781 14.536001
2798 20 2 0.5897 21.004218 33.818814 13.368433
2799 20 1 -1.1794 21.579260 25.970740 21.579260
2800 20 2 0.5897 21.041781 26.557308 20.992438
2801 20 2 0.5897 22.340371 26.557332 21.793426
2802 20 1 -1.1794 14.083240 33.466760 21.579260
2803 20 2 0.5897 13.321015 32.963865 21.937949
2804 20 2 0.5897 14.541573 33.724780 22.421470
2805 20 1 -1.1794 20.026990 31.914490 15.635510
2806 20 2 0.5897 19.942952 32.381915 16.488505
2807 20 2 0.5897 20.732952 32.419310 15.181649
2808 20 1 -1.1794 15.635510 27.523010 15.635510
2809 20 2 0.5897 15.889865 26.959788 16.407197
2810 20 2 0.5897 16.527481 27.745836 15.297872
2811 20 1 -1.1794 20.026990 27.523010 20.026990
2812 20 2 0.5897 19.240636 27.885945 20.497181
2813 20 2 0.5897 20.454714 28.347992 19.697698
2814 20 1 -1.1794 15.635510 31.914490 20.026990
2815 20 2 0.5897 15.123113 32.506546 20.629787
2816 20 2 0.5897 16.378956 31.644471 20.612999
2817 20 1 -1.1794 21.579260 33.466760 21.579260
2818 20 2 0.5897 21.833637 34.238442 21.016041
2819 20 2 0.5897 22.471221 33.129096 21.802092
2820 20 1 -1.1794 14.083240 25.970740 21.579260
2821 20 2 0.5897 13.296885 26.440929 21.942194
2822 20 2 0.5897 14.510964 25.641447 22.404242
2823 20 1 -1.1794 14.083240 33.466760 14.083240
2824 20 2 0.5897 13.999203 34.319755 14.550666
2825 20 2 0.5897 14.789202 33.012898 14.588060
2826 20 1 -1.1794 21.579260 25.970740 14.083240
2827 20 2 0.5897 21.066861 26.573535 14.675296
2828 20 2 0.5897 22.322705 26.556750 13.813222
2829 20 1 -1.1794 15.635510 27.523010 20.026990
2830 20 2 0.5897 15.098031 26.936188 20.613558
2831 20 2 0.5897 16.396620 27.737177 20.613582
2832 20 1 -1.1794 20.026990 31.914490 20.026990
2833 20 2 0.5897 19.761994 32.440484 19.234030
2834 20 2 0.5897 20.539295 32.581563 20.539321
2835 20 1 -1.1794 15.635510 31.914490 15.635510
2836 20 2 0.5897 15.922137 32.367251 16.460531
2837 20 2 0.5897 15.060469 31.199681 15.987563
2838 20 1 -1.1794 20.026990 27.523010 15.635510
2839 20 2 0.5897 19.264769 27.881705 15.132611
2840 20 2 0.5897 20.485326 28.365218 15.893531
2841 20 1 -1.1794 11.887500 27.454775 13.273107
2842 20 2 0.5897 11.922998 28.234067 13.876957
2843 20 2 0.5897 12.685985 26.954090 13.559256
2844 20 1 -1.1794 11.887500 31.982725 13.273107
2845 20 2 0.5897 11.128869 32.506842 13.624852
2846 20 2 0.5897 12.646872 32.554826 13.557876
2847 20 1 -1.1794 11.887500 27.454775 22.389393
2848 20 2 0.5897 11.843132 27.626890 23.356964
2849 20 2 0.5897 11.868941 28.353141 21.997446
2850 20 1 -1.1794 11.887500 31.982725 22.389393
2851 20 2 0.5897 12.093029 32.049438 23.357486
2852 20 2 0.5897 11.108049 31.404397 22.475442
2853 20 1 -1.1794 13.273107 23.775000 15.567275
2854 20 2 0.5897 12.305226 23.680341 15.708634
2855 20 2 0.5897 13.642070 23.675572 16.469468
2856 20 1 -1.1794 13.273107 23.775000 20.095225
2857 20 2 0.5897 13.604336 24.521754 20.645536
2858 20 2 0.5897 13.602206 23.003957 20.614450
2859 20 1 -1.1794 22.389393 23.775000 15.567275
2860 20 2 0.5897 21.804308 23.781667 16.359979
2861 20 2 0.5897 22.071838 24.574264 15.089235
2862 20 1 -1.1794 22.389393 23.775000 20.095225
2863 20 2 0.5897 22.193138 24.573873 20.636625
2864 20 2 0.5897 23.368428 23.841494 20.004178
2865 20 1 -1.1794 15.567275 25.160607 11.887500
2866 20 2 0.5897 15.068986 25.435080 12.690727
2867 20 2 0.5897 16.352910 25.747311 11.925497
2868 20 1 -1.1794 20.095225 25.160607 11.887500
2869 20 2 0.5897 20.668354 25.389855 12.657015
2870 20 2 0.5897 20.679541 25.428488 11.139635
2871 20 1 -1.1794 15.567275 34.276893 11.887500
2872 20 2 0.5897 15.757086 35.227377 11.991847
2873 20 2 0.5897 16.433834 33.843458 11.999636
2874 20 1 -1.1794 20.095225 34.276893 11.887500
2875 20 2 0.5897 20.009784 35.253258 11.804074
2876 20 2 0.5897 20.575217 34.051857 11.060137
2877 20 1 -1.1794 21.511025 29.718750 16.445643
2878 20 2 0.5897 21.700835 29.823098 17.396127
2879 20 2 0.5897 22.377584 29.830885 16.012208
2880 20 1 -1.1794 14.151475 29.718750 16.445643
2881 20 2 0.5897 14.066031 29.635324 17.422008
2882 20 2 0.5897 14.631467 28.891387 16.220608
2883 20 1 -1.1794 21.511025 29.718750 19.216857
2884 20 2 0.5897 21.012738 30.521978 19.491333
2885 20 2 0.5897 22.296660 29.756743 19.803561
2886 20 1 -1.1794 14.151475 29.718750 19.216857
2887 20 2 0.5897 14.724602 30.488267 19.446105
2888 20 2 0.5897 14.735793 28.970886 19.484739
2889 20 1 -1.1794 17.831250 31.104357 14.151475
2890 20 2 0.5897 17.072622 31.456106 14.675593
2891 20 2 0.5897 18.590624 31.389122 14.723575
2892 20 1 -1.1794 17.831250 31.104357 21.511025
2893 20 2 0.5897 17.866750 31.708206 22.290318
2894 20 2 0.5897 18.629737 31.390502 21.010342
2895 20 1 -1.1794 17.831250 28.333143 14.151475
2896 20 2 0.5897 18.036764 29.301242 14.218161
2897 20 2 0.5897 17.051778 28.419161 13.573181
2898 20 1 -1.1794 17.831250 28.333143 21.511025
2899 20 2 0.5897 17.786883 29.300713 21.683144
2900 20 2 0.5897 17.812692 27.941192 22.409389
2901 20 1 -1.1794 19.216857 33.398525 17.831250
2902 20 2 0.5897 18.248976 33.539884 17.736590
2903 20 2 0.5897 19.585820 34.300718 17.731822
2904 20 1 -1.1794 19.216857 26.038975 17.831250
2905 20 2 0.5897 19.548088 26.589285 18.578003
2906 20 2 0.5897 19.545958 26.558199 17.060206
2907 20 1 -1.1794 16.445643 33.398525 17.831250
2908 20 2 0.5897 15.860556 34.191229 17.837916
2909 20 2 0.5897 16.128088 32.920485 18.630514
2910 20 1 -1.1794 16.445643 26.038975 17.831250
2911 20 2 0.5897 16.249390 26.580372 18.630125
2912 20 2 0.5897 17.424678 25.947928 17.897742
2913 20 3 0.0 11.887500 23.775000 11.887500
2914 20 3 0.0 17.831250 29.718750 17.831250
2915 20 3 0.0 11.887500 26.746875 17.831250
2916 20 3 0.0 11.887500 32.690625 17.831250
2917 20 3 0.0 17.831250 23.775000 14.859375
2918 20 3 0.0 17.831250 23.775000 20.803125
2919 20 3 0.0 14.859375 29.718750 11.887500
2920 20 3 0.0 20.803125 29.718750 11.887500
2921 21 1 -1.1794 11.887500 29.718750 26.746875
2922 21 2 0.5897 11.897156 30.521382 26.176692
2923 21 2 0.5897 12.706706 29.853805 27.275477
2924 21 1 -1.1794 11.887500 29.718750 32.690625
2925 21 2 0.5897 12.168567 30.583436 33.052971
2926 21 2 0.5897 12.610734 29.587773 32.029920
2927 21 1 -1.1794 14.859375 23.775000 29.718750
2928 21 2 0.5897 14.296866 23.887795 30.516859
2929 21 2 0.5897 15.393904 24.601096 29.730505
2930 21 1 -1.1794 20.803125 23.775000 29.718750
2931 21 2 0.5897 20.240617 24.573110 29.831546
2932 21 2 0.5897 21.337653 23.786753 30.544848
2933 21 1 -1.1794 17.831250 26.746875 23.775000
2934 21 2 0.5897 18.112323 27.109227 24.639683
2935 21 2 0.5897 18.554485 26.086172 23.644021
2936 21 1 -1.1794 17.831250 32.690625 23.775000
2937 21 2 0.5897 17.840909 32.120441 24.577632
2938 21 2 0.5897 18.650455 33.219227 23.910054
2939 21 1 -1.1794 14.083240 25.970740 25.970740
2940 21 2 0.5897 13.818243 25.177781 26.496735
2941 21 2 0.5897 14.595546 26.483072 26.637811
2942 21 1 -1.1794 21.579260 33.466760 25.970740
2943 21 2 0.5897 21.865888 34.291781 26.423501
2944 21 2 0.5897 21.004218 33.818814 25.255933
2945 21 1 -1.1794 21.579260 25.970740 33.466760
2946 21 2 0.5897 21.041781 26.557308 32.879938
2947 21 2 0.5897 22.340371 26.557332 33.680926
2948 21 1 -1.1794 14.083240 33.466760 33.466760
2949 21 2 0.5897 13.321015 32.963865 33.825449
2950 21 2 0.5897 14.541573 33.724780 34.308970
2951 21 1 -1.1794 20.026990 31.914490 27.523010
2952 21 2 0.5897 19.942952 32.381915 28.376005
2953 21 2 0.5897 20.732952 32.419310 27.069149
2954 21 1 -1.1794 15.635510 27.523010 27.523010
2955 21 2 0.5897 15.889865 26.959788 28.294697
2956 21 2 0.5897 16.527481 27.745836 27.185372
2957 21 1 -1.1794 20.026990 27.523010 31.914490
2958 21 2 0.5897 19.240636 27.885945 32.384681
2959 21 2 0.5897 20.454714 28.347992 31.585198
2960 21 1 -1.1794 15.635510 31.914490 31.914490
2961 21 2 0.5897 15.123113 32.506546 32.517287
2962 21 2 0.5897 16.378956 31.644471 32.500499
2963 21 1 -1.1794 21.579260 33.466760 33.466760
2964 21 2 0.5897 21.833637 34.238442 32.903541
2965 21 2 0.5897 22.471221 33.129096 33.689592
2966 21 1 -1.1794 14.083240 25.970740 33.466760
2967 21 2 0.5897 13.296885 26.440929 33.829694
2968 21 2 0.5897 14.510964 25.641447 34.291742
2969 21 1 -1.1794 14.083240 33.466760 25.970740
2970 21 2 0.5897 13.999203 34.319755 26.438166
2971 21 2 0.5897 14.789202 33.012898 26.475560
2972 21 1 -1.1794 21.579260 25.970740 25.970740
2973 21 2 0.5897 21.066861 26.573535 26.562796
2974 21 2 0.5897 22.322705 26.556750 25.700722
2975 21 1 -1.1794 15.635510 27.523010 31.914490
2976 21 2 0.5897 15.098031 26.936188 32.501058
2977 21 2 0.5897 16.396620 27.737177 32.501082
2978 21 1 -1.1794 20.026990 31.914490 31.914490
2979 21 2 0.5897 19.761994 32.440484 31.121530
2980 21 2 0.5897 20.539295 32.581563 32.426821
2981 21 1 -1.1794 15.635510 31.914490 27.523010
2982 21 2 0.5897 15.922137 32.367251 28.348031
2983 21 2 0.5897 15.060469 31.199681 27.875063
2984 21 1 -1.1794 20.026990 27.523010 27.523010
2985 21 2 0.5897 19.264769 27.881705 27.020111
2986 21 2 0.5897 20.485326 28.365218 27.781031
2987 21 1 -1.1794 11.887500 27.454775 25.160607
2988 21 2 0.5897 11.922998 28.234067 25.764457
2989 21 2 0.5897 12.685985 26.954090 25.446756
2990 21 1 -1.1794 11.887500 31.982725 25.160607
2991 21 2 0.5897 11.128869 32.506842 25.512352
2992 21 2 0.5897 12.646872 32.554826 25.445376
2993 21 1 -1.1794 11.887500 27.454775 34.276893
2994 21 2 0.5897 11.843132 27.626890 35.244464
2995 21 2 0.5897 11.868941 28.353141 33.884946
2996 21 1 -1.1794 11.887500 31.982725 34.276893
2997 21 2 0.5897 12.093029 32.049438 35.244986
2998 21 2 0.5897 11.108049 31.404397 34.362942
2999 21 1 -1.1794 13.273107 23.775000 27.454775
3000 21 2 0.5897 12.305226 23.680341 27.596134
3001 21 2 0.5897 13.642070 23.675572 28.356968
3002 21 1 -1.1794 13.273107 23.775000 31.982725
3003 21 2 0.5897 13.604336 24.521754 32.533036
3004 21 2 0.5897 13.602206 23.003957 32.501950
3005 21 1 -1.1794 22.389393 23.775000 27.454775
3006 21 2 0.5897 21.804308 23.781667 28.247479
3007 21 2 0.5897 22.071838 24.574264 26.976735
3008 21 1 -1.1794 22.389393 23.775000 31.982725
3009 21 2 0.5897 22.193138 24.573873 32.524125
3010 21 2 0.5897 23.368428 23.841494 31.891678
3011 21 1 -1.1794 15.567275 25.160607 23.775000
3012 21 2 0.5897 15.068986 25.435080 24.578227
3013 21 2 0.5897 16.352910 25.747311 23.812997
3014 21 1 -1.1794 20.095225 25.160607 23.775000
3015 21 2 0.5897 20.668354 25.389855 24.544515
3016 21 2 0.5897 20.679541 25.428488 23.027135
3017 21 1 -1.1794 15.567275 34.276893 23.775000
3018 21 2 0.5897 15.757086 35.227377 23.879347
3019 21 2 0.5897 16.433834 33.843458 23.887136
3020 21 1 -1.1794 20.095225 34.276893 23.775000
3021 21 2 0.5897 20.009784 35.253258 23.691574
3022 21 2 0.5897 20.575217 34.051857 22.947637
3023 21 1 -1.1794 21.511025 29.718750 28.333143
3024 21 2 0.5897 21.700835 29.823098 29.283627
3025 21 2 0.5897 22.377584 29.830885 27.899708
3026 21 1 -1.1794 14.151475 29.718750 28.333143
3027 21 2 0.5897 14.066031 29.635324 29.309508
3028 21 2 0.5897 14.631467 28.891387 28.108108
3029 21 1 -1.1794 21.511025 29.718750 31.104357
3030 21 2 0.5897 21.012738 30.521978 31.378833
3031 21 2 0.5897 22.296660 29.756743 31.691061
3032 21 1 -1.1794 14.151475 29.718750 31.104357
3033 21 2 0.5897 14.724602 30.488267 31.333605
3034 21 2 0.5897 14.735793 28.970886 31.372239
3035 21 1 -1.1794 17.831250 31.104357 26.038975
3036 21 2 0.5897 17.072622 31.456106 26.563093
3037 21 2 0.5897 18.590624 31.389122 26.611075
3038 21 1 -1.1794 17.831250 31.104357 33.398525
3039 21 2 0.5897 17.866750 31.708206 34.177818
3040 21 2 0.5897 18.629737 31.390502 32.897842
3041 21 1 -1.1794 17.831250 28.333143 26.038975
3042 21 2 0.5897 18.036764 29.301242 26.105661
3043 21 2 0.5897 17.051778 28.419161 25.460681
3044 21 1 -1.1794 17.831250 28.333143 33.398525
3045 21 2 0.5897 17.786883 29.300713 33.570644
3046 21 2 0.5897 17.812692 27.941192 34.296889
3047 21 1 -1.1794 19.216857 33.398525 29.718750
3048 21 2 0.5897 18.248976 33.539884 29.624090
3049 21 2 0.5897 19.585820 34.300718 29.619322
3050 21 1 -1.1794 19.216857 26.038975 29.718750
3051 21 2 0.5897 19.548088 26.589285 30.465503
3052 21 2 0.5897 19.545958 26.558199 28.947706
3053 21 1 -1.1794 16.445643 33.398525 29.718750
3054 21 2 0.5897 15.860556 34.191229 29.725416
3055 21 2 0.5897 16.128088 32.920485 30.518014
3056 21 1 -1.1794 16.445643 26.038975 29.718750
3057 21 2 0.5897 16.249390 26.580372 30.517625
3058 21 2 0.5897 17.424678 25.947928 29.785242
3059 21 3 0.0 11.887500 23.775000 23.775000
3060 21 3 0.0 17.831250 29.718750 29.718750
3061 21 3 0.0 11.887500 26.746875 29.718750
3062 21 3 0.0 11.887500 32.690625 29.718750
3063 21 3 0.0 17.831250 23.775000 26.746875
3064 21 3 0.0 17.831250 23.775000 32.690625
3065 21 3 0.0 14.859375 29.718750 23.775000
3066 21 3 0.0 20.803125 29.718750 23.775000
3067 22 1 -1.1794 11.887500 41.606250 2.971875
3068 22 2 0.5897 11.897156 42.408882 2.401692
3069 22 2 0.5897 12.706706 41.741305 3.500477
3070 22 1 -1.1794 11.887500 41.606250 8.915625
3071 22 2 0.5897 12.168567 42.470936 9.277971
3072 22 2 0.5897 12.610734 41.475273 8.254920
3073 22 1 -1.1794 14.859375 35.662500 5.943750
3074 22 2 0.5897 14.296866 35.775295 6.741859
3075 22 2 0.5897 15.393904 36.488596 5.955505
3076 22 1 -1.1794 20.803125 35.662500 5.943750
3077 22 2 0.5897 20.240617 36.460610 6.056546
3078 22 2 0.5897 21.337653 35.674253 6.769848
3079 22 1 -1.1794 17.831250 38.634375 0.000000
3080 22 2 0.5897 18.112323 38.996727 0.864683
3081 22 2 0.5897 18.554485 37.973672 -0.130979
3082 22 1 -1.1794 17.831250 44.578125 0.000000
3083 22 2 0.5897 17.840909 44.007941 0.802632
3084 22 2 0.5897 18.650455 45.106727 0.135054
3085 22 1 -1.1794 14.083240 37.858240 2.195740
3086 22 2 0.5897 13.818243 37.065281 2.721735
3087 22 2 0.5897 14.595546 38.370572 2.862811
3088 22 1 -1.1794 21.579260 45.354260 2.195740
3089 22 2 0.5897 21.865888 46.179281 2.648501
3090 22 2 0.5897 21.004218 45.706314 1.480933
3091 22 1 -1.1794 21.579260 37.858240 9.691760
3092 22 2 0.5897 21.041781 38.444808 9.104938
3093 22 2 0.5897 22.340371 38.444832 9.905926
3094 22 1 -1.1794 14.083240 45.354260 9.691760
3095 22 2 0.5897 13.321015 44.851365 10.050449
3096 22 2 0.5897 14.541573 45.612280 10.533970
3097 22 1 -1.1794 20.026990 43.801990 3.748010
3098 22 2 0.5897 19.942952 44.269415 4.601005
3099 22 2 0.5897 20.732952 44.306810 3.294149
3100 22 1 -1.1794 15.635510 39.410510 3.748010
3101 22 2 0.5897 15.889865 38.847288 4.519697
3102 22 2 0.5897 16.527481 39.633336 3.410372
3103 22 1 -1.1794 20.026990 39.410510 8.139490
3104 22 2 0.5897 19.240636 39.773445 8.609681
3105 22 2 0.5897 20.454714 40.235492 7.810198
3106 22 1 -1.1794 15.635510 43.801990 8.139490
3107 22 2 0.5897 15.123113 44.394046 8.742287
3108 22 2 0.5897 16.378956 43.531971 8.725499
3109 22 1 -1.1794 21.579260 45.354260 9.691760
3110 22 2 0.5897 21.833637 46.125942 9.128541
3111 22 2 0.5897 22.471221 45.016596 9.914592
3112 22 1 -1.1794 14.083240 37.858240 9.691760
3113 22 2 0.5897 13.296885 38.328429 10.054694
3114 22 2 0.5897 14.510964 37.528947 10.516742
3115 22 1 -1.1794 14.083240 45.354260 2.195740
3116 22 2 0.5897 13.999203 46.207255 2.663166
3117 22 2 0.5897 14.789202 44.900398 2.700560
3118 22 1 -1.1794 21.579260 37.858240 2.195740
3119 22 2 0.5897 21.066861 38.461035 2.787796
3120 22 2 0.5897 22.322705 38.444250 1.925722
3121 22 1 -1.1794 15.635510 39.410510 8.139490
3122 22 2 0.5897 15.098031 38.823688 8.726058
3123 22 2 0.5897 16.396620 39.624677 8.726082
3124 22 1 -1.1794 20.026990 43.801990 8.139490
3125 22 2 0.5897 19.761994 44.327984 7.346530
3126 22 2 0.5897 20.539295 44.469063 8.651821
3127 22 1 -1.1794 15.635510 43.801990 3.748010
3128 22 2 0.5897 15.922137 44.254751 4.573031
3129 22 2 0.5897 15.060469 43.087181 4.100063
3130 22 1 -1.1794 20.026990 39.410510 3.748010
3131 22 2 0.5897 19.264769 39.769205 3.245111
3132 22 2 0.5897 20.485326 40.252718 4.006031
3133 22 1 -1.1794 11.887500 39.342275 1.385607
3134 22 2 0.5897 11.922998 40.121567 1.989457
3135 22 2 0.5897 12.685985 38.841590 1.671756
3136 22 1 -1.1794 11.887500 43.870225 1.385607
3137 22 2 0.5897 11.128869 44.394342 1.737352
3138 22 2 0.5897 12.646872 44.442326 1.670376
3139 22 1 -1.1794 11.887500 39.342275 10.501893
3140 22 2 0.5897 11.843132 39.514390 11.469464
3141 22 2 0.5897 11.868941 40.240641 10.109946
3142 22 1 -1.1794 11.887500 43.870225 10.501893
3143 22 2 0.5897 12.093029 43.936938 11.469986
3144 22 2 0.5897 11.108049 43.291897 10.587942
3145 22 1 -1.1794 13.273107 35.662500 3.679775
3146 22 2 0.5897 12.305226 35.567841 3.821134
3147 22 2 0.5897 13.642070 35.563072 4.581968
3148 22 1 -1.1794 13.273107 35.662500 8.207725
3149 22 2 0.5897 13.604336 36.409254 8.758036
3150 22 2 0.5897 13.602206 34.891457 8.726950
3151 22 1 -1.1794 22.389393 35.662500 3.679775
3152 22 2 0.5897 21.804308 35.669167 4.472479
3153 22 2 0.5897 22.071838 36.461764 3.201735
3154 22 1 -1.1794 22.389393 35.662500 8.207725
3155 22 2 0.5897 22.193138 36.461373 8.749125
3156 22 2 0.5897 23.368428 35.728994 8.116678
3157 22 1 -1.1794 15.567275 37.048107 0.000000
3158 22 2 0.5897 15.068986 37.322580 0.803227
3159 22 2 0.5897 16.352910 37.634811 0.037997
3160 22 1 -1.1794 20.095225 37.048107 0.000000
3161 22 2 0.5897 20.668354 37.277355 0.769515
3162 22 2 0.5897 20.679541 37.315988 -0.747865
3163 22 1 -1.1794 15.567275 46.164393 0.000000
3164 22 2 0.5897 15.757086 47.114877 0.104347
3165 22 2 0.5897 16.433834 45.730958 0.112136
3166 22 1 -1.1794 20.095225 46.164393 0.000000
3167 22 2 0.5897 20.009784 47.140758 -0.083426
3168 22 2 0.5897 20.575217 45.939357 -0.827363
3169 22 1 -1.1794 21.511025 41.606250 4.558143
3170 22 2 0.5897 21.700835 41.710598 5.508627
3171 22 2 0.5897 22.377584 41.718385 4.124708
3172 22 1 -1.1794 14.151475 41.606250 4.558143
3173 22 2 0.5897 14.066031 41.522824 5.534508
3174 22 2 0.5897 14.631467 40.778887 4.333108
3175 22 1 -1.1794 21.511025 41.606250 7.329357
3176 22 2 0.5897 21.012738 42.409478 7.603833
3177 22 2 0.5897 22.296660 41.644243 7.916061
3178 22 1 -1.1794 14.151475 41.606250 7.329357
3179 22 2 0.5897 14.724602 42.375767 7.558605
3180 22 2 0.5897 14.735793 40.858386 7.597239
3181 22 1 -1.1794 17.831250 42.991857 2.263975
3182 22 2 0.5897 17.072622 43.343606 2.788093
3183 22 2 0.5897 18.590624 43.276622 2.836075
3184 22 1 -1.1794 17.831250 42.991857 9.623525
3185 22 2 0.5897 17.866750 43.595706 10.402818
3186 22 2 0.5897 18.629737 43.278002 9.122842
3187 22 1 -1.1794 17.831250 40.220643 2.263975
3188 22 2 0.5897 18.036764 41.188742 2.330661
3189 22 2 0.5897 17.051778 40.306661 1.685681
3190 22 1 -1.1794 17.831250 40.220643 9.623525
3191 22 2 0.5897 17.786883 41.188213 9.795644
3192 22 2 0.5897 17.812692 39.828692 10.521889
3193 22 1 -1.1794 19.216857 45.286025 5.943750
3194 22 2 0.5897 18.248976 45.427384 5.849090
3195 22 2 0.5897 19.585820 46.188218 5.844322
3196 22 1 -1.1794 19.216857 37.926475 5.943750
3197 22 2 0.5897 19.548088 38.476785 6.690503
3198 22 2 0.5897 19.545958 38.445699 5.172706
3199 22 1 -1.1794 16.445643 45.286025 5.943750
3200 22 2 0.5897 15.860556 46.078729 5.950416
3201 22 2 0.5897 16.128088 44.807985 6.743014
3202 22 1 -1.1794 16.445643 37.926475 5.943750
3203 22 2 0.5897 16.249390 38.467872 6.742625
3204 22 2 0.5897 17.424678 37.835428 6.010242
3205 22 3 0.0 11.887500 35.662500 0.000000
3206 22 3 0.0 17.831250 41.606250 5.943750
3207 22 3 0.0 11.887500 38.634375 5.943750
3208 22 3 0.0 11.887500 44.578125 5.943750
3209 22 3 0.0 17.831250 35.662500 2.971875
3210 22 3 0.0 17.831250 35.662500 8.915625
3211 22 3 0.0 14.859375 41.606250 0.000000
3212 22 3 0.0 20.803125 41.606250 0.000000
3213 23 1 -1.1794 11.887500 41.606250 14.859375
3214 23 2 0.5897 11.897156 42.408882 14.289192
3215 23 2 0.5897 12.706706 41.741305 15.387977
3216 23 1 -1.1794 11.887500 41.606250 20.803125
3217 23 2 0.5897 12.168567 42.470936 21.165471
3218 23 2 0.5897 12.610734 41.475273 20.142420
3219 23 1 -1.1794 14.859375 35.662500 17.831250
3220 23 2 0.5897 14.296866 35.775295 18.629359
3221 23 2 0.5897 15.393904 36.488596 17.843005
3222 23 1 -1.1794 20.803125 35.662500 17.831250
3223 23 2 0.5897 20.240617 36.460610 17.944046
3224 23 2 0.5897 21.337653 35.674253 18.657348
3225 23 1 -1.1794 17.831250 38.634375 11.887500
3226 23 2 0.5897 18.112323 38.996727 12.752183
3227 23 2 0.5897 18.554485 37.973672 11.756521
3228 23 1 -1.1794 17.831250 44.578125 11.887500
3229 23 2 0.5897 17.840909 44.007941 12.690132
3230 23 2 0.5897 18.650455 45.106727 12.022554
3231 23 1 -1.1794 14.083240 37.858240 14.083240
3232 23 2 0.5897 13.818243 37.065281 14.609235
3233 23 2 0.5897 14.595546 38.370572 14.750311
3234 23 1 -1.1794 21.579260 45.354260 14.083240
3235 23 2 0.5897 21.865888 46.179281 14.536001
3236 23 2 0.5897 21.004218 45.706314 13.368433
3237 23 1 -1.1794 21.579260 37.858240 21.579260
3238 23 2 0.5897 21.041781 38.444808 20.992438
3239 23 2 0.5897 22.340371 38.444832 21.793426
3240 23 1 -1.1794 14.083240 45.354260 21.579260
3241 23 2 0.5897 13.321015 44.851365 21.937949
3242 23 2 0.5897 14.541573 45.612280 22.421470
3243 23 1 -1.1794 20.026990 43.801990 15.635510
3244 23 2 0.5897 19.942952 44.269415 16.488505
3245 23 2 0.5897 20.732952 44.306810 15.181649
3246 23 1 -1.1794 15.635510 39.410510 15.635510
3247 23 2 0.5897 15.889865 38.847288 16.407197
3248 23 2 0.5897 16.527481 39.633336 15.297872
3249 23 1 -1.1794 20.026990 39.410510 20.026990
3250 23 2 0.5897 19.240636 39.773445 20.497181
3251 23 2 0.5897 20.454714 40.235492 19.697698
3252 23 1 -1.1794 15.635510 43.801990 20.026990
3253 23 2 0.5897 15.123113 44.394046 20.629787
3254 23 2 0.5897 16.378956 43.531971 20.612999
3255 23 1 -1.1794 21.579260 45.354260 21.579260
3256 23 2 0.5897 21.833637 46.125942 21.016041
3257 23 2 0.5897 22.471221 45.016596 21.802092
3258 23 1 -1.1794 14.083240 37.858240 21.579260
3259 23 2 0.5897 13.296885 38.328429 21.942194
3260 23 2 0.5897 14.510964 37.528947 22.404242
3261 23 1 -1.1794 14.083240 45.354260 14.083240
3262 23 2 0.5897 13.999203 46.207255 14.550666
3263 23 2 0.5897 14.789202 44.900398 14.588060
3264 23 1 -1.1794 21.579260 37.858240 14.083240
3265 23 2 0.5897 21.066861 38.461035 14.675296
3266 23 2 0.5897 22.322705 38.444250 13.813222
3267 23 1 -1.1794 15.635510 39.410510 20.026990
3268 23 2 0.5897 15.098031 38.823688 20.613558
3269 23 2 0.5897 16.396620 39.624677 20.613582
3270 23 1 -1.1794 20.026990 43.801990 20.026990
3271 23 2 0.5897 19.761994 44.327984 19.234030
3272 23 2 0.5897 20.539295 44.469063 20.539321
3273 23 1 -1.1794 15.635510 43.801990 15.635510
3274 23 2 0.5897 15.922137 44.254751 16.460531
3275 23 2 0.5897 15.060469 43.087181 15.987563
3276 23 1 -1.1794 20.026990 39.410510 15.635510
3277 23 2 0.5897 19.264769 39.769205 15.132611
3278 23 2 0.5897 20.485326 40.252718 15.893531
3279 23 1 -1.1794 11.887500 39.342275 13.273107
3280 23 2 0.5897 11.922998 40.121567 13.876957
3281 23 2 0.5897 12.685985 38.841590 13.559256
3282 23 1 -1.1794 11.887500 43.870225 13.273107
3283 23 2 0.5897 11.128869 44.394342 13.624852
3284 23 2 0.5897 12.646872 44.442326 13.557876
3285 23 1 -1.1794 11.887500 39.342275 22.389393
3286 23 2 0.5897 11.843132 39.514390 23.356964
3287 23 2 0.5897 11.868941 40.240641 21.997446
3288 23 1 -1.1794 11.887500 43.870225 22.389393
3289 23 2 0.5897 12.093029 43.936938 23.357486
3290 23 2 0.5897 11.108049 43.291897 22.475442
3291 23 1 -1.1794 13.273107 35.662500 15.567275
3292 23 2 0.5897 12.305226 35.567841 15.708634
3293 23 2 0.5897 13.642070 35.563072 16.469468
3294 23 1 -1.1794 13.273107 35.662500 20.095225
3295 23 2 0.5897 13.604336 36.409254 20.645536
3296 23 2 0.5897 13.602206 34.891457 20.614450
3297 23 1 -1.1794 22.389393 35.662500 15.567275
3298 23 2 0.5897 21.804308 35.669167 16.359979
3299 23 2 0.5897 22.071838 36.461764 15.089235
3300 23 1 -1.1794 22.389393 35.662500 20.095225
3301 23 2 0.5897 22.193138 36.461373 20.636625
3302 23 2 0.5897 23.368428 35.728994 20.004178
3303 23 1 -1.1794 15.567275 37.048107 11.887500
3304 23 2 0.5897 15.068986 37.322580 12.690727
3305 23 2 0.5897 16.352910 37.634811 11.925497
3306 23 1 -1.1794 20.095225 37.048107 11.887500
3307 23 2 0.5897 20.668354 37.277355 12.657015
3308 23 2 0.5897 20.679541 37.315988 11.139635
3309 23 1 -1.1794 15.567275 46.164393 11.887500
3310 23 2 0.5897 15.757086 47.114877 11.991847
3311 23 2 0.5897 16.433834 45.730958 11.999636
3312 23 1 -1.1794 20.095225 46.164393 11.887500
3313 23 2 0.5897 20.009784 47.140758 11.804074
3314 23 2 0.5897 20.575217 45.939357 11.060137
3315 23 1 -1.1794 21.511025 41.606250 16.445643
3316 23 2 0.5897 21.700835 41.710598 17.396127
3317 23 2 0.5897 22.377584 41.718385 16.012208
3318 23 1 -1.1794 14.151475 41.606250 16.445643
3319 23 2 0.5897 14.066031 41.522824 17.422008
3320 23 2 0.5897 14.631467 40.778887 16.220608
3321 23 1 -1.1794 21.511025 41.606250 19.216857
3322 23 2 0.5897 21.012738 42.409478 19.491333
3323 23 2 0.5897 22.296660 41.644243 19.803561
3324 23 1 -1.1794 14.151475 41.606250 19.216857
3325 23 2 0.5897 14.724602 42.375767 19.446105
3326 23 2 0.5897 14.735793 40.858386 19.484739
3327 23 1 -1.1794 17.831250 42.991857 14.151475
3328 23 2 0.5897 17.072622 43.343606 14.675593
3329 23 2 0.5897 18.590624 43.276622 14.723575
3330 23 1 -1.1794 17.831250 42.991857 21.511025
3331 23 2 0.5897 17.866750 43.595706 22.290318
3332 23 2 0.5897 18.629737 43.278002 21.010342
3333 23 1 -1.1794 17.831250 40.220643 14.151475
3334 23 2 0.5897 18.036764 41.188742 14.218161
3335 23 2 0.5897 17.051778 40.306661 13.573181
3336 23 1 -1.1794 17.831250 40.220643 21.511025
3337 23 2 0.5897 17.786883 41.188213 21.683144
3338 23 2 0.5897 17.812692 39.828692 22.409389
3339 23 1 -1.1794 19.216857 45.286025 17.831250
3340 23 2 0.5897 18.248976 45.427384 17.736590
3341 23 2 0.5897 19.585820 46.188218 17.731822
3342 23 1 -1.1794 19.216857 37.926475 17.831250
3343 23 2 0.5897 19.548088 38.476785 18.578003
3344 23 2 0.5897 19.545958 38.445699 17.060206
3345 23 1 -1.1794 16.445643 45.286025 17.831250
3346 23 2 0.5897 15.860556 46.078729 17.837916
3347 23 2 0.5897 16.128088 44.807985 18.630514
3348 23 1 -1.1794 16.445643 37.926475 17.831250
3349 23 2 0.5897 16.249390 38.467872 18.630125
3350 23 2 0.5897 17.424678 37.835428 17.897742
3351 23 3 0.0 11.887500 35.662500 11.887500
3352 23 3 0.0 17.831250 41.606250 17.831250
3353 23 3 0.0 11.887500 38.634375 17.831250
3354 23 3 0.0 11.887500 44.578125 17.831250
3355 23 3 0.0 17.831250 35.662500 14.859375
3356 23 3 0.0 17.831250 35.662500 20.803125
3357 23 3 0.0 14.859375 41.606250 11.887500
3358 23 3 0.0 20.803125 41.606250 11.887500
3359 24 1 -1.1794 11.887500 41.606250 26.746875
3360 24 2 0.5897 11.897156 42.408882 26.176692
3361 24 2 0.5897 12.706706 41.741305 27.275477
3362 24 1 -1.1794 11.887500 41.606250 32.690625
3363 24 2 0.5897 12.168567 42.470936 33.052971
3364 24 2 0.5897 12.610734 41.475273 32.029920
3365 24 1 -1.1794 14.859375 35.662500 29.718750
3366 24 2 0.5897 14.296866 35.775295 30.516859
3367 24 2 0.5897 15.393904 36.488596 29.730505
3368 24 1 -1.1794 20.803125 35.662500 29.718750
3369 24 2 0.5897 20.240617 36.460610 29.831546
3370 24 2 0.5897 21.337653 35.674253 30.544848
3371 24 1 -1.1794 17.831250 38.634375 23.775000
3372 24 2 0.5897 18.112323 38.996727 24.639683
3373 24 2 0.5897 18.554485 37.973672 23.644021
3374 24 1 -1.1794 17.831250 44.578125 23.775000
3375 24 2 0.5897 17.840909 44.007941 24.577632
3376 24 2 0.5897 18.650455 45.106727 23.910054
3377 24 1 -1.1794 14.083240 37.858240 25.970740
3378 24 2 0.5897 13.818243 37.065281 26.496735
3379 24 2 0.5897 14.595546 38.370572 26.637811
3380 24 1 -1.1794 21.579260 45.354260 25.970740
3381 24 2 0.5897 21.865888 46.179281 26.423501
3382 24 2 0.5897 21.004218 45.706314 25.255933
3383 24 1 -1.1794 21.579260 37.858240 33.466760
3384 24 2 0.5897 21.041781 38.444808 32.879938
3385 24 2 0.5897 22.340371 38.444832 33.680926
3386 24 1 -1.1794 14.083240 45.354260 33.466760
3387 24 2 0.5897 13.321015 44.851365 33.825449
3388 24 2 0.5897 14.541573 45.612280 34.308970
3389 24 1 -1.1794 20.026990 43.801990 27.523010
3390 24 2 0.5897 19.942952 44.269415 28.376005
3391 24 2 0.5897 20.732952 44.306810 27.069149
3392 24 1 -1.1794 15.635510 39.410510 27.523010
3393 24 2 0.5897 15.889865 38.847288 28.294697
3394 24 2 0.5897 16.527481 39.633336 27.185372
3395 24 1 -1.1794 20.026990 39.410510 31.914490
3396 24 2 0.5897 19.240636 39.773445 32.384681
3397 24 2 0.5897 20.454714 40.235492 31.585198
3398 24 1 -1.1794 15.635510 43.801990 31.914490
3399 24 2 0.5897 15.123113 44.394046 32.517287
3400 24 2 0.5897 16.378956 43.531971 32.500499
3401 24 1 -1.1794 21.579260 45.354260 33.466760
3402 24 2 0.5897 21.833637 46.125942 32.903541
3403 24 2 0.5897 22.471221 45.016596 33.689592
3404 24 1 -1.1794 14.083240 37.858240 33.466760
3405 24 2 0.5897 13.296885 38.328429 33.829694
3406 24 2 0.5897 14.510964 37.528947 34.291742
3407 24 1 -1.1794 14.083240 45.354260 25.970740
3408 24 2 0.5897 13.999203 46.207255 26.438166
3409 24 2 0.5897 14.789202 44.900398 26.475560
3410 24 1 -1.1794 21.579260 37.858240 25.970740
3411 24 2 0.5897 21.066861 38.461035 26.562796
3412 24 2 0.5897 22.322705 38.444250 25.700722
3413 24 1 -1.1794 15.635510 39.410510 31.914490
3414 24 2 0.5897 15.098031 38.823688 32.501058
3415 24 2 0.5897 16.396620 39.624677 32.501082
3416 24 1 -1.1794 20.026990 43.801990 31.914490
3417 24 2 0.5897 19.761994 44.327984 31.121530
3418 24 2 0.5897 20.539295 44.469063 32.426821
3419 24 1 -1.1794 15.635510 43.801990 27.523010
3420 24 2 0.5897 15.922137 44.254751 28.348031
3421 24 2 0.5897 15.060469 43.087181 27.875063
3422 24 1 -1.1794 20.026990 39.410510 27.523010
3423 24 2 0.5897 19.264769 39.769205 27.020111
3424 24 2 0.5897 20.485326 40.252718 27.781031
3425 24 1 -1.1794 11.887500 39.342275 25.160607
3426 24 2 0.5897 11.922998 40.121567 25.764457
3427 24 2 0.5897 12.685985 38.841590 25.446756
3428 24 1 -1.1794 11.887500 43.870225 25.160607
3429 24 2 0.5897 11.128869 44.394342 25.512352
3430 24 2 0.5897 12.646872 44.442326 25.445376
3431 24 1 -1.1794 11.887500 39.342275 34.276893
3432 24 2 0.5897 11.843132 39.514390 35.244464
3433 24 2 0.5897 11.868941 40.240641 33.884946
3434 24 1 -1.1794 11.887500 43.870225 34.276893
3435 24 2 0.5897 12.093029 43.936938 35.244986
3436 24 2 0.5897 11.108049 43.291897 34.362942
3437 24 1 -1.1794 13.273107 35.662500 27.454775
3438 24 2 0.5897 12.305226 35.567841 27.596134
3439 24 2 0.5897 13.642070 35.563072 28.356968
3440 24 1 -1.1794 13.273107 35.662500 31.982725
3441 24 2 0.5897 13.604336 36.409254 32.533036
3442 24 2 0.5897 13.602206 34.891457 32.501950
3443 24 1 -1.1794 22.389393 35.662500 27.454775
3444 24 2 0.5897 21.804308 35.669167 28.247479
3445 24 2 0.5897 22.071838 36.461764 26.976735
3446 24 1 -1.1794 22.389393 35.662500 31.982725
3447 24 2 0.5897 22.193138 36.461373 32.524125
3448 24 2 0.5897 23.368428 35.728994 31.891678
3449 24 1 -1.1794 15.567275 37.048107 23.775000
3450 24 2 0.5897 15.068986 37.322580 24.578227
3451 24 2 0.5897 16.352910 37.634811 23.812997
3452 24 1 -1.1794 20.095225 37.048107 23.775000
3453 24 2 0.5897 20.668354 37.277355 24.544515
3454 24 2 0.5897 20.679541 37.315988 23.027135
3455 24 1 -1.1794 15.567275 46.164393 23.775000
3456 24 2 0.5897 15.757086 47.114877 23.879347
3457 24 2 0.5897 16.433834 45.730958 23.887136
3458 24 1 -1.1794 20.095225 46.164393 23.775000
3459 24 2 0.5897 20.009784 47.140758 23.691574
3460 24 2 0.5897 20.575217 45.939357 22.947637
3461 24 1 -1.1794 21.511025 41.606250 28.333143
3462 24 2 0.5897 21.700835 41.710598 29.283627
3463 24 2 0.5897 22.377584 41.718385 27.899708
3464 24 1 -1.1794 14.151475 41.606250 28.333143
3465 24 2 0.5897 14.066031 41.522824 29.309508
3466 24 2 0.5897 14.631467 40.778887 28.108108
3467 24 1 -1.1794 21.511025 41.606250 31.104357
3468 24 2 0.5897 21.012738 42.409478 31.378833
3469 24 2 0.5897 22.296660 41.644243 31.691061
3470 24 1 -1.1794 14.151475 41.606250 31.104357
3471 24 2 0.5897 14.724602 42.375767 31.333605
3472 24 2 0.5897 14.735793 40.858386 31.372239
3473 24 1 -1.1794 17.831250 42.991857 26.038975
3474 24 2 0.5897 17.072622 43.343606 26.563093
3475 24 2 0.5897 18.590624 43.276622 26.611075
3476 24 1 -1.1794 17.831250 42.991857 33.398525
3477 24 2 0.5897 17.866750 43.595706 34.177818
3478 24 2 0.5897 18.629737 43.278002 32.897842
3479 24 1 -1.1794 17.831250 40.220643 26.038975
3480 24 2 0.5897 18.036764 41.188742 26.105661
3481 24 2 0.5897 17.051778 40.306661 25.460681
3482 24 1 -1.1794 17.831250 40.220643 33.398525
3483 24 2 0.5897 17.786883 41.188213 33.570644
3484 24 2 0.5897 17.812692 39.828692 34.296889
3485 24 1 -1.1794 19.216857 45.286025 29.718750
3486 24 2 0.5897 18.248976 45.427384 29.624090
3487 24 2 0.5897 19.585820 46.188218 29.619322
3488 24 1 -1.1794 19.216857 37.926475 29.718750
3489 24 2 0.5897 19.548088 38.476785 30.465503
3490 24 2 0.5897 19.545958 38.445699 28.947706
3491 24 1 -1.1794 16.445643 45.286025 29.718750
3492 24 2 0.5897 15.860556 46.078729 29.725416
3493 24 2 0.5897 16.128088 44.807985 30.518014
3494 24 1 -1.1794 16.445643 37.926475 29.718750
3495 24 2 0.5897 16.249390 38.467872 30.517625
3496 24 2 0.5897 17.424678 37.835428 29.785242
3497 24 3 0.0 11.887500 35.662500 23.775000
3498 24 3 0.0 17.831250 41.606250 29.718750
3499 24 3 0.0 11.887500 38.634375 29.718750
3500 24 3 0.0 11.887500 44.578125 29.718750
3501 24 3 0.0 17.831250 35.662500 26.746875
3502 24 3 0.0 17.831250 35.662500 32.690625
3503 24 3 0.0 14.859375 41.606250 23.775000
3504 24 3 0.0 20.803125 41.606250 23.775000
3505 25 1 -1.1794 1.174587 78.419412 7.195608
3506 25 2 0.5897 0.661173 78.128955 6.388118
3507 25 2 0.5897 1.982928 78.933862 6.909381
3508 26 1 -1.1794 1.501389 82.413737 12.508319
3509 26 2 0.5897 0.898590 82.515665 13.299675
3510 26 2 0.5897 1.875366 81.486453 12.491431
3511 27 1 -1.1794 12.877874 96.141726 19.763766
3512 27 2 0.5897 12.442733 96.941267 20.177756
3513 27 2 0.5897 12.609528 95.319180 20.265173
3514 28 1 -1.1794 11.164379 63.986959 25.218045
3515 28 2 0.5897 12.153018 64.136907 25.228444
3516 28 2 0.5897 10.760966 64.477458 24.445602
3517 29 1 -1.1794 18.080702 79.083324 21.515956
3518 29 2 0.5897 17.971483 79.264733 22.493280
3519 29 2 0.5897 18.158680 79.949761 21.022797
3520 30 1 -1.1794 10.596898 89.334135 15.154774
3521 30 2 0.5897 10.192117 88.512637 14.753159
3522 30 2 0.5897 11.533819 89.137080 15.443474
3523 31 1 -1.1794 3.164098 54.177459 18.630628
3524 31 2 0.5897 3.833418 54.026611 17.903128
3525 31 2 0.5897 3.169791 53.397032 19.255849
3526 32 1 -1.1794 16.945284 59.253953 31.283180
3527 32 2 0.5897 16.330760 58.660009 31.802402
3528 32 2 0.5897 17.514508 59.779170 31.915738
3529 33 1 -1.1794 15.079882 68.245595 2.912997
3530 33 2 0.5897 15.011611 68.977681 2.235215
3531 33 2 0.5897 14.275373 67.655209 2.848116
3532 34 1 -1.1794 8.579538 79.473271 24.432496
3533 34 2 0.5897 9.017693 80.219300 23.931038
3534 34 2 0.5897 7.906700 79.025715 23.843444
3535 35 1 -1.1794 3.446281 89.754540 27.933289
3536 35 2 0.5897 3.677138 90.529579 27.345054
3537 35 2 0.5897 2.993637 89.047215 27.390330
3538 36 1 -1.1794 11.732354 68.039218 11.007798
3539 36 2 0.5897 11.354885 67.428928 11.704262
3540 36 2 0.5897 12.345384 67.523336 10.409417
3541 37 1 -1.1794 3.442908 55.466281 23.739978
3542 37 2 0.5897 3.744406 56.076898 24.472266
3543 37 2 0.5897 4.027798 54.655411 23.720142
3544 38 1 -1.1794 0.735141 84.239934 23.858022
3545 38 2 0.5897 1.711766 84.025767 23.839670
3546 38 2 0.5897 0.429819 84.322669 24.806670
3547 39 1 -1.1794 19.936409 66.323605 7.998741
3548 39 2 0.5897 20.832578 66.488376 8.410727
3549 39 2 0.5897 19.233135 66.349358 8.709193
3550 40 1 -1.1794 3.058726 80.516650 32.905190
3551 40 2 0.5897 2.268777 79.989616 32.591796
3552 40 2 0.5897 3.892703 79.983375 32.763412
3553 41 1 -1.1794 9.524058 78.863893 10.207608
3554 41 2 0.5897 8.700855 78.674093 10.742690
3555 41 2 0.5897 9.926429 78.002320 9.898109
3556 42 1 -1.1794 4.803513 86.262906 29.135811
3557 42 2 0.5897 3.935401 86.631109 29.468690
3558 42 2 0.5897 4.997910 85.397862 29.598314
3559 43 1 -1.1794 14.133764 57.145850 5.737183
3560 43 2 0.5897 15.094608 56.920097 5.576512
3561 43 2 0.5897 13.607761 56.302941 5.850431
3562 44 1 -1.1794 9.525191 62.159869 6.412858
3563 44 2 0.5897 9.252700 61.391166 5.834200
3564 44 2 0.5897 9.819861 62.922488 5.837027
3565 45 1 -1.1794 5.635654 52.255597 22.796068
3566 45 2 0.5897 6.266462 51.553291 23.125989
3567 45 2 0.5897 6.140556 53.100338 22.618624
3568 46 1 -1.1794 5.072099 82.231719 26.260305
3569 46 2 0.5897 4.722594 81.812127 27.098034
3570 46 2 0.5897 6.065653 82.124573 26.223278
3571 47 1 -1.1794 4.096415 95.376791 1.180403
3572 47 2 0.5897 3.264090 95.024624 0.752369
3573 47 2 0.5897 4.531110 96.038443 0.569456
3574 48 1 -1.1794 20.389037 50.365995 5.868259
3575 48 2 0.5897 20.378037 50.986479 6.652401
3576 48 2 0.5897 19.492868 50.373588 5.424612
3577 49 1 -1.1794 0.807400 62.477467 27.550003
3578 49 2 0.5897 -0.000006 62.879567 27.981756
3579 49 2 0.5897 0.883257 62.810156 26.610022
3580 50 1 -1.1794 17.736750 55.878713 3.218278
3581 50 2 0.5897 17.614572 55.583418 2.270716
3582 50 2 0.5897 17.105294 56.627973 3.417959
3583 51 1 -1.1794 4.426893 52.417050 27.462597
3584 51 2 0.5897 4.990633 52.491584 26.640014
3585 51 2 0.5897 5.017322 52.314549 28.263151
3586 52 1 -1.1794 19.375724 52.380684 12.606928
3587 52 2 0.5897 19.407084 53.061461 11.875109
3588 52 2 0.5897 18.542642 51.834615 12.518704
3589 53 1 -1.1794 3.444665 86.558787 12.404826
3590 53 2 0.5897 3.229469 87.489519 12.700509
3591 53 2 0.5897 3.322706 85.928809 13.171803
3592 54 1 -1.1794 3.941110 56.946821 21.563837
3593 54 2 0.5897 3.588163 57.369363 22.398634
3594 54 2 0.5897 4.225146 56.008232 21.759728
3595 55 1 -1.1794 21.080548 77.366784 11.007879
3596 55 2 0.5897 21.086431 78.016142 10.247419
3597 55 2 0.5897 21.625464 76.564215 10.765085
3598 56 1 -1.1794 6.022045 77.079436 15.899025
3599 56 2 0.5897 5.102208 77.070952 15.506817
3600 56 2 0.5897 6.696050 76.955200 15.170820
3601 57 1 -1.1794 13.147096 63.393639 2.203564
3602 57 2 0.5897 13.953183 63.156125 2.745607
3603 57 2 0.5897 12.397652 63.648237 2.814722
3604 58 1 -1.1794 5.701495 68.294757 8.804853
3605 58 2 0.5897 4.898705 68.005350 8.283535
3606 58 2 0.5897 5.803030 67.712193 9.611271
3607 59 1 -1.1794 15.886955 53.190133 8.878149
3608 59 2 0.5897 15.199616 53.282581 8.157720
3609 59 2 0.5897 16.491837 53.986354 8.865882
3610 60 1 -1.1794 -0.002830 78.628755 24.057474
3611 60 2 0.5897 0.008937 77.966119 24.806323
3612 60 2 0.5897 0.330939 79.511478 24.388226
3613 61 1 -1.1794 7.286472 72.087577 23.703685
3614 61 2 0.5897 6.881052 71.940730 24.605943
3615 61 2 0.5897 7.311285 73.067299 23.504868
3616 62 1 -1.1794 17.205362 50.741785 19.407600
3617 62 2 0.5897 16.283508 50.652648 19.030453
3618 62 2 0.5897 17.255927 50.259008 20.281882
3619 63 1 -1.1794 4.242084 92.002139 0.344400
3620 63 2 0.5897 3.261586 91.999080 0.540907
3621 63 2 0.5897 4.751610 92.145709 1.192793
3622 64 1 -1.1794 20.818754 59.633948 22.574730
3623 64 2 0.5897 21.614892 59.570157 23.176475
3624 64 2 0.5897 20.131501 58.965560 22.859232
3625 65 1 -1.1794 3.388693 50.154610 9.253830
3626 65 2 0.5897 3.153409 51.122622 9.340977
3627 65 2 0.5897 2.572217 49.634377 9.003384
3628 66 1 -1.1794 19.849703 55.800582 30.029501
3629 66 2 0.5897 20.518252 56.080866 29.340673
3630 66 2 0.5897 19.071200 55.362857 29.579691
3631 67 1 -1.1794 0.610304 80.662500 21.471478
3632 67 2 0.5897 0.000001 79.874569 21.389658
3633 67 2 0.5897 0.756130 80.872175 22.438313
3634 68 1 -1.1794 14.132926 59.917858 22.798802
3635 68 2 0.5897 14.480083 60.325707 23.643279
3636 68 2 0.5897 13.216181 60.270301 22.610754
3637 69 1 -1.1794 0.796896 80.684532 18.846448
3638 69 2 0.5897 0.613018 81.664644 18.921070
3639 69 2 0.5897 0.934674 80.443446 17.885773
3640 70 1 -1.1794 1.943543 80.099033 0.735436
3641 70 2 0.5897 1.007288 79.887449 1.015896
3642 70 2 0.5897 2.442569 80.490784 1.508420
3643 71 1 -1.1794 6.635488 49.820313 12.076394
3644 71 2 0.5897 7.019840 50.385250 11.346243
3645 71 2 0.5897 7.374456 49.346067 12.554951
3646 72 1 -1.1794 11.002388 63.816938 10.175414
3647 72 2 0.5897 10.426937 63.839721 10.992933
3648 72 2 0.5897 11.246018 62.870041 9.965581
3649 73 1 -1.1794 5.075041 71.343774 27.417295
3650 73 2 0.5897 4.628045 70.613432 26.900773
3651 73 2 0.5897 5.390398 72.053035 26.786821
3652 74 1 -1.1794 2.717617 88.571380 29.718117
3653 74 2 0.5897 3.464209 88.872477 30.311363
3654 74 2 0.5897 1.969466 88.215760 30.278300
3655 75 1 -1.1794 9.763385 53.227318 23.651577
3656 75 2 0.5897 9.420637 54.128502 23.386264
3657 75 2 0.5897 9.349876 52.528391 23.068043
3658 76 1 -1.1794 7.957526 81.430840 5.654522
3659 76 2 0.5897 7.701584 81.070193 4.757623
3660 76 2 0.5897 8.656308 80.843534 6.062902
3661 77 1 -1.1794 0.720493 83.769285 19.946807
3662 77 2 0.5897 0.309923 83.180800 20.643311
3663 77 2 0.5897 -0.000220 84.265248 19.462460
3664 78 1 -1.1794 20.110434 72.165675 19.675203
3665 78 2 0.5897 20.291686 72.945096 20.274912
3666 78 2 0.5897 19.895769 71.361490 20.229464
3667 79 1 -1.1794 8.972595 58.546083 16.970278
3668 79 2 0.5897 8.772440 59.368353 17.503015
3669 79 2 0.5897 9.917931 58.264395 17.134569
3670 80 1 -1.1794 17.576587 73.035713 13.808185
3671 80 2 0.5897 17.067555 72.518223 14.496000
3672 80 2 0.5897 18.124289 73.740451 14.259148
3673 81 1 -1.1794 19.702743 98.242591 19.820878
3674 81 2 0.5897 19.095191 97.540811 20.192881
3675 81 2 0.5897 20.332869 98.550003 20.533927
3676 82 1 -1.1794 7.810609 68.652037 25.286397
3677 82 2 0.5897 8.519523 69.306176 25.550106
3678 82 2 0.5897 7.522282 68.833951 24.346304
3679 83 1 -1.1794 20.258283 80.810244 7.816708
3680 83 2 0.5897 20.731467 79.980960 8.114004
3681 83 2 0.5897 19.516342 80.565108 7.192662
3682 84 1 -1.1794 11.191426 75.752097 29.456141
3683 84 2 0.5897 10.627592 75.195506 30.066303
3684 84 2 0.5897 11.843886 76.282912 29.997001
3685 85 1 -1.1794 13.879078 81.239352 6.402481
3686 85 2 0.5897 14.744361 80.746955 6.308512
3687 85 2 0.5897 13.989793 81.985552 7.058932
3688 86 1 -1.1794 17.223269 52.868005 20.592567
3689 86 2 0.5897 18.137008 52.869812 20.186270
3690 86 2 0.5897 16.709170 53.658754 20.260274
3691 87 1 -1.1794 21.147463 59.897277 30.170378
3692 87 2 0.5897 20.412857 60.512194 29.883620
3693 87 2 0.5897 21.775580 59.749357 29.406448
3694 88 1 -1.1794 0.441088 89.448991 29.287869
3695 88 2 0.5897 -0.002676 88.866153 28.607153
3696 88 2 0.5897 -0.000338 89.319886 30.175830
3697 89 1 -1.1794 14.552485 93.695922 3.440490
3698 89 2 0.5897 13.888924 93.883068 4.164826
3699 89 2 0.5897 14.677135 92.707875 3.349798
3700 90 1 -1.1794 19.480119 96.792875 11.249344
3701 90 2 0.5897 19.937540 96.288778 11.981909
3702 90 2 0.5897 19.325819 97.737053 11.540410
3703 91 1 -1.1794 5.876697 68.579426 16.764117
3704 91 2 0.5897 5.632843 67.614309 16.859428
3705 91 2 0.5897 5.568332 68.914789 15.873924
3706 92 1 -1.1794 4.836769 77.589756 25.174564
3707 92 2 0.5897 4.411376 76.893256 25.752430
3708 92 2 0.5897 5.201433 78.322390 25.749252
3709 93 1 -1.1794 11.923007 54.529324 12.116853
3710 93 2 0.5897 12.861792 54.701609 11.818524
3711 93 2 0.5897 11.485787 55.395594 12.358544
3712 94 1 -1.1794 10.987855 68.926620 3.004873
3713 94 2 0.5897 10.723002 69.487252 2.220307
3714 94 2 0.5897 10.172430 68.511623 3.408433
3715 95 1 -1.1794 1.182626 88.356623 32.923469
3716 95 2 0.5897 1.559605 87.511024 32.545516
3717 95 2 0.5897 0.650176 88.827746 32.220233
3718 96 1 -1.1794 15.373617 77.744033 7.958481
3719 96 2 0.5897 15.226903 77.432683 7.019579
3720 96 2 0.5897 15.757958 78.667157 7.947308
3721 97 1 -1.1794 0.331181 69.454855 19.735760
3722 97 2 0.5897 -0.000449 68.820788 19.037205
3723 97 2 0.5897 1.331060 69.467531 19.726723
3724 98 1 -1.1794 1.116882 91.147374 12.218164
3725 98 2 0.5897 2.007336 90.791598 12.501917
3726 98 2 0.5897 0.911823 91.980580 12.731699
3727 99 1 -1.1794 3.707884 62.423571 2.468818
3728 99 2 0.5897 4.094037 63.283488 2.135010
3729 99 2 0.5897 2.716573 62.517045 2.561371
3730 100 1 -1.1794 11.949357 61.568306 3.374015
3731 100 2 0.5897 11.695853 60.608618 3.252625
3732 100 2 0.5897 12.792709 61.625259 3.908350
3733 101 1 -1.1794 2.778450 64.196851 26.369751
3734 101 2 0.5897 3.339585 63.827291 25.629107
3735 101 2 0.5897 1.960533 64.625643 25.986148
3736 102 1 -1.1794 19.411818 95.698181 15.842912
3737 102 2 0.5897 19.948664 94.924451 15.506552
3738 102 2 0.5897 19.849193 96.553360 15.564754
3739 103 1 -1.1794 14.089032 53.430668 5.873347
3740 103 2 0.5897 14.147325 54.228489 6.473417
3741 103 2 0.5897 14.024282 52.600797 6.427533
3742 104 1 -1.1794 4.893414 65.625667 4.324279
3743 104 2 0.5897 5.281495 65.650955 5.245557
3744 104 2 0.5897 4.478320 64.730494 4.161912
3745 105 1 -1.1794 2.457192 59.352804 16.342553
3746 105 2 0.5897 2.582608 58.436602 15.961967
3747 105 2 0.5897 3.148536 59.519169 17.045665
3748 106 1 -1.1794 3.912820 95.606517 13.165638
3749 106 2 0.5897 4.353202 95.767577 12.282392
3750 106 2 0.5897 3.083220 95.064739 13.030583
3751 107 1 -1.1794 17.452494 69.841946 7.248798
3752 107 2 0.5897 17.178411 70.758898 7.538758
3753 107 2 0.5897 16.686870 69.396294 6.784886
3754 108 1 -1.1794 6.543953 73.105969 12.783150
3755 108 2 0.5897 6.995238 72.456659 12.170991
3756 108 2 0.5897 6.136678 73.843760 12.244827
3757 109 1 -1.1794 11.341335 49.631237 14.775219
3758 109 2 0.5897 11.728533 48.781305 14.417878
3759 109 2 0.5897 10.343004 49.578296 14.752156
3760 110 1 -1.1794 16.548198 57.868890 15.550348
3761 110 2 0.5897 17.412344 57.418402 15.774650
3762 110 2 0.5897 15.810814 57.463213 16.090432
3763 111 1 -1.1794 16.135474 64.678808 31.883374
3764 111 2 0.5897 16.417088 63.975856 32.536484
3765 111 2 0.5897 15.160260 64.578874 31.685968
3766 112 1 -1.1794 -0.000559 97.488021 31.825254
3767 112 2 0.5897 0.504446 98.260017 32.211249
3768 112 2 0.5897 0.447074 97.183897 30.984342
3769 113 1 -1.1794 7.529869 96.457793 2.472690
3770 113 2 0.5897 8.482110 96.283097 2.222254
3771 113 2 0.5897 6.924699 96.023988 1.805170
3772 114 1 -1.1794 10.304013 92.721661 8.057734
3773 114 2 0.5897 10.431555 92.750093 9.049159
3774 114 2 0.5897 11.161485 92.452968 7.618934
3775 115 1 -1.1794 21.776860 82.890613 25.701394
3776 115 2 0.5897 20.988079 83.453393 25.948584
3777 115 2 0.5897 21.605103 82.443101 24.823765
3778 116 1 -1.1794 12.370032 74.388282 32.977282
3779 116 2 0.5897 11.499828 74.876805 32.913334
3780 116 2 0.5897 13.033507 74.806640 32.356977
3781 117 1 -1.1794 21.686199 94.715279 31.396021
3782 117 2 0.5897 21.776397 94.916566 30.420650
3783 117 2 0.5897 21.775434 95.561880 31.920715
3784 118 1 -1.1794 2.442103 68.907407 15.318483
3785 118 2 0.5897 2.046413 68.506258 14.492341
3786 118 2 0.5897 3.363493 69.240794 15.118748
3787 119 1 -1.1794 6.593793 71.171212 0.246248
3788 119 2 0.5897 6.300083 70.492345 0.919208
3789 119 2 0.5897 6.965247 71.970230 0.719103
3790 120 1 -1.1794 8.888224 83.998385 4.725717
3791 120 2 0.5897 8.846218 83.498914 5.591028
3792 120 2 0.5897 9.464332 84.808288 4.835978
3793 121 1 -1.1794 19.940653 82.212287 11.121708
3794 121 2 0.5897 19.355752 81.785563 10.431928
3795 121 2 0.5897 20.885569 81.913221 10.988693
3796 122 1 -1.1794 6.882643 84.391674 33.677413
3797 122 2 0.5897 7.844699 84.289592 33.424373
3798 122 2 0.5897 6.438589 85.030144 33.048786
3799 123 1 -1.1794 4.326560 55.271541 26.656026
3800 123 2 0.5897 4.013680 54.551042 26.037166
3801 123 2 0.5897 3.547593 55.833580 26.934096
3802 124 1 -1.1794 14.910222 76.648178 0.583702
3803 124 2 0.5897 14.572330 75.911212 -0.001712
3804 124 2 0.5897 15.270125 77.387505 0.014611
3805 125 1 -1.1794 15.331840 60.975225 13.277231
3806 125 2 0.5897 14.763639 60.170438 13.105578
3807 125 2 0.5897 15.652115 60.961232 14.224453
3808 126 1 -1.1794 9.326844 59.523997 24.827209
3809 126 2 0.5897 8.837236 58.838017 25.365462
3810 126 2 0.5897 8.995791 60.436052 25.069199
3811 127 1 -1.1794 21.782099 75.876147 14.369425
3812 127 2 0.5897 21.185826 75.617056 13.609603
3813 127 2 0.5897 21.736699 76.865694 14.506301
3814 128 1 -1.1794 20.170234 92.891928 30.387800
3815 128 2 0.5897 19.939618 93.783131 29.997194
3816 128 2 0.5897 20.186883 92.959462 31.385378
3817 129 1 -1.1794 12.125147 72.553987 25.950357
3818 129 2 0.5897 11.921615 73.367003 25.404848
3819 129 2 0.5897 13.020862 72.658262 26.382586
3820 130 1 -1.1794 1.574095 78.040933 22.225654
3821 130 2 0.5897 1.956618 78.897333 21.878875
3822 130 2 0.5897 0.732928 77.826437 21.729238
3823 131 1 -1.1794 14.771854 53.292059 3.634920
3824 131 2 0.5897 14.389676 52.667067 2.954240
3825 131 2 0.5897 15.761208 53.158195 3.692021
3826 132 1 -1.1794 0.526028 49.363819 5.475987
3827 132 2 0.5897 0.872367 50.062191 6.102346
3828 132 2 0.5897 0.265615 48.549899 5.995331
3829 133 1 -1.1794 13.710540 84.412444 15.226399
3830 133 2 0.5897 13.391905 83.508691 15.512237
3831 133 2 0.5897 13.116217 85.114735 15.618274
3832 134 1 -1.1794 -0.004190 94.682724 29.664892
3833 134 2 0.5897 0.152110 95.355144 28.941414
3834 134 2 0.5897 0.484942 94.962270 30.491091
3835 135 1 -1.1794 14.853821 66.806350 27.366312
3836 135 2 0.5897 15.085349 67.177660 28.265492
3837 135 2 0.5897 15.624430 66.938143 26.742780
3838 136 1 -1.1794 4.691377 91.937077 11.371781
3839 136 2 0.5897 4.020461 92.573785 10.991682
3840 136 2 0.5897 4.692841 91.094040 10.833927
3841 137 1 -1.1794 8.302660 95.218992 0.266928
3842 137 2 0.5897 7.406972 94.863661 -0.000437
3843 137 2 0.5897 8.752704 94.565030 0.875035
3844 138 1 -1.1794 0.370111 53.229106 16.657258
3845 138 2 0.5897 1.274420 53.222687 16.230428
3846 138 2 0.5897 0.353342 52.573861 17.412488
3847 139 1 -1.1794 5.672655 51.952726 8.352602
3848 139 2 0.5897 5.739481 51.071189 8.819962
3849 139 2 0.5897 4.711411 52.164161 8.175673
3850 140 1 -1.1794 9.046800 76.528052 19.279710
3851 140 2 0.5897 9.628633 76.089486 19.964640
3852 140 2 0.5897 8.732259 77.411818 19.626151
3853 141 1 -1.1794 6.702106 65.326039 28.818804
3854 141 2 0.5897 7.268182 66.136142 28.971417
3855 141 2 0.5897 6.980074 64.601536 29.449541
3856 142 1 -1.1794 0.709677 94.847641 26.207720
3857 142 2 0.5897 1.524881 95.426680 26.195207
3858 142 2 0.5897 -0.005640 95.290750 26.748070
3859 143 1 -1.1794 17.286696 53.402566 26.792969
3860 143 2 0.5897 17.809019 52.778496 27.374102
3861 143 2 0.5897 16.774366 54.041849 27.366410
3862 144 1 -1.1794 8.678564 49.578027 0.628040
3863 144 2 0.5897 8.095466 49.062977 -0.000227
3864 144 2 0.5897 9.307318 50.152551 0.104026
3865 145 1 -1.1794 12.774981 72.165245 6.892140
3866 145 2 0.5897 12.428374 71.262733 6.636534
3867 145 2 0.5897 13.271762 72.562334 6.120434
3868 146 1 -1.1794 11.981732 78.620665 14.082642
3869 146 2 0.5897 11.361018 78.828124 14.838734
3870 146 2 0.5897 11.688766 77.776982 13.632787
3871 147 1 -1.1794 0.002885 54.314183 29.958682
3872 147 2 0.5897 -0.000097 53.534507 30.584857
3873 147 2 0.5897 0.111110 55.160350 30.480495
3874 148 1 -1.1794 13.217333 90.786869 15.218443
3875 148 2 0.5897 13.678412 90.085841 15.762470
3876 148 2 0.5897 12.792998 91.456374 15.828117
3877 149 1 -1.1794 4.486452 94.048509 7.761373
3878 149 2 0.5897 4.790163 93.104585 7.890863
3879 149 2 0.5897 4.365296 94.484945 8.652914
3880 150 1 -1.1794 9.444410 72.226585 1.580517
3881 150 2 0.5897 10.360825 72.145687 1.972485
3882 150 2 0.5897 9.422084 71.774178 0.688985
3883 151 1 -1.1794 6.609455 61.024357 5.063637
3884 151 2 0.5897 6.099190 60.184826 5.250230
3885 151 2 0.5897 6.226449 61.474941 4.257237
3886 152 1 -1.1794 20.492817 56.613808 25.673783
3887 152 2 0.5897 21.257472 56.277708 26.223637
3888 152 2 0.5897 19.777936 56.966695 26.277452
3889 153 1 -1.1794 0.563598 58.507218 28.230991
3890 153 2 0.5897 0.066263 59.171951 28.788475
3891 153 2 0.5897 1.004565 57.836008 28.826831
3892 154 1 -1.1794 4.433732 73.800747 9.678254
3893 154 2 0.5897 5.135751 74.135225 10.306979
3894 154 2 0.5897 3.529329 73.953702 10.076576
3895 155 1 -1.1794 14.428702 55.071304 23.677180
3896 155 2 0.5897 13.752919 54.435247 23.304690
3897 155 2 0.5897 15.059836 55.348941 22.952896
3898 156 1 -1.1794 21.508335 80.125106 15.470387
3899 156 2 0.5897 21.541065 81.122933 15.527571
3900 156 2 0.5897 21.775279 79.834976 14.551385
3901 157 1 -1.1794 13.189581 70.517970 10.129793
3902 157 2 0.5897 13.228350 71.325081 10.718919
3903 157 2 0.5897 13.147466 69.694276 10.695262
3904 158 1 -1.1794 0.435978 92.392234 3.132140
3905 158 2 0.5897 -0.002940 92.762437 2.313422
3906 158 2 0.5897 1.383195 92.150136 2.921979
3907 159 1 -1.1794 8.442909 70.395590 2.276332
3908 159 2 0.5897 8.335818 69.500614 2.709403
3909 159 2 0.5897 7.688361 70.991406 2.551397
3910 160 1 -1.1794 20.699521 87.743450 4.038362
3911 160 2 0.5897 20.603474 87.418019 3.097687
3912 160 2 0.5897 19.793142 87.871070 4.441091
3913 161 1 -1.1794 11.579529 86.056072 20.361460
3914 161 2 0.5897 10.727926 86.490928 20.068760
3915 161 2 0.5897 11.823942 85.333200 19.715149
3916 162 1 -1.1794 6.378288 61.786935 12.371604
3917 162 2 0.5897 6.661645 61.734496 13.329183
3918 162 2 0.5897 7.088124 61.387286 11.791592
3919 163 1 -1.1794 17.264811 89.264655 5.822456
3920 163 2 0.5897 18.214268 89.175845 6.123528
3921 163 2 0.5897 17.067402 88.568252 5.132489
3922 164 1 -1.1794 18.410408 76.055405 16.342382
3923 164 2 0.5897 18.451740 75.545603 15.483084
3924 164 2 0.5897 17.457542 76.269314 16.557532
3925 165 1 -1.1794 13.679734 53.421136 10.227872
3926 165 2 0.5897 14.191239 52.567034 10.133678
3927 165 2 0.5897 13.390960 53.738078 9.324458
3928 166 1 -1.1794 21.775846 49.829518 19.235412
3929 166 2 0.5897 21.177795 50.591291 19.484483
3930 166 2 0.5897 21.458319 49.422754 18.378837
3931 167 1 -1.1794 16.618438 70.026669 0.998523
3932 167 2 0.5897 17.074264 69.740866 1.841459
3933 167 2 0.5897 16.768892 69.338750 0.288501
3934 168 1 -1.1794 18.591038 58.972745 13.482433
3935 168 2 0.5897 18.254949 58.936525 14.423566
3936 168 2 0.5897 18.912121 59.897584 13.278526
3937 169 1 -1.1794 18.501711 81.474102 29.167265
3938 169 2 0.5897 18.312438 80.642025 28.645897
3939 169 2 0.5897 18.394567 82.271316 28.573153
3940 170 1 -1.1794 10.645869 96.351944 33.672733
3941 170 2 0.5897 11.472280 96.768062 33.293403
3942 170 2 0.5897 9.990513 96.181658 32.936858
3943 171 1 -1.1794 11.989454 91.633473 32.963757
3944 171 2 0.5897 11.373469 91.418947 32.205773
3945 171 2 0.5897 11.490039 92.141429 33.665587
3946 172 1 -1.1794 19.843115 93.650082 18.582140
3947 172 2 0.5897 20.736427 93.257644 18.801195
3948 172 2 0.5897 19.895161 94.128633 17.705624
3949 173 1 -1.1794 16.375729 72.953267 7.844072
3950 173 2 0.5897 16.747256 73.641089 7.220480
3951 173 2 0.5897 15.601920 73.340857 8.345065
3952 174 1 -1.1794 2.128538 97.300929 1.653638
3953 174 2 0.5897 2.541737 98.175730 1.906600
3954 174 2 0.5897 2.546256 96.567526 2.189951
3955 175 1 -1.1794 3.608534 49.883576 7.078592
3956 175 2 0.5897 4.213939 50.593581 6.718903
3957 175 2 0.5897 4.156366 49.118824 7.417759
3958 176 1 -1.1794 17.542481 61.271309 6.794745
3959 176 2 0.5897 17.878529 61.870724 7.521226
3960 176 2 0.5897 17.570769 60.321563 7.106485
3961 177 1 -1.1794 7.939049 65.756786 13.918232
3962 177 2 0.5897 8.384716 65.861071 14.807336
3963 177 2 0.5897 7.018749 65.387701 14.047941
3964 178 1 -1.1794 17.336355 65.949624 3.091974
3965 178 2 0.5897 16.597803 66.568158 3.360221
3966 178 2 0.5897 16.947638 65.087095 2.768025
3967 179 1 -1.1794 13.398309 93.311593 7.717759
3968 179 2 0.5897 12.764822 93.776259 8.336451
3969 179 2 0.5897 13.363846 92.326092 7.883891
3970 180 1 -1.1794 6.984094 49.086934 6.534340
3971 180 2 0.5897 6.669263 50.030576 6.432258
3972 180 2 0.5897 6.274538 48.545808 6.985686
3973 181 1 -1.1794 5.544154 82.716091 31.734187
3974 181 2 0.5897 5.338175 83.532854 31.195234
3975 181 2 0.5897 6.200039 82.146522 31.238801
3976 182 1 -1.1794 17.449146 84.319213 2.171878
3977 182 2 0.5897 17.436072 84.847522 1.322926
3978 182 2 0.5897 17.288382 83.353881 1.966237
3979 183 1 -1.1794 12.772705 96.372363 1.670538
3980 183 2 0.5897 13.546529 96.084083 2.234534
3981 183 2 0.5897 13.063739 96.443199 0.716451
3982 184 1 -1.1794 0.764240 92.137689 24.511933
3983 184 2 0.5897 0.966820 91.390580 25.145011
3984 184 2 0.5897 0.689556 92.995077 25.021157
3985 185 1 -1.1794 16.805498 61.293085 11.028999
3986 185 2 0.5897 16.857303 62.159607 10.532556
3987 185 2 0.5897 16.295502 60.627056 10.484656
3988 186 1 -1.1794 21.601107 68.192967 6.188148
3989 186 2 0.5897 21.776603 67.327523 5.718885
3990 186 2 0.5897 21.696081 68.948698 5.540189
3991 187 1 -1.1794 18.939777 78.648313 27.948046
3992 187 2 0.5897 18.361898 78.445047 28.738450
3993 187 2 0.5897 18.834720 77.926551 27.263924
3994 188 1 -1.1794 1.233797 90.824777 4.780239
3995 188 2 0.5897 2.203585 90.913977 4.553182
3996 188 2 0.5897 1.044075 91.315483 5.630659
3997 189 1 -1.1794 17.645842 52.898540 18.042016
3998 189 2 0.5897 17.331703 52.103660 17.522899
3999 189 2 0.5897 18.192249 53.489503 17.448549
4000 190 1 -1.1794 8.626696 82.393117 16.773332
4001 190 2 0.5897 9.099292 81.825706 17.447644
4002 190 2 0.5897 8.620396 83.343805 17.083418
4003 191 1 -1.1794 9.343862 69.174475 33.202673
4004 191 2 0.5897 9.874876 68.371896 33.474505
4005 191 2 0.5897 8.474676 69.182155 33.697099
4006 192 1 -1.1794 5.486483 87.075715 16.677946
4007 192 2 0.5897 4.898814 87.694555 16.156713
4008 192 2 0.5897 5.006784 86.212070 16.832884
4009 193 1 -1.1794 19.099782 84.345108 18.074364
4010 193 2 0.5897 18.267992 83.935997 18.449536
4011 193 2 0.5897 19.822512 84.323903 18.765169
4012 194 1 -1.1794 10.968391 91.090716 28.609529
4013 194 2 0.5897 10.036564 91.190400 28.260587
4014 194 2 0.5897 11.096447 90.161981 28.957457
4015 195 1 -1.1794 15.384439 73.558720 2.408835
4016 195 2 0.5897 15.673966 73.559108 3.366004
4017 195 2 0.5897 14.460605 73.935255 2.339898
4018 196 1 -1.1794 11.561048 60.015197 19.079591
4019 196 2 0.5897 10.964536 60.114845 18.283197
4020 196 2 0.5897 11.413944 60.782105 19.704261
4021 197 1 -1.1794 7.005525 48.555015 9.060281
4022 197 2 0.5897 7.375359 49.418755 9.402591
4023 197 2 0.5897 6.012040 48.549396 9.174110
4024 198 1 -1.1794 4.242587 69.779072 18.496456
4025 198 2 0.5897 4.142490 70.549036 17.866268
4026 198 2 0.5897 4.474438 70.121516 19.406938
4027 199 1 -1.1794 3.858909 67.718589 19.182539
4028 199 2 0.5897 3.069177 67.137236 19.378375
4029 199 2 0.5897 4.330851 67.938431 20.036319
4030 200 1 -1.1794 14.651881 73.520876 10.975006
4031 200 2 0.5897 15.066770 74.318856 10.537863
4032 200 2 0.5897 14.938430 72.691480 10.495432
4033 201 1 -1.1794 1.319446 97.864043 28.786700
4034 201 2 0.5897 1.439942 98.461850 27.994168
4035 201 2 0.5897 1.802135 97.002271 28.630621
4036 202 1 -1.1794 15.554792 95.758234 18.275911
4037 202 2 0.5897 16.146275 96.093703 19.009129
4038 202 2 0.5897 14.666798 95.499472 18.656054
4039 203 1 -1.1794 0.146470 92.652988 27.166918
4040 203 2 0.5897 0.120191 93.387834 27.844642
4041 203 2 0.5897 0.069417 91.769861 27.629680
4042 204 1 -1.1794 7.181177 59.866326 26.386421
4043 204 2 0.5897 7.422705 60.820867 26.561111
4044 204 2 0.5897 6.219890 59.809727 26.116748
4045 205 1 -1.1794 13.968811 96.851974 5.039410
4046 205 2 0.5897 14.375519 96.147455 4.457824
4047 205 2 0.5897 13.284507 97.361037 4.517315
4048 206 1 -1.1794 7.051803 68.172249 4.667786
4049 206 2 0.5897 7.310893 69.137004 4.621747
4050 206 2 0.5897 6.784929 67.855003 3.757767
4051 207 1 -1.1794 0.506853 66.612442 1.508369
4052 207 2 0.5897 0.000000 66.661102 2.369026
4053 207 2 0.5897 0.785191 65.667108 1.338455
4054 208 1 -1.1794 3.901785 62.094814 14.690188
4055 208 2 0.5897 4.282525 61.907594 13.784657
4056 208 2 0.5897 3.955943 63.075468 14.878294
4057 209 1 -1.1794 16.495682 50.884093 25.380781
4058 209 2 0.5897 16.333957 51.522495 26.133302
4059 209 2 0.5897 17.437261 50.980796 25.058170
4060 210 1 -1.1794 14.461780 57.389066 18.614707
4061 210 2 0.5897 14.367297 56.424027 18.859190
4062 210 2 0.5897 14.055764 57.546132 17.714439
4063 211 1 -1.1794 15.589305 87.454035 19.703162
4064 211 2 0.5897 14.966285 87.998094 19.141161
4065 211 2 0.5897 16.279138 87.027257 19.118361
4066 212 1 -1.1794 19.324213 59.351802 8.573289
4067 212 2 0.5897 19.891461 59.773706 9.280556
4068 212 2 0.5897 18.375620 59.311017 8.887148
4069 213 1 -1.1794 16.821275 85.591356 26.911273
4070 213 2 0.5897 15.843961 85.581478 26.699704
4071 213 2 0.5897 16.948268 85.728220 27.893688
4072 214 1 -1.1794 15.381651 79.665888 20.468750
4073 214 2 0.5897 15.768185 79.475004 21.371055
4074 214 2 0.5897 14.594934 80.275597 20.565351
4075 215 1 -1.1794 20.172990 92.617670 22.757788
4076 215 2 0.5897 20.611067 92.641118 21.859157
4077 215 2 0.5897 19.319272 92.100261 22.699017
4078 216 1 -1.1794 7.638359 85.859801 0.930411
4079 216 2 0.5897 8.217174 85.160302 0.511278
4080 216 2 0.5897 6.839455 86.022231 0.351301
4081 217 1 -1.1794 1.827274 68.130862 22.507708
4082 217 2 0.5897 1.067019 68.764775 22.649717
4083 217 2 0.5897 2.299642 68.362107 21.657182
4084 218 1 -1.1794 9.559006 82.703102 14.648573
4085 218 2 0.5897 9.319621 82.033800 13.945202
4086 218 2 0.5897 8.865417 83.423044 14.673438
4087 219 1 -1.1794 19.480215 94.588847 22.068923
4088 219 2 0.5897 19.014891 95.344686 21.608291
4089 219 2 0.5897 19.853467 94.908434 22.939869
4090 220 1 -1.1794 4.567641 81.028433 2.245066
4091 220 2 0.5897 4.075333 80.563491 2.980907
4092 220 2 0.5897 5.543854 80.823454 2.315707
4093 221 1 -1.1794 10.972131 91.505195 14.552369
4094 221 2 0.5897 11.706450 91.817385 13.949615
4095 221 2 0.5897 10.161247 91.292359 14.007239
4096 222 1 -1.1794 21.096597 69.068343 25.686007
4097 222 2 0.5897 21.422581 69.638290 24.931756
4098 222 2 0.5897 20.133458 68.842009 25.540626
4099 223 1 -1.1794 18.172416 60.873999 15.766102
4100 223 2 0.5897 18.156699 60.043175 16.322414
4101 223 2 0.5897 19.018093 60.902330 15.233158
4102 224 1 -1.1794 1.014972 67.966072 11.100909
4103 224 2 0.5897 1.336767 67.579230 10.236732
4104 224 2 0.5897 0.026646 68.110942 11.053734
4105 225 1 -1.1794 11.282783 81.173555 14.439761
4106 225 2 0.5897 12.192575 81.566870 14.307167
4107 225 2 0.5897 11.030943 80.637106 13.634281
4108 226 1 -1.1794 0.082691 97.504679 11.640127
4109 226 2 0.5897 0.248475 97.558862 12.624800
4110 226 2 0.5897 -0.023860 98.427051 11.268810
4111 227 1 -1.1794 21.599911 83.924640 31.146216
4112 227 2 0.5897 21.021329 83.460242 31.816720
4113 227 2 0.5897 21.253775 84.849947 30.991302
4114 228 1 -1.1794 20.851878 65.050462 22.448526
4115 228 2 0.5897 20.474680 64.973820 23.371481
4116 228 2 0.5897 21.767986 65.448708 22.494859
4117 229 1 -1.1794 21.775048 88.053473 13.734209
4118 229 2 0.5897 21.118550 87.900431 14.472849
4119 229 2 0.5897 21.593095 87.412586 12.988450
4120 230 1 -1.1794 19.309903 49.844792 18.593597
4121 230 2 0.5897 19.344325 50.508311 17.846229
4122 230 2 0.5897 18.983101 48.966447 18.244726
4123 231 1 -1.1794 17.936429 88.262357 17.891210
4124 231 2 0.5897 18.650703 88.654433 17.311478
4125 231 2 0.5897 17.218104 87.870683 17.316230
4126 232 1 -1.1794 1.108331 83.798827 0.453574
4127 232 2 0.5897 0.356540 83.965293 1.091617
4128 232 2 0.5897 1.711345 83.093251 0.825777
4129 233 1 -1.1794 5.652699 61.989747 9.156087
4130 233 2 0.5897 5.075392 62.594823 9.704358
4131 233 2 0.5897 6.247649 61.459328 9.759984
4132 234 1 -1.1794 13.536354 92.714527 31.367080
4133 234 2 0.5897 14.427571 92.613141 30.924980
4134 234 2 0.5897 12.833464 92.280391 30.803635
4135 235 1 -1.1794 11.823199 54.001501 31.511791
4136 235 2 0.5897 11.634204 53.070558 31.199340
4137 235 2 0.5897 11.423181 54.136499 32.418301
4138 236 1 -1.1794 1.851779 94.369452 33.122814
4139 236 2 0.5897 2.588466 94.862636 33.585483
4140 236 2 0.5897 1.882992 94.566295 32.142876
4141 237 1 -1.1794 6.334790 78.327288 18.705336
4142 237 2 0.5897 6.313749 78.037419 19.662171
4143 237 2 0.5897 5.873554 77.643650 18.139739
4144 238 1 -1.1794 12.213117 78.270370 7.632711
4145 238 2 0.5897 12.904115 78.733962 7.078090
4146 238 2 0.5897 11.533121 77.847956 7.033401
4147 239 1 -1.1794 15.100910 60.191103 33.400387
4148 239 2 0.5897 15.090942 60.370400 32.416643
4149 239 2 0.5897 15.981713 59.793747 33.657861
4150 240 1 -1.1794 5.764717 97.666772 31.933758
4151 240 2 0.5897 5.937367 97.705981 30.949555
4152 240 2 0.5897 6.596106 97.374919 32.406637
4153 241 1 -1.1794 6.966364 51.548705 3.489384
4154 241 2 0.5897 7.670157 52.170489 3.832984
4155 241 2 0.5897 7.134161 50.628005 3.841743
4156 242 1 -1.1794 0.503636 57.414428 5.984611
4157 242 2 0.5897 1.380489 57.273123 6.444135
4158 242 2 0.5897 0.318080 56.642889 5.376091
4159 243 1 -1.1794 21.364180 70.135372 27.591221
4160 243 2 0.5897 20.561673 70.278500 28.170441
4161 243 2 0.5897 21.775018 69.248853 27.804047
4162 244 1 -1.1794 12.102126 88.042751 22.664226
4163 244 2 0.5897 11.487460 87.383323 22.231398
4164 244 2 0.5897 13.043253 87.855866 22.382525
4165 245 1 -1.1794 7.673516 48.548531 3.367781
4166 245 2 0.5897 8.308434 48.936234 2.699525
4167 245 2 0.5897 6.742043 48.591562 3.006523
4168 246 1 -1.1794 1.802470 54.231101 5.881163
4169 246 2 0.5897 1.329925 53.856659 5.083357
4170 246 2 0.5897 1.946416 55.212371 5.753140
4171 247 1 -1.1794 19.649498 74.585603 8.615829
4172 247 2 0.5897 20.285538 75.263757 8.984015
4173 247 2 0.5897 19.057572 75.018416 7.935906
4174 248 1 -1.1794 3.902498 79.388618 18.270265
4175 248 2 0.5897 4.711319 79.456070 17.686092
4176 248 2 0.5897 3.082372 79.563765 17.725548
4177 249 1 -1.1794 11.041354 62.169132 26.494238
4178 249 2 0.5897 10.486856 61.966421 27.301357
4179 249 2 0.5897 11.912687 61.682559 26.557679
4180 250 1 -1.1794 18.816900 65.250185 24.790975
4181 250 2 0.5897 19.460788 64.973688 25.504388
4182 250 2 0.5897 17.883827 65.044962 25.086369
4183 251 1 -1.1794 11.826135 84.544174 30.165068
4184 251 2 0.5897 12.291779 85.201618 29.572664
4185 251 2 0.5897 11.435623 83.811510 29.607659
4186 252 1 -1.1794 8.180883 84.888673 23.654264
4187 252 2 0.5897 8.779350 85.470674 23.103708
4188 252 2 0.5897 7.595494 85.461073 24.228439
4189 253 1 -1.1794 5.837830 67.719027 12.810715
4190 253 2 0.5897 6.643600 67.439224 13.332678
4191 253 2 0.5897 5.318868 68.394057 13.335132
4192 254 1 -1.1794 1.462374 97.640348 6.294540
4193 254 2 0.5897 0.943831 98.300311 6.838197
4194 254 2 0.5897 1.939586 97.007756 6.904537
4195 255 1 -1.1794 9.422011 88.055337 24.247439
4196 255 2 0.5897 8.895348 87.224403 24.426813
4197 255 2 0.5897 9.555465 88.159120 23.261833
4198 256 1 -1.1794 16.569316 98.380410 22.701408
4199 256 2 0.5897 15.631678 98.550058 23.004812
4200 256 2 0.5897 16.722227 97.395024 22.626362
4201 257 1 -1.1794 8.007875 93.743952 31.895858
4202 257 2 0.5897 7.011265 93.780764 31.969424
4203 257 2 0.5897 8.377488 94.673067 31.907333
4204 258 1 -1.1794 7.686619 91.670369 19.273447
4205 258 2 0.5897 7.000242 92.397615 19.273943
4206 258 2 0.5897 7.592739 91.122875 20.104974
4207 259 1 -1.1794 3.565243 71.298921 30.071674
4208 259 2 0.5897 3.440958 72.287305 29.984213
4209 259 2 0.5897 4.273195 71.110954 30.752463
4210 260 1 -1.1794 17.652158 66.627015 23.051597
4211 260 2 0.5897 16.778971 66.853608 22.620087
4212 260 2 0.5897 18.351377 66.508065 22.346656
4213 261 1 -1.1794 5.664060 80.967767 20.228524
4214 261 2 0.5897 5.712283 80.464098 19.365974
4215 261 2 0.5897 4.762286 81.390702 20.317572
4216 262 1 -1.1794 13.957066 79.422485 8.971892
4217 262 2 0.5897 13.963698 80.194599 8.336443
4218 262 2 0.5897 14.572767 79.614471 9.736125
4219 263 1 -1.1794 16.902035 87.211488 33.669545
4220 263 2 0.5897 15.944135 86.926294 33.636500
4221 263 2 0.5897 17.150875 87.644784 32.803327
4222 264 1 -1.1794 1.066659 54.722732 14.634001
4223 264 2 0.5897 0.295271 54.549735 14.021601
4224 264 2 0.5897 1.899311 54.334430 14.239145
4225 265 1 -1.1794 12.819653 69.172809 31.455662
4226 265 2 0.5897 13.270176 69.706687 32.171206
4227 265 2 0.5897 11.831945 69.322739 31.499863
4228 266 1 -1.1794 5.018609 53.866905 13.813948
4229 266 2 0.5897 5.082324 53.018948 14.340169
4230 266 2 0.5897 4.085854 53.976824 13.470601
4231 267 1 -1.1794 8.873170 72.447597 16.185618
4232 267 2 0.5897 9.165939 72.699420 17.108045
4233 267 2 0.5897 9.516455 71.785707 15.800798
4234 268 1 -1.1794 21.170789 49.645381 23.102338
4235 268 2 0.5897 21.432369 48.881256 23.691990
4236 268 2 0.5897 21.488379 50.502790 23.507289
4237 269 1 -1.1794 21.576144 53.088666 32.738654
4238 269 2 0.5897 21.440051 54.072867 32.625399
4239 269 2 0.5897 21.778190 52.675748 31.850579
4240 270 1 -1.1794 16.135740 49.937919 3.831187
4241 270 2 0.5897 16.112438 49.615128 2.885003
4242 270 2 0.5897 15.631845 50.798760 3.902191
4243 271 1 -1.1794 12.269824 92.032767 1.115260
4244 271 2 0.5897 13.024278 92.362311 1.682888
4245 271 2 0.5897 11.647146 91.484784 1.673818
4246 272 1 -1.1794 20.985130 48.905485 27.012146
4247 272 2 0.5897 21.549695 49.711736 26.835438
4248 272 2 0.5897 20.631525 48.550045 26.146914
4249 273 1 -1.1794 0.243325 85.544938 21.235188
4250 273 2 0.5897 0.883342 85.388031 21.987358
4251 273 2 0.5897 -0.000407 86.514200 21.201637
4252 274 1 -1.1794 2.330169 52.376679 7.710961
4253 274 2 0.5897 2.592901 52.078048 6.793468
4254 274 2 0.5897 1.469589 52.883710 7.662782
4255 275 1 -1.1794 12.706745 62.117710 24.552867
4256 275 2 0.5897 13.273844 62.163284 23.730479
4257 275 2 0.5897 11.798941 61.773612 24.313099
4258 276 1 -1.1794 12.240139 68.263880 6.383107
4259 276 2 0.5897 11.527222 68.835426 5.976800
4260 276 2 0.5897 12.217043 67.355340 5.965948
4261 277 1 -1.1794 13.242047 83.160149 12.169095
4262 277 2 0.5897 13.085785 82.185018 12.326267
4263 277 2 0.5897 12.911569 83.681708 12.955708
4264 278 1 -1.1794 1.371592 60.953955 30.935580
4265 278 2 0.5897 2.113450 60.525545 31.451440
4266 278 2 0.5897 1.329990 60.556264 30.019004
4267 279 1 -1.1794 21.669279 64.471525 30.361227
4268 279 2 0.5897 21.761977 64.831477 31.289581
4269 279 2 0.5897 21.566387 63.477508 30.397876
4270 280 1 -1.1794 18.896248 64.809594 6.788157
4271 280 2 0.5897 19.047217 63.838615 6.973653
4272 280 2 0.5897 19.001269 64.982094 5.808763
4273 281 1 -1.1794 0.402488 94.495736 12.809475
4274 281 2 0.5897 -0.000911 94.092358 11.988162
4275 281 2 0.5897 0.004418 95.399472 12.966963
4276 282 1 -1.1794 6.144167 85.859953 5.592887
4277 282 2 0.5897 6.013126 85.881742 6.584024
4278 282 2 0.5897 5.264430 85.995948 5.137291
4279 283 1 -1.1794 1.154330 61.195635 6.617313
4280 283 2 0.5897 1.547937 61.605569 5.794497
4281 283 2 0.5897 1.696938 60.399564 6.885357
4282 284 1 -1.1794 9.972489 80.098600 26.086166
4283 284 2 0.5897 10.010708 81.042464 26.414284
4284 284 2 0.5897 10.168780 79.474582 26.842520
4285 285 1 -1.1794 10.626417 64.620827 16.826578
4286 285 2 0.5897 11.029135 65.486447 17.124102
4287 285 2 0.5897 11.226043 64.188215 16.153305
4288 286 1 -1.1794 17.806366 80.949976 31.305208
4289 286 2 0.5897 17.752981 80.128327 30.737720
4290 286 2 0.5897 17.734305 80.694440 32.269318
4291 287 1 -1.1794 21.665740 60.227468 17.132465
4292 287 2 0.5897 21.775028 61.109409 16.673951
4293 287 2 0.5897 21.775029 59.489680 16.466337
4294 288 1 -1.1794 17.618869 59.009393 11.509091
4295 288 2 0.5897 17.031587 58.581633 10.821981
4296 288 2 0.5897 18.256498 59.635064 11.059685
4297 289 1 -1.1794 14.280831 54.998354 1.759727
4298 289 2 0.5897 15.020763 55.611797 2.035749
4299 289 2 0.5897 13.472486 55.536962 1.522072
4300 290 1 -1.1794 13.340384 98.567089 9.148011
4301 290 2 0.5897 13.882492 98.391825 8.326183
4302 290 2 0.5897 13.126303 97.699753 9.597340
4303 291 1 -1.1794 16.453215 59.810561 19.015578
4304 291 2 0.5897 16.111452 59.025053 18.499657
4305 291 2 0.5897 15.841645 60.590043 18.879966
4306 292 1 -1.1794 7.017877 53.203528 25.229254
4307 292 2 0.5897 7.689427 53.359741 24.504949
4308 292 2 0.5897 6.141175 52.948262 24.821537
4309 293 1 -1.1794 12.650703 84.644384 32.808160
4310 293 2 0.5897 12.084633 83.832378 32.950326
4311 293 2 0.5897 12.152187 85.303891 32.245548
4312 294 1 -1.1794 21.626349 83.505979 22.441891
4313 294 2 0.5897 20.877003 83.635529 21.792509
4314 294 2 0.5897 21.774909 84.352759 22.952668
4315 295 1 -1.1794 16.770717 95.613650 26.330279
4316 295 2 0.5897 16.107427 95.121379 25.766618
4317 295 2 0.5897 17.417727 96.095544 25.739385
4318 296 1 -1.1794 21.163065 59.566504 32.777204
4319 296 2 0.5897 21.775212 58.955068 32.275783
4320 296 2 0.5897 20.487476 59.024967 33.277521
4321 297 1 -1.1794 11.141700 75.048418 16.705467
4322 297 2 0.5897 11.963791 75.149833 17.265718
4323 297 2 0.5897 10.346323 74.927829 17.299465
4324 298 1 -1.1794 9.766622 85.327673 29.150752
4325 298 2 0.5897 9.374765 84.409898 29.086431
4326 298 2 0.5897 9.226041 85.960507 28.596412
4327 299 1 -1.1794 17.770860 78.159336 7.218352
4328 299 2 0.5897 17.736809 79.153638 7.117339
4329 299 2 0.5897 17.644690 77.728989 6.324549
4330 300 1 -1.1794 14.552789 76.030353 28.032914
4331 300 2 0.5897 14.393151 75.680318 28.955948
4332 300 2 0.5897 15.531661 76.002130 27.830401
4333 301 1 -1.1794 8.425264 80.816490 12.346711
4334 301 2 0.5897 8.633399 81.009749 11.387894
4335 301 2 0.5897 8.003800 79.912666 12.420676
4336 302 1 -1.1794 2.222940 61.178040 13.180006
4337 302 2 0.5897 1.878486 60.419667 13.733380
4338 302 2 0.5897 2.863440 60.827899 12.496514
4339 303 1 -1.1794 5.142767 90.826102 3.081015
4340 303 2 0.5897 5.992760 90.968420 2.573809
4341 303 2 0.5897 4.472606 90.377976 2.489350
4342 304 1 -1.1794 13.376163 90.350795 23.953350
4343 304 2 0.5897 13.641306 89.566638 24.514418
4344 304 2 0.5897 13.070336 90.030842 23.056634
4345 305 1 -1.1794 2.313946 94.537581 29.074625
4346 305 2 0.5897 3.296730 94.400421 29.198411
4347 305 2 0.5897 2.071143 94.366217 28.119805
4348 306 1 -1.1794 21.015805 56.176471 9.379107
4349 306 2 0.5897 21.775003 55.836009 8.824396
4350 306 2 0.5897 20.685425 57.039900 8.997871
4351 307 1 -1.1794 10.142334 55.681432 18.853438
4352 307 2 0.5897 9.573942 56.389666 18.434709
4353 307 2 0.5897 9.685499 55.326398 19.669068
4354 308 1 -1.1794 7.918733 50.119442 23.358495
4355 308 2 0.5897 8.427822 50.739038 23.955931
4356 308 2 0.5897 7.312218 49.547398 23.910677
4357 309 1 -1.1794 10.884870 62.546910 21.556802
4358 309 2 0.5897 10.362799 63.221687 22.078450
4359 309 2 0.5897 11.265120 61.864519 22.181103
4360 310 1 -1.1794 14.025497 83.474050 21.069703
4361 310 2 0.5897 13.424814 84.052015 20.517312
4362 310 2 0.5897 14.610300 82.930044 20.467985
4363 311 1 -1.1794 3.597949 90.729232 17.668675
4364 311 2 0.5897 3.297253 89.890916 18.123436
4365 311 2 0.5897 3.286982 91.522412 18.192282
4366 312 1 -1.1794 6.987153 95.921489 9.007169
4367 312 2 0.5897 6.480260 95.212052 8.517518
4368 312 2 0.5897 6.388343 96.353876 9.681311
4369 313 1 -1.1794 2.992256 61.336158 19.529134
4370 313 2 0.5897 2.656808 60.881554 18.704022
4371 313 2 0.5897 3.703931 61.993591 19.281545
4372 314 1 -1.1794 9.937704 97.973970 -0.003389
4373 314 2 0.5897 10.754838 98.550406 0.000272
4374 314 2 0.5897 9.121858 98.552230 0.000046
4375 315 1 -1.1794 10.923398 92.188471 4.390536
4376 315 2 0.5897 10.050923 92.393343 4.834174
4377 315 2 0.5897 11.669886 92.335099 5.039578
4378 316 1 -1.1794 1.800435 63.990221 23.508044
4379 316 2 0.5897 1.087077 64.509650 23.037604
4380 316 2 0.5897 1.404492 63.159854 23.900114
4381 317 1 -1.1794 18.297980 85.076523 20.923218
4382 317 2 0.5897 19.243789 84.762105 20.842052
4383 317 2 0.5897 17.987018 85.429054 20.040594
4384 318 1 -1.1794 13.727018 78.419425 1.280750
4385 318 2 0.5897 14.023152 77.960911 2.118645
4386 318 2 0.5897 13.072662 77.838691 0.796429
4387 319 1 -1.1794 21.593874 67.400652 29.128699
4388 319 2 0.5897 21.775313 66.470409 29.447646
4389 319 2 0.5897 21.775977 68.048183 29.868660
4390 320 1 -1.1794 6.639867 82.121351 15.212778
4391 320 2 0.5897 5.983709 81.563293 15.720742
4392 320 2 0.5897 7.480059 81.598794 15.067824
4393 321 1 -1.1794 3.762955 60.285697 3.806385
4394 321 2 0.5897 4.340701 59.469864 3.831404
4395 321 2 0.5897 3.029944 60.195836 4.480640
4396 322 1 -1.1794 11.778628 75.386661 4.657702
4397 322 2 0.5897 12.206786 74.619562 4.179956
4398 322 2 0.5897 11.001960 75.720393 4.123465
4399 323 1 -1.1794 10.457433 95.936421 1.282655
4400 323 2 0.5897 10.850732 95.989574 0.364782
4401 323 2 0.5897 10.581842 96.811810 1.749792
4402 324 1 -1.1794 1.574132 88.860496 20.596385
4403 324 2 0.5897 1.153507 88.379958 21.365902
4404 324 2 0.5897 2.179859 89.577229 20.941911
4405 325 1 -1.1794 21.022284 50.401993 15.202994
4406 325 2 0.5897 20.286505 51.078549 15.172982
4407 325 2 0.5897 21.774792 50.701696 14.616556
4408 326 1 -1.1794 18.898527 79.185622 9.036713
4409 326 2 0.5897 19.372766 79.615392 9.805085
4410 326 2 0.5897 19.063775 78.199496 9.052496
4411 327 1 -1.1794 13.383933 80.470724 4.400828
4412 327 2 0.5897 13.007238 79.625440 4.779767
4413 327 2 0.5897 14.259513 80.276553 3.958498
4414 328 1 -1.1794 0.754519 63.604486 13.883026
4415 328 2 0.5897 0.308201 63.471959 14.768033
4416 328 2 0.5897 1.247564 64.474487 13.885331
4417 329 1 -1.1794 3.364328 91.059509 30.099435
4418 329 2 0.5897 2.873675 91.896170 29.856005
4419 329 2 0.5897 4.217497 91.010361 29.580121
4420 330 1 -1.1794 -0.000347 57.853326 31.014502
4421 330 2 0.5897 0.730369 57.176694 31.105186
4422 330 2 0.5897 0.399361 58.765570 30.924812
4423 331 1 -1.1794 6.851056 75.783363 5.052962
4424 331 2 0.5897 5.977044 75.337586 4.859611
4425 331 2 0.5897 6.753542 76.375223 5.853083
4426 332 1 -1.1794 7.514312 64.655275 12.033556
4427 332 2 0.5897 6.804180 63.951519 12.012565
4428 332 2 0.5897 8.397933 64.231341 12.232287
4429 333 1 -1.1794 16.265162 93.719669 12.234700
4430 333 2 0.5897 16.896511 94.440055 12.521829
4431 333 2 0.5897 15.534164 94.118361 11.680907
4432 334 1 -1.1794 14.760436 77.430604 19.563064
4433 334 2 0.5897 14.611034 77.540387 18.580400
4434 334 2 0.5897 14.103033 76.771656 19.928589
4435 335 1 -1.1794 14.519734 66.260326 24.220729
4436 335 2 0.5897 14.398304 65.382763 24.684560
4437 335 2 0.5897 15.456477 66.582648 24.357187
4438 336 1 -1.1794 14.607677 56.294190 12.462449
4439 336 2 0.5897 15.098198 57.032374 12.925561
4440 336 2 0.5897 14.419928 55.558876 13.113650
4441 337 1 -1.1794 13.479590 72.270014 18.564106
4442 337 2 0.5897 13.125731 73.188262 18.386330
4443 337 2 0.5897 12.952447 71.602157 18.038665
4444 338 1 -1.1794 21.511722 85.666795 33.672771
4445 338 2 0.5897 21.443544 86.112096 32.779989
4446 338 2 0.5897 21.620078 84.680794 33.546042
4447 339 1 -1.1794 7.260408 77.637214 12.399392
4448 339 2 0.5897 7.459745 77.908412 13.341048
4449 339 2 0.5897 7.094545 76.651687 12.364371
4450 340 1 -1.1794 10.566626 54.390113 17.124463
4451 340 2 0.5897 9.840357 53.895989 17.602350
4452 340 2 0.5897 11.438829 53.922967 17.269503
4453 341 1 -1.1794 17.821261 84.039424 29.749488
4454 341 2 0.5897 18.533629 83.718038 30.373381
4455 341 2 0.5897 17.720406 85.030132 29.840741
4456 342 1 -1.1794 11.012179 71.563155 9.415647
4457 342 2 0.5897 10.183231 71.569902 8.856362
4458 342 2 0.5897 11.814720 71.631160 8.822939
4459 343 1 -1.1794 6.230567 63.533077 3.323994
4460 343 2 0.5897 6.696049 64.418112 3.317791
4461 343 2 0.5897 6.287016 63.120406 2.414864
4462 344 1 -1.1794 7.658868 87.120649 16.190347
4463 344 2 0.5897 7.767926 87.975473 16.697675
4464 344 2 0.5897 7.561074 86.361370 16.833722
4465 345 1 -1.1794 20.808717 75.516245 18.769152
4466 345 2 0.5897 20.052363 75.087348 19.263092
4467 345 2 0.5897 21.362155 76.051910 19.406936
4468 346 1 -1.1794 18.087436 59.300674 25.005630
4469 346 2 0.5897 18.551913 59.688168 24.209320
4470 346 2 0.5897 17.858308 58.344164 24.825105
4471 347 1 -1.1794 10.221536 55.729950 27.359747
4472 347 2 0.5897 9.357428 56.209064 27.513910
4473 347 2 0.5897 10.339370 55.022542 28.056661
4474 348 1 -1.1794 8.782008 82.673711 27.588585
4475 348 2 0.5897 8.838153 82.180845 28.456877
4476 348 2 0.5897 8.136543 82.208824 26.982568
4477 349 1 -1.1794 18.010649 49.169575 16.281815
4478 349 2 0.5897 18.903446 49.477711 15.953234
4479 349 2 0.5897 17.459291 48.859488 15.507315
4480 350 1 -1.1794 16.709101 74.256626 16.093342
4481 350 2 0.5897 16.910170 73.423369 16.608369
4482 350 2 0.5897 15.908643 74.707555 16.488221
4483 351 1 -1.1794 21.523792 88.440863 19.292630
4484 351 2 0.5897 21.251873 89.231915 18.744637
4485 351 2 0.5897 21.777314 87.686867 18.686646
4486 352 1 -1.1794 4.421243 95.612323 6.217812
4487 352 2 0.5897 4.326249 96.419518 5.635221
4488 352 2 0.5897 4.501702 94.796025 5.645813
4489 353 1 -1.1794 4.222351 57.922067 5.390341
4490 353 2 0.5897 4.656190 58.593730 5.990885
4491 353 2 0.5897 3.240325 58.104246 5.340993
4492 354 1 -1.1794 21.314563 75.210789 6.207304
4493 354 2 0.5897 20.856599 74.521161 6.768269
4494 354 2 0.5897 21.774999 75.871019 6.800680
4495 355 1 -1.1794 16.538859 63.473275 12.803560
4496 355 2 0.5897 16.163917 63.726938 11.911891
4497 355 2 0.5897 17.166764 62.702717 12.694127
4498 356 1 -1.1794 3.077529 84.551450 5.756417
4499 356 2 0.5897 3.095978 84.265483 4.798356
4500 356 2 0.5897 2.281153 84.150036 6.208802
4501 357 1 -1.1794 18.896529 97.932535 5.362843
4502 357 2 0.5897 19.730897 98.180156 5.855300
4503 357 2 0.5897 18.754419 96.944549 5.423570
4504 358 1 -1.1794 14.390221 76.933577 22.533217
4505 358 2 0.5897 14.697241 77.617685 21.871601
4506 358 2 0.5897 13.994173 76.154337 22.047489
4507 359 1 -1.1794 8.066809 63.724452 10.117249
4508 359 2 0.5897 8.801052 64.060402 9.527312
4509 359 2 0.5897 7.286815 63.449709 9.554999
4510 360 1 -1.1794 14.726202 71.525225 2.930097
4511 360 2 0.5897 13.994734 70.889420 2.683710
4512 360 2 0.5897 15.562663 71.012331 3.123160
4513 361 1 -1.1794 12.584189 84.426824 4.298118
4514 361 2 0.5897 13.099374 84.820404 3.536751
4515 361 2 0.5897 12.775385 83.447153 4.358846
4516 362 1 -1.1794 15.849039 64.660611 19.287764
4517 362 2 0.5897 16.609288 65.099446 18.808761
4518 362 2 0.5897 15.271739 64.180375 18.627387
4519 363 1 -1.1794 20.087491 55.788473 3.101211
4520 363 2 0.5897 20.106622 56.332837 2.262581
4521 363 2 0.5897 20.449720 56.331040 3.859110
4522 364 1 -1.1794 12.476788 82.110299 2.186227
4523 364 2 0.5897 12.016821 82.979947 2.006939
4524 364 2 0.5897 12.188829 81.758331 3.076843
4525 365 1 -1.1794 10.142702 59.801990 0.572941
4526 365 2 0.5897 11.110267 59.960038 0.375863
4527 365 2 0.5897 9.583563 60.399880 -0.001420
4528 366 1 -1.1794 7.353396 94.105416 12.717669
4529 366 2 0.5897 7.854415 94.938551 12.483435
4530 366 2 0.5897 8.000327 93.356166 12.859459
4531 367 1 -1.1794 19.474729 70.799139 4.162767
4532 367 2 0.5897 18.873199 70.006900 4.265329
4533 367 2 0.5897 18.989248 71.525490 3.676227
4534 368 1 -1.1794 11.594199 97.034657 18.052823
4535 368 2 0.5897 11.027990 96.402315 18.581550
4536 368 2 0.5897 11.085700 97.879957 17.888822
4537 369 1 -1.1794 4.235998 72.715885 6.390140
4538 369 2 0.5897 4.868914 71.995546 6.106362
4539 369 2 0.5897 3.951481 72.556221 7.335421
4540 370 1 -1.1794 18.137124 75.157045 29.431524
4541 370 2 0.5897 18.852180 75.187013 30.129948
4542 370 2 0.5897 18.310719 74.393686 28.809313
4543 371 1 -1.1794 2.335848 77.312825 17.958551
4544 371 2 0.5897 2.633153 76.485175 18.434582
4545 371 2 0.5897 2.900060 77.449946 17.144387
4546 372 1 -1.1794 4.727982 93.599047 20.040222
4547 372 2 0.5897 4.068942 94.064766 20.630791
4548 372 2 0.5897 4.281568 93.336335 19.184829
4549 373 1 -1.1794 6.460384 61.427235 16.224352
4550 373 2 0.5897 5.952501 61.745971 17.024641
4551 373 2 0.5897 5.925807 61.604455 15.398023
4552 374 1 -1.1794 5.922588 80.238913 24.424197
4553 374 2 0.5897 5.114636 80.805160 24.587231
4554 374 2 0.5897 6.706535 80.826534 24.223876
4555 375 1 -1.1794 16.953812 79.393996 26.133431
4556 375 2 0.5897 16.832815 78.492119 26.548133
4557 375 2 0.5897 17.919675 79.533672 25.915259
4558 376 1 -1.1794 7.102928 66.490215 8.260583
4559 376 2 0.5897 7.989022 66.401818 8.715582
4560 376 2 0.5897 7.155756 67.205933 7.564195
4561 377 1 -1.1794 9.681581 82.049686 33.628390
4562 377 2 0.5897 9.787877 81.056062 33.665964
4563 377 2 0.5897 8.739860 82.274947 33.378551
4564 378 1 -1.1794 14.870676 91.029200 29.204185
4565 378 2 0.5897 14.212447 91.558339 28.668698
4566 378 2 0.5897 15.668959 90.820553 28.639199
4567 379 1 -1.1794 10.002949 71.140894 6.703653
4568 379 2 0.5897 10.088403 70.499204 5.941465
4569 379 2 0.5897 10.377463 72.028537 6.435642
4570 380 1 -1.1794 3.369429 55.953642 15.487902
4571 380 2 0.5897 3.710025 55.019587 15.380499
4572 380 2 0.5897 3.464798 56.235485 16.442611
4573 381 1 -1.1794 5.187548 75.400609 32.265548
4574 381 2 0.5897 6.142905 75.500847 32.543478
4575 381 2 0.5897 4.961003 74.429140 32.195371
4576 382 1 -1.1794 15.860630 98.441443 16.985699
4577 382 2 0.5897 16.614493 98.549994 17.633702
4578 382 2 0.5897 15.258918 97.704930 17.294716
4579 383 1 -1.1794 12.855542 87.502718 14.558314
4580 383 2 0.5897 12.111545 86.947680 14.930338
4581 383 2 0.5897 12.771390 87.548868 13.562930
4582 384 1 -1.1794 4.991411 69.048706 3.311845
4583 384 2 0.5897 5.298182 69.770533 3.932213
4584 384 2 0.5897 4.948396 69.406815 2.379156
4585 385 1 -1.1794 3.344293 73.392934 1.318196
4586 385 2 0.5897 4.060489 74.031449 1.599909
4587 385 2 0.5897 2.933939 72.973857 2.128124
4588 386 1 -1.1794 14.473731 64.040698 21.526256
4589 386 2 0.5897 13.825054 63.571978 22.125856
4590 386 2 0.5897 14.301026 63.776861 20.577276
4591 387 1 -1.1794 5.530501 94.200595 24.795024
4592 387 2 0.5897 5.026538 93.823088 24.018164
4593 387 2 0.5897 6.496901 94.289627 24.553890
4594 388 1 -1.1794 8.026621 54.798618 31.861657
4595 388 2 0.5897 7.819783 54.520353 32.799626
4596 388 2 0.5897 8.065214 53.989803 31.274862
4597 389 1 -1.1794 1.445980 89.321181 10.964868
4598 389 2 0.5897 1.856848 89.386170 10.055493
4599 389 2 0.5897 1.745125 88.475110 11.406091
4600 390 1 -1.1794 0.026697 70.826298 12.768582
4601 390 2 0.5897 -0.004856 69.887090 12.426687
4602 390 2 0.5897 -0.008223 71.462826 11.998119
4603 391 1 -1.1794 14.837642 98.456648 20.282981
4604 391 2 0.5897 15.083870 98.550026 19.318277
4605 391 2 0.5897 15.279393 97.643766 20.662558
4606 392 1 -1.1794 14.600177 89.842922 9.758058
4607 392 2 0.5897 15.554099 89.844775 9.458008
4608 392 2 0.5897 13.999360 89.832919 8.958734
4609 393 1 -1.1794 7.703907 85.938018 19.068907
4610 393 2 0.5897 6.947736 86.515261 19.377121
4611 393 2 0.5897 8.222909 85.617396 19.861269
4612 394 1 -1.1794 20.145668 80.007584 12.277250
4613 394 2 0.5897 20.312905 80.574533 13.083849
4614 394 2 0.5897 20.979779 79.508840 12.041638
4615 395 1 -1.1794 15.876152 81.930124 8.190195
4616 395 2 0.5897 16.617765 82.512885 8.522458
4617 395 2 0.5897 16.034838 80.987945 8.485351
4618 396 1 -1.1794 11.945844 80.737402 19.096986
4619 396 2 0.5897 12.522954 80.368767 19.825720
4620 396 2 0.5897 11.165055 81.215166 19.499613
4621 397 1 -1.1794 11.775973 65.051671 30.006820
4622 397 2 0.5897 11.033708 64.783563 29.392686
4623 397 2 0.5897 12.461740 64.324525 30.038158
4624 398 1 -1.1794 0.240610 68.398249 7.304842
4625 398 2 0.5897 -0.000116 67.815052 8.080685
4626 398 2 0.5897 -0.003620 69.345664 7.511616
4627 399 1 -1.1794 16.525842 90.578792 14.392070
4628 399 2 0.5897 16.898625 91.499828 14.279255
4629 399 2 0.5897 15.591924 90.638081 14.744606
4630 400 1 -1.1794 17.119454 78.095030 18.767483
4631 400 2 0.5897 17.854990 78.724351 18.516603
4632 400 2 0.5897 17.401903 77.156381 18.569594
4633 401 1 -1.1794 0.825085 82.093954 25.666529
4634 401 2 0.5897 1.120482 81.368023 26.287628
4635 401 2 0.5897 -0.004951 82.521621 26.024498
4636 402 1 -1.1794 5.669821 57.196867 23.341659
4637 402 2 0.5897 5.262959 57.869822 23.959392
4638 402 2 0.5897 6.654156 57.142680 23.509434
4639 403 1 -1.1794 5.218556 70.004301 10.691995
4640 403 2 0.5897 5.861619 70.168508 9.943994
4641 403 2 0.5897 5.562729 69.265400 11.271279
4642 404 1 -1.1794 11.811461 85.009305 27.404622
4643 404 2 0.5897 11.919285 85.000413 26.410492
4644 404 2 0.5897 11.380023 85.866628 27.685441
4645 405 1 -1.1794 14.611805 56.167817 9.522204
4646 405 2 0.5897 14.911608 55.258044 9.809314
4647 405 2 0.5897 14.700871 56.805105 10.287666
4648 406 1 -1.1794 17.880992 87.694487 21.443354
4649 406 2 0.5897 17.407688 88.174809 20.704928
4650 406 2 0.5897 18.691453 87.236897 21.077614
4651 407 1 -1.1794 8.319918 52.256719 32.602316
4652 407 2 0.5897 8.491448 51.830000 31.714348
4653 407 2 0.5897 9.161044 52.682823 32.935397
4654 408 1 -1.1794 12.093439 53.623408 15.059098
4655 408 2 0.5897 11.851602 52.785415 14.569933
4656 408 2 0.5897 12.867032 53.443266 15.666637
4657 409 1 -1.1794 11.973281 61.775579 16.055522
4658 409 2 0.5897 11.109283 61.499126 16.476333
4659 409 2 0.5897 11.809785 62.049647 15.107811
4660 410 1 -1.1794 17.622864 48.951517 22.958102
4661 410 2 0.5897 16.997771 48.549974 22.288758
4662 410 2 0.5897 18.053673 49.764378 22.566105
4663 411 1 -1.1794 18.158267 97.548026 7.751678
4664 411 2 0.5897 17.736819 98.454774 7.737917
4665 411 2 0.5897 18.901024 97.535821 8.421129
4666 412 1 -1.1794 11.606208 57.079828 17.951608
4667 412 2 0.5897 11.944811 57.963385 18.275143
4668 412 2 0.5897 12.215472 56.353004 18.268664
4669 413 1 -1.1794 10.009472 74.844533 26.117853
4670 413 2 0.5897 9.136211 74.768712 25.636538
4671 413 2 0.5897 9.842223 75.061119 27.079684
4672 414 1 -1.1794 12.060624 71.077648 3.746222
4673 414 2 0.5897 12.464752 71.876214 4.192286
4674 414 2 0.5897 11.743757 70.432341 4.441330
4675 415 1 -1.1794 0.427232 59.645673 10.913962
4676 415 2 0.5897 0.616238 60.044753 11.811186
4677 415 2 0.5897 0.000000 60.333124 10.326693
4678 416 1 -1.1794 20.131952 73.759623 23.758412
4679 416 2 0.5897 19.606632 73.128977 23.187164
4680 416 2 0.5897 19.615711 73.965036 24.589857
4681 417 1 -1.1794 8.693241 88.388783 2.405334
4682 417 2 0.5897 7.793215 88.059502 2.119802
4683 417 2 0.5897 9.043739 87.806750 3.139083
4684 418 1 -1.1794 3.025755 84.005049 2.517515
4685 418 2 0.5897 2.149377 83.704096 2.893532
4686 418 2 0.5897 3.615477 83.211024 2.370028
4687 419 1 -1.1794 20.158745 83.889904 4.529157
4688 419 2 0.5897 20.020394 84.856812 4.314801
4689 419 2 0.5897 20.009385 83.740501 5.506588
4690 420 1 -1.1794 6.011281 97.496908 7.822416
4691 420 2 0.5897 6.106004 98.444609 7.517637
4692 420 2 0.5897 5.079355 97.181047 7.644242
4693 421 1 -1.1794 9.385097 52.089252 1.249548
4694 421 2 0.5897 10.176240 51.756782 1.762925
4695 421 2 0.5897 8.858526 52.719590 1.819984
4696 422 1 -1.1794 16.302773 55.827268 7.559964
4697 422 2 0.5897 15.307344 55.812767 7.465563
4698 422 2 0.5897 16.546186 56.150558 8.474422
4699 423 1 -1.1794 19.247893 90.126883 25.079213
4700 423 2 0.5897 19.254957 90.614623 25.952173
4701 423 2 0.5897 18.364848 90.261128 24.629534
4702 424 1 -1.1794 2.168766 62.519931 16.044143
4703 424 2 0.5897 2.818925 62.004688 16.602549
4704 424 2 0.5897 1.791028 61.923046 15.336300
4705 425 1 -1.1794 3.571487 58.461553 10.602357
4706 425 2 0.5897 3.762891 57.683886 11.201189
4707 425 2 0.5897 4.180008 59.219895 10.836064
4708 426 1 -1.1794 10.310572 94.275398 23.815408
4709 426 2 0.5897 9.933022 93.359641 23.678130
4710 426 2 0.5897 10.089146 94.592418 24.737617
4711 427 1 -1.1794 17.030845 52.130514 6.278639
4712 427 2 0.5897 16.190883 52.620975 6.046449
4713 427 2 0.5897 16.868319 51.550459 7.076838
4714 428 1 -1.1794 17.045929 98.437040 3.355579
4715 428 2 0.5897 16.504007 97.677854 2.995084
4716 428 2 0.5897 18.016122 98.196167 3.328980
4717 429 1 -1.1794 12.801668 55.185384 27.347773
4718 429 2 0.5897 13.766339 55.258572 27.600863
4719 429 2 0.5897 12.390439 56.096822 27.334662
4720 430 1 -1.1794 1.422785 62.186919 33.662068
4721 430 2 0.5897 1.817331 61.268925 33.621798
4722 430 2 0.5897 1.542467 62.640194 32.778769
4723 431 1 -1.1794 9.098755 49.762945 8.079852
4724 431 2 0.5897 9.882074 50.194082 8.527660
4725 431 2 0.5897 9.167854 48.769518 8.171103
4726 432 1 -1.1794 8.011998 50.605034 17.385482
4727 432 2 0.5897 8.703484 50.503554 16.670256
4728 432 2 0.5897 7.595046 51.511584 17.319769
4729 433 1 -1.1794 5.575716 84.673065 24.603046
4730 433 2 0.5897 4.974680 85.269962 25.134524
4731 433 2 0.5897 6.093631 84.083918 25.223264
4732 434 1 -1.1794 5.927506 55.193068 25.121509
4733 434 2 0.5897 5.787335 56.170020 25.282496
4734 434 2 0.5897 6.223055 55.049943 24.176964
4735 435 1 -1.1794 18.240600 65.126109 11.151090
4736 435 2 0.5897 17.900028 64.305729 10.691756
4737 435 2 0.5897 17.729972 65.269739 11.998811
4738 436 1 -1.1794 18.841547 83.684349 15.614998
4739 436 2 0.5897 19.672184 83.482589 16.133973
4740 436 2 0.5897 18.060120 83.721498 16.237888
4741 437 1 -1.1794 19.226833 67.251868 5.257178
4742 437 2 0.5897 19.910564 67.477952 4.563349
4743 437 2 0.5897 18.317780 67.500407 4.922737
4744 438 1 -1.1794 20.970363 90.100834 13.759383
4745 438 2 0.5897 20.145127 90.084402 14.323931
4746 438 2 0.5897 21.774954 90.183069 14.347491
4747 439 1 -1.1794 10.053944 53.152295 9.502241
4748 439 2 0.5897 9.732709 52.205913 9.468024
4749 439 2 0.5897 10.864381 53.250284 8.924668
4750 440 1 -1.1794 19.827089 90.921457 17.394350
4751 440 2 0.5897 19.523728 90.517367 16.531400
4752 440 2 0.5897 20.242992 91.813355 17.216746
4753 441 1 -1.1794 3.901824 80.116076 11.455754
4754 441 2 0.5897 3.944057 80.807905 12.176580
4755 441 2 0.5897 3.833685 79.207971 11.868916
4756 442 1 -1.1794 11.153059 83.619982 8.658562
4757 442 2 0.5897 11.587452 84.374315 8.166338
4758 442 2 0.5897 10.327070 83.336030 8.171620
4759 443 1 -1.1794 19.155146 89.765970 19.141665
4760 443 2 0.5897 19.228917 89.074053 19.859863
4761 443 2 0.5897 18.590041 90.524427 19.466317
4762 444 1 -1.1794 11.895988 64.463113 6.940589
4763 444 2 0.5897 12.028817 63.915808 6.114263
4764 444 2 0.5897 10.940352 64.404401 7.229229
4765 445 1 -1.1794 16.472363 81.906171 26.185729
4766 445 2 0.5897 16.831969 81.768141 27.108567
4767 445 2 0.5897 16.062306 82.815889 26.120402
4768 446 1 -1.1794 18.581574 71.621242 15.815994
4769 446 2 0.5897 18.839806 72.573098 15.981179
4770 446 2 0.5897 18.571455 71.123327 16.683161
4771 447 1 -1.1794 18.345181 49.363531 30.412152
4772 447 2 0.5897 17.829347 49.494364 29.565512
4773 447 2 0.5897 19.313808 49.239882 30.196576
4774 448 1 -1.1794 7.047248 54.992442 2.790936
4775 448 2 0.5897 7.185163 54.017716 2.615187
4776 448 2 0.5897 7.840380 55.358907 3.277396
4777 449 1 -1.1794 8.568401 82.457814 24.277887
4778 449 2 0.5897 9.470685 82.247089 24.654023
4779 449 2 0.5897 8.054593 83.010598 24.933960
4780 450 1 -1.1794 14.474156 51.255483 28.423459
4781 450 2 0.5897 14.920276 50.796998 27.654844
4782 450 2 0.5897 15.025636 52.038970 28.709847
4783 451 1 -1.1794 15.090324 50.666045 22.338648
4784 451 2 0.5897 15.272956 50.631032 21.356090
4785 451 2 0.5897 15.906794 50.379392 22.839854
4786 452 1 -1.1794 14.315087 70.799450 7.668412
4787 452 2 0.5897 15.106692 71.180600 8.145995
4788 452 2 0.5897 14.624230 70.133055 6.989922
4789 453 1 -1.1794 15.286129 57.658724 21.170768
4790 453 2 0.5897 14.552669 57.008716 20.971956
4791 453 2 0.5897 15.333410 58.341234 20.441423
4792 454 1 -1.1794 21.221288 89.072620 9.183895
4793 454 2 0.5897 21.775002 88.748629 9.950987
4794 454 2 0.5897 20.502878 89.679316 9.524199
4795 455 1 -1.1794 0.971118 56.645010 0.947482
4796 455 2 0.5897 0.113236 56.156932 1.108167
4797 455 2 0.5897 1.002043 56.961425 -0.000635
4798 456 1 -1.1794 18.049500 86.762384 2.215548
4799 456 2 0.5897 18.530620 86.681577 3.088471
4800 456 2 0.5897 17.062622 86.742735 2.375821
4801 457 1 -1.1794 2.250065 66.970869 27.308892
4802 457 2 0.5897 2.565625 66.710493 26.396408
4803 457 2 0.5897 2.430688 66.224616 27.949580
4804 458 1 -1.1794 11.683336 56.182527 31.023177
4805 458 2 0.5897 11.610617 55.711980 30.143804
4806 458 2 0.5897 11.614837 57.169792 30.879597
4807 459 1 -1.1794 0.024892 90.758226 21.326270
4808 459 2 0.5897 0.823578 91.352061 21.423531
4809 459 2 0.5897 -0.001340 90.107876 22.085453
4810 460 1 -1.1794 20.447731 57.926862 30.854322
4811 460 2 0.5897 20.375267 57.256524 31.592830
4812 460 2 0.5897 19.585241 57.961067 30.349406
4813 461 1 -1.1794 11.509668 88.707294 3.934256
4814 461 2 0.5897 11.291454 87.907044 3.375702
4815 461 2 0.5897 11.176272 89.532700 3.478677
4816 462 1 -1.1794 16.613227 56.722504 19.046003
4817 462 2 0.5897 16.609342 56.902344 18.062315
4818 462 2 0.5897 16.433066 55.752330 19.208186
4819 463 1 -1.1794 8.979990 66.287187 1.723681
4820 463 2 0.5897 8.836402 65.927938 2.645811
4821 463 2 0.5897 9.957847 66.428921 1.569704
4822 464 1 -1.1794 12.181933 82.274586 21.183825
4823 464 2 0.5897 12.493583 82.306375 22.133490
4824 464 2 0.5897 11.543536 83.026040 21.017192
4825 465 1 -1.1794 7.305000 50.785888 20.153053
4826 465 2 0.5897 6.976061 50.105881 20.808332
4827 465 2 0.5897 8.009901 50.376735 19.573649
4828 466 1 -1.1794 17.491225 80.893464 18.560174
4829 466 2 0.5897 18.435886 80.936175 18.885431
4830 466 2 0.5897 16.871932 80.828217 19.342618
4831 467 1 -1.1794 20.793005 94.290812 11.126201
4832 467 2 0.5897 20.006511 94.106065 11.715521
4833 467 2 0.5897 21.576527 94.554361 11.688904
4834 468 1 -1.1794 21.301465 93.756735 0.687714
4835 468 2 0.5897 20.504355 93.223851 0.971705
4836 468 2 0.5897 21.132826 94.727004 0.861322
4837 469 1 -1.1794 16.061749 90.691785 22.639320
4838 469 2 0.5897 15.233608 91.089271 23.034525
4839 469 2 0.5897 16.854738 90.962950 23.184882
4840 470 1 -1.1794 5.053581 56.951502 8.974124
4841 470 2 0.5897 4.408661 57.674625 8.726793
4842 470 2 0.5897 5.979373 57.327974 9.008437
4843 471 1 -1.1794 12.045997 58.362863 16.113698
4844 471 2 0.5897 11.923472 59.282584 16.486658
4845 471 2 0.5897 12.978803 58.265420 15.766742
4846 472 1 -1.1794 19.020070 82.468631 32.465086
4847 472 2 0.5897 18.353504 82.757178 33.152423
4848 472 2 0.5897 19.785691 82.009301 32.915464
4849 473 1 -1.1794 8.867475 55.414992 16.174634
4850 473 2 0.5897 8.638218 56.383545 16.077948
4851 473 2 0.5897 8.921726 54.993343 15.269499
4852 474 1 -1.1794 20.477411 87.609624 22.561178
4853 474 2 0.5897 20.103321 86.689031 22.673276
4854 474 2 0.5897 21.439505 87.548374 22.295429
4855 475 1 -1.1794 20.783671 69.220545 16.224210
4856 475 2 0.5897 20.329291 69.501870 15.378991
4857 475 2 0.5897 21.774494 69.292719 16.109929
4858 476 1 -1.1794 10.316627 76.877917 24.898115
4859 476 2 0.5897 10.230010 77.683360 24.311804
4860 476 2 0.5897 10.414632 76.060949 24.329821
4861 477 1 -1.1794 8.342421 55.795146 6.154179
4862 477 2 0.5897 9.001746 56.074944 5.456323
4863 477 2 0.5897 7.469766 55.574130 5.718718
4864 478 1 -1.1794 2.109128 59.388225 26.937362
4865 478 2 0.5897 2.705655 59.490293 27.733438
4866 478 2 0.5897 1.682954 60.267650 26.725258
4867 479 1 -1.1794 16.946618 65.535001 14.560440
4868 479 2 0.5897 17.461151 65.440345 15.412670
4869 479 2 0.5897 15.968476 65.575548 14.764389
4870 480 1 -1.1794 20.044333 80.182896 25.980354
4871 480 2 0.5897 20.588308 80.503530 25.204929
4872 480 2 0.5897 20.157526 80.811716 26.749621
4873 481 1 -1.1794 4.550699 75.582991 23.990839
4874 481 2 0.5897 4.344209 76.179129 23.214964
4875 481 2 0.5897 4.483764 74.627356 23.703994
4876 482 1 -1.1794 9.831245 69.151108 21.406735
4877 482 2 0.5897 8.900876 68.859219 21.184891
4878 482 2 0.5897 9.862881 70.148990 21.463573
4879 483 1 -1.1794 13.736590 61.327800 17.887821
4880 483 2 0.5897 14.466186 62.011102 17.915909
4881 483 2 0.5897 13.458627 61.098453 18.820632
4882 484 1 -1.1794 3.515811 98.427351 6.323843
4883 484 2 0.5897 4.467823 98.573802 6.055094
4884 484 2 0.5897 3.419134 98.583680 7.306805
4885 485 1 -1.1794 4.938930 56.195265 18.881353
4886 485 2 0.5897 5.713212 56.665031 19.305390
4887 485 2 0.5897 4.415033 55.714531 19.584508
4888 486 1 -1.1794 6.328641 54.124476 18.814746
4889 486 2 0.5897 5.527819 53.832742 19.337790
4890 486 2 0.5897 6.663854 53.359882 18.264265
4891 487 1 -1.1794 1.542504 67.119797 32.923935
4892 487 2 0.5897 2.401605 67.246448 32.428046
4893 487 2 0.5897 0.816936 66.881727 32.278278
4894 488 1 -1.1794 2.836730 92.570854 5.855592
4895 488 2 0.5897 2.799364 93.169081 6.656047
4896 488 2 0.5897 3.785656 92.309573 5.678755
4897 489 1 -1.1794 10.020373 58.004382 32.920702
4898 489 2 0.5897 10.359629 57.323823 33.570120
4899 489 2 0.5897 9.685216 58.803427 33.419900
4900 490 1 -1.1794 12.532187 78.592380 25.909302
4901 490 2 0.5897 11.721414 78.881675 25.400426
4902 490 2 0.5897 12.310004 77.788785 26.461452
4903 491 1 -1.1794 18.912747 86.675506 11.043025
4904 491 2 0.5897 18.292274 86.603165 11.823910
4905 491 2 0.5897 19.858391 86.609483 11.361455
4906 492 1 -1.1794 8.757004 69.810332 29.575295
4907 492 2 0.5897 9.229185 70.276398 30.323511
4908 492 2 0.5897 7.793770 70.078952 29.570368
4909 493 1 -1.1794 10.064418 63.916572 13.631933
4910 493 2 0.5897 10.156356 64.663674 14.290254
4911 493 2 0.5897 10.085851 63.041590 14.115614
4912 494 1 -1.1794 8.594591 50.994551 5.446181
4913 494 2 0.5897 8.695150 50.000913 5.496885
4914 494 2 0.5897 8.420746 51.359086 6.360999
4915 495 1 -1.1794 11.105086 89.506498 24.089614
4916 495 2 0.5897 10.776069 90.249716 24.672173
4917 495 2 0.5897 11.574356 88.825308 24.651545
4918 496 1 -1.1794 13.113417 85.929583 0.493535
4919 496 2 0.5897 13.049608 85.080882 1.018545
4920 496 2 0.5897 13.174613 86.705847 1.120966
4921 497 1 -1.1794 4.826386 86.944224 19.783250
4922 497 2 0.5897 5.082439 86.869863 20.747048
4923 497 2 0.5897 3.831087 87.003148 19.706385
4924 498 1 -1.1794 12.198494 51.439481 10.515768
4925 498 2 0.5897 11.816357 52.346948 10.690337
4926 498 2 0.5897 11.787430 51.058386 9.687642
4927 499 1 -1.1794 20.155198 62.964050 22.535546
4928 499 2 0.5897 20.859050 62.567895 21.945924
4929 499 2 0.5897 19.389609 63.279603 21.974922
4930 500 1 -1.1794 1.187752 55.935056 16.875553
4931 500 2 0.5897 0.379229 56.341395 17.301205
4932 500 2 0.5897 1.737335 55.476668 17.574008
4933 501 1 -1.1794 17.321017 53.725421 32.659791
4934 501 2 0.5897 17.984342 54.221347 33.220199
4935 501 2 0.5897 16.593426 53.366127 33.244186
4936 502 1 -1.1794 7.038165 89.188715 11.824811
4937 502 2 0.5897 6.466925 89.913507 11.439635
4938 502 2 0.5897 7.353914 89.460769 12.733816
4939 503 1 -1.1794 14.431141 70.602209 28.061312
4940 503 2 0.5897 14.580187 71.485644 27.617095
4941 503 2 0.5897 14.448615 69.876260 27.373785
4942 504 1 -1.1794 13.827712 72.057626 13.896273
4943 504 2 0.5897 13.788602 72.439472 12.972874
4944 504 2 0.5897 14.782752 71.956558 14.174992
4945 505 1 -1.1794 14.347024 88.216726 4.204510
4946 505 2 0.5897 14.075940 87.501354 3.560494
4947 505 2 0.5897 15.028281 88.810256 3.776013
4948 506 1 -1.1794 10.417542 87.050729 6.070834
4949 506 2 0.5897 10.450531 86.754828 5.116186
4950 506 2 0.5897 9.489287 87.346635 6.296187
4951 507 1 -1.1794 10.536823 83.196133 31.518880
4952 507 2 0.5897 10.014954 82.521124 30.997328
4953 507 2 0.5897 9.928284 83.666740 32.157793
4954 508 1 -1.1794 17.074270 72.514417 20.034814
4955 508 2 0.5897 17.746813 71.835135 20.328517
4956 508 2 0.5897 16.323884 72.056184 19.558428
4957 509 1 -1.1794 18.196429 59.757720 28.079879
4958 509 2 0.5897 19.072207 59.461292 28.460856
4959 509 2 0.5897 17.767532 58.994302 27.596929
4960 510 1 -1.1794 19.159776 98.150127 29.218108
4961 510 2 0.5897 19.838341 97.973079 29.930991
4962 510 2 0.5897 19.620838 98.249184 28.336286
4963 511 1 -1.1794 0.593168 65.841327 24.716032
4964 511 2 0.5897 0.173139 66.746036 24.787286
4965 511 2 0.5897 -0.001170 65.162955 25.147974
4966 512 1 -1.1794 14.592471 63.274350 33.545540
4967 512 2 0.5897 13.711916 63.732253 33.667799
4968 512 2 0.5897 14.509554 62.577091 32.833532
4969 513 1 -1.1794 10.523889 65.180610 3.974332
4970 513 2 0.5897 9.872766 64.731279 4.586003
4971 513 2 0.5897 11.456167 64.989841 4.281682
4972 514 1 -1.1794 10.684726 84.605694 13.917096
4973 514 2 0.5897 10.589982 85.423116 14.485292
4974 514 2 0.5897 11.039422 84.863718 13.018423
4975 515 1 -1.1794 16.162553 98.196715 6.174549
4976 515 2 0.5897 16.234737 97.206062 6.290286
4977 515 2 0.5897 15.463346 98.402227 5.489805
4978 516 1 -1.1794 19.400617 52.582038 4.190310
4979 516 2 0.5897 18.725971 52.366836 4.896383
4980 516 2 0.5897 19.037776 53.293376 3.588359
4981 517 1 -1.1794 13.058789 58.460396 33.641303
4982 517 2 0.5897 12.738921 59.188244 33.034737
4983 517 2 0.5897 13.611122 57.810306 33.119468
4984 518 1 -1.1794 1.487948 59.287166 22.725034
4985 518 2 0.5897 0.753091 58.817843 23.214648
4986 518 2 0.5897 2.363261 59.085149 23.164370
4987 519 1 -1.1794 11.745569 74.143463 -0.003343
4988 519 2 0.5897 11.134618 73.752315 0.684947
4989 519 2 0.5897 12.528285 74.570222 0.449683
4990 520 1 -1.1794 20.189430 84.840190 29.066568
4991 520 2 0.5897 20.212328 85.836581 28.984827
4992 520 2 0.5897 20.749451 84.433582 28.344733
4993 521 1 -1.1794 16.443010 91.833579 31.335992
4994 521 2 0.5897 16.693706 91.696647 30.377659
4995 521 2 0.5897 17.203435 92.265445 31.821013
4996 522 1 -1.1794 9.302474 77.215778 26.856578
4997 522 2 0.5897 8.707336 77.717219 26.228591
4998 522 2 0.5897 8.907781 77.233107 27.775228
4999 523 1 -1.1794 6.946020 54.919055 21.517875
5000 523 2 0.5897 6.354764 55.536455 22.036752
5001 523 2 0.5897 7.681442 54.587037 22.108569
5002 524 1 -1.1794 19.220217 92.773165 15.174990
5003 524 2 0.5897 19.995987 92.153270 15.057045
5004 524 2 0.5897 18.988883 93.188723 14.295333
5005 525 1 -1.1794 8.330398 65.317337 22.327425
5006 525 2 0.5897 7.898031 66.189756 22.555335
5007 525 2 0.5897 8.930015 65.036662 23.076879
5008 526 1 -1.1794 13.532531 65.413148 19.171898
5009 526 2 0.5897 13.014029 65.473301 20.024856
5010 526 2 0.5897 12.903116 65.266001 18.408888
5011 527 1 -1.1794 16.759593 93.391815 28.831592
5012 527 2 0.5897 17.198096 92.587563 28.430477
5013 527 2 0.5897 15.782979 93.213709 28.952024
5014 528 1 -1.1794 15.719137 51.293741 31.165966
5015 528 2 0.5897 16.033545 50.666490 31.878499
5016 528 2 0.5897 15.127878 50.802337 30.526486
5017 529 1 -1.1794 11.656330 71.168737 23.336564
5018 529 2 0.5897 12.205171 70.529209 23.874875
5019 529 2 0.5897 11.264557 71.862440 23.940956
5020 530 1 -1.1794 16.958174 64.793114 4.948390
5021 530 2 0.5897 16.894409 65.570258 5.574474
5022 530 2 0.5897 17.086710 63.951791 5.473418
5023 531 1 -1.1794 7.568789 96.403946 20.910604
5024 531 2 0.5897 7.838915 96.380884 19.948056
5025 531 2 0.5897 6.571454 96.435834 20.976234
5026 532 1 -1.1794 16.848736 82.816474 20.293797
5027 532 2 0.5897 16.597751 83.725340 19.960677
5028 532 2 0.5897 17.837888 82.693466 20.213503
5029 533 1 -1.1794 2.731155 83.185167 25.778918
5030 533 2 0.5897 2.905629 83.004545 26.746872
5031 533 2 0.5897 3.529849 83.629917 25.373596
5032 534 1 -1.1794 18.179737 67.886437 15.065856
5033 534 2 0.5897 18.701807 67.113631 14.705003
5034 534 2 0.5897 18.436197 68.719698 14.576055
5035 535 1 -1.1794 5.461197 67.786057 33.668285
5036 535 2 0.5897 4.776650 68.461593 33.394339
5037 535 2 0.5897 5.163705 66.875192 33.382237
5038 536 1 -1.1794 20.230834 75.472077 27.568958
5039 536 2 0.5897 20.374069 75.324427 28.547571
5040 536 2 0.5897 19.292409 75.779930 27.412160
5041 537 1 -1.1794 13.095614 59.532599 8.166577
5042 537 2 0.5897 12.555360 59.522770 9.008022
5043 537 2 0.5897 12.482996 59.581116 7.377689
5044 538 1 -1.1794 7.493104 95.161946 14.642025
5045 538 2 0.5897 6.507665 95.135029 14.474141
5046 538 2 0.5897 7.851702 96.057593 14.378922
5047 539 1 -1.1794 7.928055 60.548981 31.119836
5048 539 2 0.5897 7.983491 59.675017 30.637018
5049 539 2 0.5897 7.754628 61.282446 30.462605
5050 540 1 -1.1794 7.079690 91.435474 33.401664
5051 540 2 0.5897 6.916678 92.385577 33.667618
5052 540 2 0.5897 6.251832 90.897835 33.561650
5053 541 1 -1.1794 6.022246 77.041149 29.803073
5054 541 2 0.5897 5.193821 77.141909 29.252110
5055 541 2 0.5897 6.803841 76.873630 29.202201
5056 542 1 -1.1794 19.972490 95.961023 28.858522
5057 542 2 0.5897 19.273077 95.384569 28.436002
5058 542 2 0.5897 20.723609 96.100808 28.213324
5059 543 1 -1.1794 4.015813 69.006120 24.796427
5060 543 2 0.5897 3.427178 69.546141 25.397997
5061 543 2 0.5897 4.659992 68.476415 25.348193
5062 544 1 -1.1794 19.428726 86.752321 19.035910
5063 544 2 0.5897 19.782437 86.951109 18.121923
5064 544 2 0.5897 20.186184 86.503945 19.639704
5065 545 1 -1.1794 1.879948 77.366715 31.475814
5066 545 2 0.5897 2.258628 76.878655 30.689431
5067 545 2 0.5897 2.484000 77.248469 32.263938
5068 546 1 -1.1794 11.417591 72.666884 11.475660
5069 546 2 0.5897 11.395060 73.303380 10.704709
5070 546 2 0.5897 10.519084 72.642257 11.913927
5071 547 1 -1.1794 0.889209 92.360176 32.498154
5072 547 2 0.5897 -0.000815 92.724222 32.772613
5073 547 2 0.5897 1.271949 91.816946 33.245424
5074 548 1 -1.1794 21.784238 71.492318 16.128483
5075 548 2 0.5897 20.931022 71.910451 15.816735
5076 548 2 0.5897 21.763870 71.395527 17.123580
5077 549 1 -1.1794 0.347069 70.416026 10.096398
5078 549 2 0.5897 0.858981 69.818491 9.479228
5079 549 2 0.5897 0.127534 71.271043 9.626557
5080 550 1 -1.1794 9.532161 68.248538 12.836298
5081 550 2 0.5897 8.831270 67.643839 13.214571
5082 550 2 0.5897 9.741294 68.970168 13.496233
5083 551 1 -1.1794 16.232489 52.894208 24.407451
5084 551 2 0.5897 15.506800 53.155802 23.771099
5085 551 2 0.5897 17.100461 52.829974 23.915009
5086 552 1 -1.1794 1.597980 93.510419 8.724394
5087 552 2 0.5897 2.213814 92.722562 8.729783
5088 552 2 0.5897 2.091980 94.317407 8.400766
5089 553 1 -1.1794 7.999627 61.204425 2.977615
5090 553 2 0.5897 8.903646 61.101591 3.392554
5091 553 2 0.5897 7.548239 60.313028 2.936848
5092 554 1 -1.1794 12.124415 73.099366 16.431259
5093 554 2 0.5897 13.085711 73.072724 16.157032
5094 554 2 0.5897 11.550364 72.820108 15.661531
5095 555 1 -1.1794 19.000845 85.297229 27.229718
5096 555 2 0.5897 18.946880 86.186284 26.775110
5097 555 2 0.5897 19.204179 84.588977 26.553675
5098 556 1 -1.1794 3.019865 65.567384 14.596925
5099 556 2 0.5897 2.648037 66.201678 13.919123
5100 556 2 0.5897 2.427412 65.555367 15.402441
5101 557 1 -1.1794 4.373692 88.958599 11.492861
5102 557 2 0.5897 3.964226 88.929212 10.581009
5103 557 2 0.5897 3.807991 89.522803 12.094239
5104 558 1 -1.1794 12.869388 93.958572 28.035684
5105 558 2 0.5897 13.394220 94.525655 28.670482
5106 558 2 0.5897 13.225084 94.079080 27.108883
5107 559 1 -1.1794 6.541741 98.354164 5.359110
5108 559 2 0.5897 6.519313 97.534722 4.786387
5109 559 2 0.5897 7.486116 98.550870 5.622664
5110 560 1 -1.1794 18.905993 68.232691 7.617144
5111 560 2 0.5897 19.381578 68.722159 6.886226
5112 560 2 0.5897 18.227028 67.616165 7.218519
5113 561 1 -1.1794 13.295604 90.044151 1.935960
5114 561 2 0.5897 14.192141 89.602556 1.901089
5115 561 2 0.5897 13.118185 90.365285 2.866226
5116 562 1 -1.1794 6.711998 48.984447 25.950911
5117 562 2 0.5897 6.202568 48.549538 26.693430
5118 562 2 0.5897 7.609281 48.551610 25.864104
5119 563 1 -1.1794 20.121076 61.945007 24.812448
5120 563 2 0.5897 19.259366 61.783653 24.331385
5121 563 2 0.5897 20.201324 62.916451 25.035738
5122 564 1 -1.1794 8.129073 66.269534 26.838259
5123 564 2 0.5897 9.068203 66.080368 27.125054
5124 564 2 0.5897 7.608857 65.415779 26.816416
5125 565 1 -1.1794 4.467701 59.062078 14.898238
5126 565 2 0.5897 3.858811 59.834083 14.715858
5127 565 2 0.5897 5.384706 59.273708 14.560136
5128 566 1 -1.1794 12.157315 56.338209 23.232864
5129 566 2 0.5897 12.107004 57.336723 23.211937
5130 566 2 0.5897 11.995661 55.977008 22.314495
5131 567 1 -1.1794 14.837546 82.667258 4.351601
5132 567 2 0.5897 14.914735 83.521369 4.865932
5133 567 2 0.5897 15.545236 82.029707 4.656075
5134 568 1 -1.1794 5.835846 88.284514 32.936961
5135 568 2 0.5897 5.292222 88.919726 33.485575
5136 568 2 0.5897 6.639815 87.997850 33.457976
5137 569 1 -1.1794 19.272466 84.451625 10.512129
5138 569 2 0.5897 18.757465 83.838146 9.913449
5139 569 2 0.5897 19.001389 84.295592 11.461955
5140 570 1 -1.1794 8.483798 62.821611 23.152183
5141 570 2 0.5897 7.995742 62.809139 24.024906
5142 570 2 0.5897 7.877114 63.166411 22.435909
5143 571 1 -1.1794 19.566325 62.249100 1.088755
5144 571 2 0.5897 18.747498 62.451197 0.551467
5145 571 2 0.5897 20.160210 61.632389 0.572066
5146 572 1 -1.1794 16.484579 76.430274 32.167747
5147 572 2 0.5897 17.205238 77.012898 31.791981
5148 572 2 0.5897 16.067830 76.882316 32.956403
5149 573 1 -1.1794 16.824727 76.376480 22.986529
5150 573 2 0.5897 16.783486 77.260003 22.519961
5151 573 2 0.5897 16.339484 76.437200 23.858798
5152 574 1 -1.1794 18.386641 85.726717 24.358675
5153 574 2 0.5897 19.333334 85.945308 24.595299
5154 574 2 0.5897 18.190312 84.779167 24.610874
5155 575 1 -1.1794 8.360062 66.914613 20.302899
5156 575 2 0.5897 9.173075 66.701145 20.844602
5157 575 2 0.5897 8.407965 66.435033 19.426710
5158 576 1 -1.1794 3.383279 87.572849 22.698218
5159 576 2 0.5897 3.180113 87.602637 21.719527
5160 576 2 0.5897 2.646328 88.019723 23.205373
5161 577 1 -1.1794 6.193050 94.993493 28.689149
5162 577 2 0.5897 6.237636 94.180698 29.269991
5163 577 2 0.5897 5.236318 95.232327 28.522953
5164 578 1 -1.1794 17.666574 88.706098 14.568191
5165 578 2 0.5897 16.894769 88.469355 15.158335
5166 578 2 0.5897 18.476454 88.874452 15.130109
5167 579 1 -1.1794 6.030119 68.979425 22.449760
5168 579 2 0.5897 6.990802 69.156890 22.236229
5169 579 2 0.5897 5.731465 69.595231 23.178860
5170 580 1 -1.1794 12.086081 94.217979 0.786944
5171 580 2 0.5897 11.884351 94.331460 1.759788
5172 580 2 0.5897 11.287284 93.834479 0.323422
5173 581 1 -1.1794 4.961404 87.953455 3.825864
5174 581 2 0.5897 5.819937 87.523163 3.546994
5175 581 2 0.5897 4.453792 88.241525 3.013862
5176 582 1 -1.1794 5.764503 54.650783 16.136117
5177 582 2 0.5897 5.594825 53.693603 16.370669
5178 582 2 0.5897 6.743575 54.842311 16.204931
5179 583 1 -1.1794 17.936505 93.159236 17.152464
5180 583 2 0.5897 17.569455 93.629876 16.350109
5181 583 2 0.5897 18.052544 92.187892 16.945035
5182 584 1 -1.1794 17.305419 52.267564 10.284130
5183 584 2 0.5897 16.908195 51.759018 11.048064
5184 584 2 0.5897 17.361880 51.673490 9.481704
5185 585 1 -1.1794 8.475772 76.083882 22.828285
5186 585 2 0.5897 8.399686 75.510891 23.644308
5187 585 2 0.5897 8.511530 77.045960 23.098705
5188 586 1 -1.1794 7.661377 75.055650 27.369339
5189 586 2 0.5897 7.372432 74.246758 26.857280
5190 586 2 0.5897 7.420472 74.943489 28.333385
5191 587 1 -1.1794 8.667352 74.694977 0.884728
5192 587 2 0.5897 8.227010 74.057932 1.517400
5193 587 2 0.5897 8.822258 74.240140 0.007729
5194 588 1 -1.1794 13.453267 58.932264 27.770717
5195 588 2 0.5897 13.736209 58.020363 27.473428
5196 588 2 0.5897 13.110891 59.447657 26.985129
5197 589 1 -1.1794 18.987874 65.100345 30.518321
5198 589 2 0.5897 19.653784 65.826385 30.689870
5199 589 2 0.5897 19.429792 64.210022 30.628025
5200 590 1 -1.1794 19.581103 52.637884 31.746656
5201 590 2 0.5897 19.844645 52.044236 30.986308
5202 590 2 0.5897 19.096178 53.437563 31.392591
5203 591 1 -1.1794 8.934985 79.910790 0.577225
5204 591 2 0.5897 8.135567 79.736278 0.002354
5205 591 2 0.5897 9.731051 80.084176 -0.002618
5206 592 1 -1.1794 8.021505 56.409983 29.247983
5207 592 2 0.5897 8.601452 57.015776 29.792663
5208 592 2 0.5897 7.954774 55.519308 29.697700
5209 593 1 -1.1794 10.050549 76.253780 2.214201
5210 593 2 0.5897 10.432048 75.348885 2.025454
5211 593 2 0.5897 9.090390 76.162252 2.478242
5212 594 1 -1.1794 9.731186 56.583955 23.143277
5213 594 2 0.5897 8.800162 56.220618 23.108908
5214 594 2 0.5897 10.084830 56.506958 24.075482
5215 595 1 -1.1794 7.341487 79.245898 3.106332
5216 595 2 0.5897 6.898799 78.370884 3.302235
5217 595 2 0.5897 7.254556 79.452618 2.131802
5218 596 1 -1.1794 12.459922 85.107527 22.436029
5219 596 2 0.5897 13.083244 85.703378 21.929639
5220 596 2 0.5897 12.200740 85.549223 23.294940
5221 597 1 -1.1794 4.074209 84.667096 27.740341
5222 597 2 0.5897 4.740654 84.217866 27.145325
5223 597 2 0.5897 3.373308 85.109889 27.181171
5224 598 1 -1.1794 6.184286 98.450306 27.933828
5225 598 2 0.5897 5.286163 98.550210 27.505583
5226 598 2 0.5897 6.094241 98.551518 28.924609
5227 599 1 -1.1794 10.981847 51.965588 25.337383
5228 599 2 0.5897 10.330099 51.235706 25.131234
5229 599 2 0.5897 11.501867 52.190628 24.513408
5230 600 1 -1.1794 0.113086 65.777693 28.358128
5231 600 2 0.5897 0.604705 64.997788 27.970754
5232 600 2 0.5897 0.585706 66.094540 29.180465
5233 601 1 -1.1794 17.555812 68.835747 11.500760
5234 601 2 0.5897 17.457679 68.308335 10.656836
5235 601 2 0.5897 18.093844 68.311469 12.160801
5236 602 1 -1.1794 18.437542 93.334091 10.004019
5237 602 2 0.5897 17.611702 93.245087 10.560855
5238 602 2 0.5897 19.118025 92.667396 10.308092
5239 603 1 -1.1794 17.549291 89.494714 12.071899
5240 603 2 0.5897 16.608201 89.494925 12.410056
5241 603 2 0.5897 17.895925 90.432466 12.050319
5242 604 1 -1.1794 5.948411 96.356666 26.084564
5243 604 2 0.5897 5.248346 95.704590 26.375606
5244 604 2 0.5897 6.548335 96.568138 26.856167
5245 605 1 -1.1794 14.574959 90.626216 5.977859
5246 605 2 0.5897 14.485849 90.646995 6.973664
5247 605 2 0.5897 15.147463 89.851113 5.710546
5248 606 1 -1.1794 10.608495 74.275753 13.634102
5249 606 2 0.5897 10.502394 75.054278 14.252682
5250 606 2 0.5897 9.828774 73.658394 13.738513
5251 607 1 -1.1794 2.234910 75.303448 25.548304
5252 607 2 0.5897 1.242367 75.405309 25.481351
5253 607 2 0.5897 2.572373 75.831644 26.327489
5254 608 1 -1.1794 11.907263 77.387541 19.903273
5255 608 2 0.5897 11.981931 76.527030 19.399343
5256 608 2 0.5897 11.960452 78.154203 19.263429
5257 609 1 -1.1794 6.892624 48.555746 15.203585
5258 609 2 0.5897 6.047427 48.548364 15.737989
5259 609 2 0.5897 7.664073 48.769415 15.802928
5260 610 1 -1.1794 17.836928 89.653703 0.584842
5261 610 2 0.5897 18.627997 89.827521 -0.001670
5262 610 2 0.5897 17.042013 89.439038 0.017366
5263 611 1 -1.1794 0.978992 76.805152 15.907752
5264 611 2 0.5897 1.250564 77.610148 15.380276
5265 611 2 0.5897 0.024956 76.899366 16.192249
5266 612 1 -1.1794 8.831176 64.995260 30.898490
5267 612 2 0.5897 9.548367 65.124430 31.583291
5268 612 2 0.5897 9.067553 65.500985 30.068810
5269 613 1 -1.1794 17.711270 48.545313 33.215820
5270 613 2 0.5897 17.526832 49.153034 32.443384
5271 613 2 0.5897 18.559936 48.825012 33.664746
5272 614 1 -1.1794 4.693434 78.533708 3.560266
5273 614 2 0.5897 5.055317 79.100080 4.300715
5274 614 2 0.5897 3.880166 78.047300 3.879643
5275 615 1 -1.1794 5.914074 50.582331 14.910790
5276 615 2 0.5897 4.930709 50.640376 15.082906
5277 615 2 0.5897 6.392729 51.246578 15.484954
5278 616 1 -1.1794 15.934491 57.824444 29.558504
5279 616 2 0.5897 15.488186 58.267381 28.780932
5280 616 2 0.5897 16.922801 57.965289 29.500131
5281 617 1 -1.1794 6.013648 59.797269 7.826192
5282 617 2 0.5897 6.965737 60.036900 7.636181
5283 617 2 0.5897 5.925139 59.515555 8.781599
5284 618 1 -1.1794 18.205272 49.043416 6.740976
5285 618 2 0.5897 17.344342 49.378208 7.124009
5286 618 2 0.5897 18.787988 48.702367 7.478626
5287 619 1 -1.1794 16.143622 89.326129 31.804530
5288 619 2 0.5897 15.305960 88.979736 32.226826
5289 619 2 0.5897 16.609525 89.939355 32.442408
5290 620 1 -1.1794 11.944818 52.905213 2.388397
5291 620 2 0.5897 12.223418 52.352958 3.174142
5292 620 2 0.5897 11.753436 53.839628 2.688801
5293 621 1 -1.1794 3.259506 72.550473 27.017330
5294 621 2 0.5897 2.518431 72.593247 26.347271
5295 621 2 0.5897 2.991387 71.953133 27.773172
5296 622 1 -1.1794 14.881133 65.919883 17.252570
5297 622 2 0.5897 14.049977 66.091247 16.723595
5298 622 2 0.5897 15.036204 66.678895 17.884910
5299 623 1 -1.1794 12.072248 96.445969 8.094740
5300 623 2 0.5897 12.936000 95.968074 8.254581
5301 623 2 0.5897 11.901286 96.505489 7.111262
5302 624 1 -1.1794 19.163595 86.493106 30.803718
5303 624 2 0.5897 19.095661 87.316326 31.367361
5304 624 2 0.5897 19.134923 85.683983 31.390658
5305 625 1 -1.1794 12.320503 81.166677 30.298897
5306 625 2 0.5897 12.685771 80.235787 30.303576
5307 625 2 0.5897 11.855469 81.346620 31.165710
5308 626 1 -1.1794 15.084280 95.512287 23.351551
5309 626 2 0.5897 14.803007 96.350733 22.884759
5310 626 2 0.5897 15.731429 95.011722 22.776544
5311 627 1 -1.1794 15.295539 70.862456 30.563846
5312 627 2 0.5897 14.316686 70.993142 30.721226
5313 627 2 0.5897 15.490478 69.886231 30.469067
5314 628 1 -1.1794 20.664683 67.481120 33.658020
5315 628 2 0.5897 20.239444 66.701425 33.198403
5316 628 2 0.5897 20.027142 68.251492 33.666211
5317 629 1 -1.1794 9.821616 72.269476 29.058809
5318 629 2 0.5897 9.624179 71.533917 28.410757
5319 629 2 0.5897 9.977072 73.121424 28.558791
5320 630 1 -1.1794 3.347415 70.295929 21.436344
5321 630 2 0.5897 4.066906 69.669632 21.736483
5322 630 2 0.5897 3.044406 70.851196 22.210853
5323 631 1 -1.1794 3.078295 98.404991 31.329967
5324 631 2 0.5897 2.293106 98.550071 30.727945
5325 631 2 0.5897 3.741440 97.810335 30.875409
5326 632 1 -1.1794 14.311914 59.947665 16.249619
5327 632 2 0.5897 14.983858 59.462588 15.689984
5328 632 2 0.5897 13.686835 60.454143 15.655686
5329 633 1 -1.1794 6.352668 55.918894 13.735640
5330 633 2 0.5897 5.525983 55.952349 14.297310
5331 633 2 0.5897 7.158190 55.912662 14.328173
5332 634 1 -1.1794 17.046584 59.698933 2.153867
5333 634 2 0.5897 17.333007 60.277748 2.917369
5334 634 2 0.5897 16.460208 58.963977 2.494458
5335 635 1 -1.1794 8.295884 90.679988 6.162903
5336 635 2 0.5897 7.994763 91.186275 5.354819
5337 635 2 0.5897 7.537022 90.132018 6.514837
5338 636 1 -1.1794 10.268328 96.835951 9.299186
5339 636 2 0.5897 9.900007 97.327525 8.510076
5340 636 2 0.5897 9.560087 96.752584 10.000218
5341 637 1 -1.1794 4.297126 49.728678 22.926996
5342 637 2 0.5897 3.864242 49.660766 22.028108
5343 637 2 0.5897 4.197782 50.660810 23.275221
5344 638 1 -1.1794 1.509751 94.775396 2.933902
5345 638 2 0.5897 1.734480 94.189096 2.155603
5346 638 2 0.5897 0.523435 94.749669 3.096748
5347 639 1 -1.1794 3.379330 91.345929 33.665823
5348 639 2 0.5897 3.613025 90.422829 33.360416
5349 639 2 0.5897 4.200288 91.916885 33.659660
5350 640 1 -1.1794 17.981166 89.208864 29.073177
5351 640 2 0.5897 17.926319 90.058497 28.548661
5352 640 2 0.5897 18.785265 89.235120 29.667093
5353 641 1 -1.1794 0.881223 97.860326 4.003320
5354 641 2 0.5897 0.283995 98.548556 3.591424
5355 641 2 0.5897 1.806821 98.229426 4.087191
5356 642 1 -1.1794 15.812841 89.529141 25.123190
5357 642 2 0.5897 15.834975 90.528172 25.085151
5358 642 2 0.5897 15.779663 89.160863 24.194066
5359 643 1 -1.1794 7.016753 83.834136 28.202700
5360 643 2 0.5897 6.253257 83.217189 28.393623
5361 643 2 0.5897 6.936467 84.185037 27.269736
5362 644 1 -1.1794 8.248847 65.736479 17.346650
5363 644 2 0.5897 8.419444 64.919751 16.795423
5364 644 2 0.5897 7.559618 66.304337 16.896649
5365 645 1 -1.1794 5.433065 97.384423 17.473710
5366 645 2 0.5897 5.928519 97.902956 18.170595
5367 645 2 0.5897 4.449705 97.522415 17.591869
5368 646 1 -1.1794 1.703442 63.464343 30.251391
5369 646 2 0.5897 1.512769 62.712077 29.620726
5370 646 2 0.5897 1.761918 64.321544 29.739740
5371 647 1 -1.1794 10.078692 87.025724 33.674835
5372 647 2 0.5897 10.941729 87.501450 33.504980
5373 647 2 0.5897 9.561191 86.959311 32.821734
5374 648 1 -1.1794 19.402813 72.043475 8.242503
5375 648 2 0.5897 19.025928 71.211408 8.649471
5376 648 2 0.5897 18.931247 72.236845 7.382135
5377 649 1 -1.1794 9.223444 61.197469 20.326140
5378 649 2 0.5897 9.489551 60.290864 20.653639
5379 649 2 0.5897 8.890174 61.744655 21.093941
5380 650 1 -1.1794 21.272102 66.663938 24.532339
5381 650 2 0.5897 20.294425 66.868115 24.581939
5382 650 2 0.5897 21.775462 67.497252 24.303834
5383 651 1 -1.1794 13.472377 94.319746 14.594930
5384 651 2 0.5897 13.302434 95.095618 13.987359
5385 651 2 0.5897 13.663147 93.504155 14.048654
5386 652 1 -1.1794 11.925848 61.836359 8.146410
5387 652 2 0.5897 11.266927 61.408562 7.527692
5388 652 2 0.5897 12.597833 62.350853 7.613744
5389 653 1 -1.1794 3.086501 80.164318 25.165685
5390 653 2 0.5897 3.294399 79.417604 25.797506
5391 653 2 0.5897 3.196156 81.039664 25.636582
5392 654 1 -1.1794 13.732330 52.315381 25.807359
5393 654 2 0.5897 13.683794 51.831761 24.933427
5394 654 2 0.5897 13.051864 53.048031 25.821107
5395 655 1 -1.1794 0.751148 84.990730 27.495852
5396 655 2 0.5897 -0.000677 85.416959 26.992774
5397 655 2 0.5897 1.062048 84.177159 27.004483
5398 656 1 -1.1794 8.155239 90.868583 2.965300
5399 656 2 0.5897 8.874277 91.526125 3.190293
5400 656 2 0.5897 8.300104 90.520136 2.039233
5401 657 1 -1.1794 17.409659 55.130596 21.807107
5402 657 2 0.5897 17.856570 55.800215 22.400302
5403 657 2 0.5897 16.598160 55.542032 21.392148
5404 658 1 -1.1794 17.145550 68.926581 32.753656
5405 658 2 0.5897 17.930315 68.362227 33.009876
5406 658 2 0.5897 16.871351 68.710465 31.816581
5407 659 1 -1.1794 12.787279 67.781886 25.859070
5408 659 2 0.5897 12.884939 68.713079 26.210271
5409 659 2 0.5897 12.729708 67.806395 24.861029
5410 660 1 -1.1794 6.053865 86.615497 27.111914
5411 660 2 0.5897 5.073273 86.486880 26.963934
5412 660 2 0.5897 6.561423 86.215139 26.348961
5413 661 1 -1.1794 17.407875 67.912303 19.631205
5414 661 2 0.5897 17.690309 67.495745 20.495329
5415 661 2 0.5897 17.935457 67.513828 18.880955
5416 662 1 -1.1794 12.308767 51.210180 21.403301
5417 662 2 0.5897 13.018103 50.517605 21.534384
5418 662 2 0.5897 12.712401 52.121075 21.489032
5419 663 1 -1.1794 16.357148 89.894228 17.377749
5420 663 2 0.5897 17.149832 90.317696 17.816300
5421 663 2 0.5897 15.621433 89.791068 18.047138
5422 664 1 -1.1794 18.832254 70.585876 25.866399
5423 664 2 0.5897 18.960807 70.622096 24.875358
5424 664 2 0.5897 17.915358 70.243343 26.071271
5425 665 1 -1.1794 19.380741 75.062192 12.481406
5426 665 2 0.5897 19.692298 75.491235 11.633554
5427 665 2 0.5897 18.966160 74.176170 12.273830
5428 666 1 -1.1794 6.510197 65.380711 19.782054
5429 666 2 0.5897 6.823241 64.672187 20.414507
5430 666 2 0.5897 6.277693 66.206736 20.295498
5431 667 1 -1.1794 12.279421 74.761484 27.066473
5432 667 2 0.5897 12.843137 74.561314 27.867820
5433 667 2 0.5897 11.976232 75.713764 27.101685
5434 668 1 -1.1794 10.132721 83.263185 22.816548
5435 668 2 0.5897 10.467185 84.169383 22.557823
5436 668 2 0.5897 9.611463 82.871314 22.058440
5437 669 1 -1.1794 11.060359 57.690302 21.295310
5438 669 2 0.5897 11.438682 58.590384 21.079153
5439 669 2 0.5897 10.993907 57.146944 20.458443
5440 670 1 -1.1794 4.451631 53.611333 5.460318
5441 670 2 0.5897 4.180098 53.663053 6.421356
5442 670 2 0.5897 3.636006 53.530701 4.887383
5443 671 1 -1.1794 13.811445 67.808250 0.703198
5444 671 2 0.5897 14.521817 67.104424 0.703479
5445 671 2 0.5897 14.012975 68.484944 -0.004949
5446 672 1 -1.1794 15.116398 69.073211 11.453462
5447 672 2 0.5897 14.754537 69.412343 12.321820
5448 672 2 0.5897 15.468687 68.145730 11.578647
5449 673 1 -1.1794 10.460856 82.063962 12.059915
5450 673 2 0.5897 10.969948 82.697067 12.643013
5451 673 2 0.5897 11.100449 81.453713 11.592458
5452 674 1 -1.1794 8.499739 80.606842 31.940155
5453 674 2 0.5897 8.578802 80.840791 30.971126
5454 674 2 0.5897 7.552075 80.727217 32.235863
5455 675 1 -1.1794 1.629436 78.537659 26.931573
5456 675 2 0.5897 1.787475 79.312761 27.543324
5457 675 2 0.5897 1.548053 77.699081 27.470242
5458 676 1 -1.1794 16.659408 87.542957 25.592994
5459 676 2 0.5897 16.899443 87.322081 24.647691
5460 676 2 0.5897 17.493989 87.703018 26.120114
5461 677 1 -1.1794 5.767100 92.899834 17.522601
5462 677 2 0.5897 5.440989 93.834767 17.382772
5463 677 2 0.5897 6.455991 92.680294 16.831781
5464 678 1 -1.1794 5.642780 89.642113 27.770701
5465 678 2 0.5897 5.698272 89.600513 28.768294
5466 678 2 0.5897 6.321772 89.024970 27.373079
5467 679 1 -1.1794 2.847428 93.785644 25.564401
5468 679 2 0.5897 3.494510 94.318035 26.110152
5469 679 2 0.5897 2.736797 94.213568 24.667383
5470 680 1 -1.1794 4.019618 87.814104 25.561214
5471 680 2 0.5897 4.312443 88.704439 25.212563
5472 680 2 0.5897 3.906817 87.177944 24.797947
5473 681 1 -1.1794 8.487806 61.306755 9.808113
5474 681 2 0.5897 8.667758 60.480527 9.274293
5475 681 2 0.5897 9.273041 61.922624 9.743990
5476 682 1 -1.1794 13.418111 96.549757 26.246804
5477 682 2 0.5897 13.845642 96.257953 27.102414
5478 682 2 0.5897 12.500448 96.899662 26.435114
5479 683 1 -1.1794 3.743981 62.676066 32.687509
5480 683 2 0.5897 3.691682 61.714294 32.418700
5481 683 2 0.5897 3.552239 62.759745 33.665381
5482 684 1 -1.1794 1.821282 55.434479 20.696729
5483 684 2 0.5897 2.343338 56.172438 20.269092
5484 684 2 0.5897 2.439146 54.851385 21.224219
5485 685 1 -1.1794 9.650405 72.276732 22.501547
5486 685 2 0.5897 10.478117 72.414533 21.957576
5487 685 2 0.5897 8.860732 72.634961 22.003461
5488 686 1 -1.1794 3.661798 84.857126 31.718985
5489 686 2 0.5897 3.243815 84.198088 31.093718
5490 686 2 0.5897 3.000572 85.113290 32.424080
5491 687 1 -1.1794 14.950755 74.938585 5.897822
5492 687 2 0.5897 14.940140 74.856870 6.894421
5493 687 2 0.5897 14.608074 75.840126 5.633641
5494 688 1 -1.1794 16.203331 61.910845 31.307802
5495 688 2 0.5897 16.868965 61.877751 32.053346
5496 688 2 0.5897 16.607242 61.516037 30.482585
5497 689 1 -1.1794 7.302153 87.660007 29.683508
5498 689 2 0.5897 6.552557 87.591528 29.025164
5499 689 2 0.5897 8.164286 87.792312 29.194405
5500 690 1 -1.1794 5.591655 92.744677 21.887545
5501 690 2 0.5897 6.435823 92.218789 21.991569
5502 690 2 0.5897 5.796073 93.720898 21.959704
5503 691 1 -1.1794 6.759196 52.237313 1.378276
5504 691 2 0.5897 6.811062 51.450570 0.763178
5505 691 2 0.5897 6.209801 52.956852 0.953508
5506 692 1 -1.1794 6.305020 74.616602 -0.001323
5507 692 2 0.5897 6.150069 74.027443 0.791697
5508 692 2 0.5897 6.064715 75.558959 0.231520
5509 693 1 -1.1794 6.126800 91.236634 25.687396
5510 693 2 0.5897 5.461132 91.879470 26.066406
5511 693 2 0.5897 5.734505 90.316833 25.679033
5512 694 1 -1.1794 15.894042 85.029773 10.321517
5513 694 2 0.5897 16.866742 84.946471 10.104917
5514 694 2 0.5897 15.738409 85.872123 10.837488
5515 695 1 -1.1794 20.671582 62.429983 7.865787
5516 695 2 0.5897 20.135108 62.773917 8.636439
5517 695 2 0.5897 21.509172 62.003203 8.206818
5518 696 1 -1.1794 6.195642 62.363368 21.265717
5519 696 2 0.5897 5.756153 63.031228 21.866394
5520 696 2 0.5897 6.039158 62.619299 20.311772
5521 697 1 -1.1794 11.865441 57.748764 10.226560
5522 697 2 0.5897 11.089702 57.826834 9.600354
5523 697 2 0.5897 12.670919 57.437569 9.722216
5524 698 1 -1.1794 19.592839 62.051850 27.189041
5525 698 2 0.5897 18.601451 62.089970 27.063752
5526 698 2 0.5897 19.960672 62.981173 27.221556
5527 699 1 -1.1794 1.523475 70.215038 17.380580
5528 699 2 0.5897 2.237425 70.550950 16.766221
5529 699 2 0.5897 0.755759 69.868586 16.841521
5530 700 1 -1.1794 10.841618 73.288249 18.680536
5531 700 2 0.5897 10.204628 73.794076 19.262243
5532 700 2 0.5897 11.055940 72.409283 19.106545
5533 701 1 -1.1794 8.787278 88.387260 9.757816
5534 701 2 0.5897 9.671250 88.146681 10.158708
5535 701 2 0.5897 8.688218 87.933235 8.872351
5536 702 1 -1.1794 19.776986 97.142943 17.916878
5537 702 2 0.5897 19.159945 97.691880 17.353027
5538 702 2 0.5897 20.690365 97.144273 17.509768
5539 703 1 -1.1794 14.773635 64.574988 4.213093
5540 703 2 0.5897 14.892252 64.044527 5.052463
5541 703 2 0.5897 14.861770 65.549497 4.419405
5542 704 1 -1.1794 8.382946 71.580799 13.926596
5543 704 2 0.5897 9.155551 71.436135 13.308410
5544 704 2 0.5897 7.647114 70.944450 13.695052
5545 705 1 -1.1794 9.381740 63.563828 1.811486
5546 705 2 0.5897 8.402288 63.369033 1.863734
5547 705 2 0.5897 9.778122 63.527924 2.728869
5548 706 1 -1.1794 1.379315 83.065886 32.415918
5549 706 2 0.5897 0.810426 83.302760 31.628354
5550 706 2 0.5897 1.354533 83.811879 33.081410
5551 707 1 -1.1794 4.831776 98.572718 9.335107
5552 707 2 0.5897 3.841234 98.542263 9.468895
5553 707 2 0.5897 5.291291 98.363778 10.198351
5554 708 1 -1.1794 15.911050 88.624519 28.611097
5555 708 2 0.5897 16.309709 87.986925 27.951898
5556 708 2 0.5897 14.998113 88.308940 28.869857
5557 709 1 -1.1794 2.479323 81.171928 29.823385
5558 709 2 0.5897 2.629743 81.497436 30.756883
5559 709 2 0.5897 2.055192 80.266728 29.850309
5560 710 1 -1.1794 5.407282 81.357125 33.602661
5561 710 2 0.5897 6.231478 81.919998 33.664924
5562 710 2 0.5897 4.601085 81.948235 33.577460
5563 711 1 -1.1794 8.218617 92.565356 0.129463
5564 711 2 0.5897 8.890209 92.325050 0.830332
5565 711 2 0.5897 7.308069 92.279968 0.428553
5566 712 1 -1.1794 4.572646 59.010967 28.792206
5567 712 2 0.5897 4.850051 59.513216 29.611225
5568 712 2 0.5897 4.267545 58.094388 29.050654
5569 713 1 -1.1794 11.293420 81.718432 -0.000416
5570 713 2 0.5897 10.656957 82.388278 0.381972
5571 713 2 0.5897 12.218332 82.098610 0.001410
5572 714 1 -1.1794 0.246047 84.990701 5.014567
5573 714 2 0.5897 0.613649 85.752614 5.547818
5574 714 2 0.5897 0.167861 84.182468 5.598216
5575 715 1 -1.1794 8.554973 81.457178 8.585476
5576 715 2 0.5897 8.604017 82.320001 9.088597
5577 715 2 0.5897 8.376782 80.708597 9.224126
5578 716 1 -1.1794 9.147455 76.018981 15.692423
5579 716 2 0.5897 8.423714 76.256905 16.340181
5580 716 2 0.5897 9.919448 76.643447 15.811039
5581 717 1 -1.1794 14.963193 78.018519 30.751034
5582 717 2 0.5897 14.199742 77.979357 30.106356
5583 717 2 0.5897 15.812744 77.789346 30.275909
5584 718 1 -1.1794 7.939949 76.766202 9.897640
5585 718 2 0.5897 8.476203 76.420977 10.667869
5586 718 2 0.5897 7.121464 77.226721 10.241155
5587 719 1 -1.1794 10.340462 76.868655 11.736781
5588 719 2 0.5897 10.720287 76.229325 12.405354
5589 719 2 0.5897 10.017069 77.689743 12.207134
5590 720 1 -1.1794 2.438490 75.398414 0.880416
5591 720 2 0.5897 2.856836 75.175277 -0.000036
5592 720 2 0.5897 2.432387 76.390652 1.004619
5593 721 1 -1.1794 17.516933 94.150357 19.812029
5594 721 2 0.5897 17.827827 94.469106 18.916628
5595 721 2 0.5897 16.519412 94.079990 19.812878
5596 722 1 -1.1794 4.372819 73.421130 3.731058
5597 722 2 0.5897 4.288560 72.438687 3.897512
5598 722 2 0.5897 4.109414 73.922616 4.555151
5599 723 1 -1.1794 6.931696 92.360101 30.291802
5600 723 2 0.5897 7.749251 91.929054 30.673642
5601 723 2 0.5897 6.480345 91.723430 29.666556
5602 724 1 -1.1794 7.908738 70.282465 11.613437
5603 724 2 0.5897 7.744456 70.882088 10.830198
5604 724 2 0.5897 7.774099 69.330495 11.338437
5605 725 1 -1.1794 20.546811 77.275603 21.931617
5606 725 2 0.5897 20.790078 76.317254 21.781990
5607 725 2 0.5897 20.837616 77.820058 21.144850
5608 726 1 -1.1794 8.572760 91.180238 9.553515
5609 726 2 0.5897 8.001870 90.437035 9.902419
5610 726 2 0.5897 8.636650 91.902796 10.241866
5611 727 1 -1.1794 18.073907 75.619965 9.823953
5612 727 2 0.5897 18.325240 76.496882 10.233647
5613 727 2 0.5897 17.854621 74.964907 10.547010
5614 728 1 -1.1794 1.823322 65.229184 11.840395
5615 728 2 0.5897 0.959409 65.678947 12.067039
5616 728 2 0.5897 1.670648 64.246172 11.738525
5617 729 1 -1.1794 18.560278 89.664898 2.998487
5618 729 2 0.5897 18.865636 90.323360 3.686371
5619 729 2 0.5897 19.348162 89.339544 2.475626
5620 730 1 -1.1794 20.021733 50.343273 33.033954
5621 730 2 0.5897 20.596203 51.156915 33.123238
5622 730 2 0.5897 19.214467 50.563664 32.486461
5623 731 1 -1.1794 9.985147 88.083596 18.744042
5624 731 2 0.5897 10.835950 88.510851 18.438122
5625 731 2 0.5897 9.209768 88.522180 18.289694
5626 732 1 -1.1794 0.432985 92.051382 29.938028
5627 732 2 0.5897 0.072593 91.463871 30.662562
5628 732 2 0.5897 0.935271 92.813770 30.346040
5629 733 1 -1.1794 15.366288 83.827493 0.578592
5630 733 2 0.5897 15.713606 84.554510 -0.013705
5631 733 2 0.5897 15.017355 83.077705 0.016397
5632 734 1 -1.1794 20.154310 94.742527 26.328395
5633 734 2 0.5897 19.942064 94.735253 25.351206
5634 734 2 0.5897 21.145857 94.711415 26.454356
5635 735 1 -1.1794 16.240552 68.842906 14.513754
5636 735 2 0.5897 16.245035 69.783600 14.174528
5637 735 2 0.5897 16.062357 68.215941 13.755360
5638 736 1 -1.1794 14.911019 61.541169 21.233688
5639 736 2 0.5897 15.684922 62.023185 20.822915
5640 736 2 0.5897 14.841364 60.625050 20.838878
5641 737 1 -1.1794 9.441322 76.254207 5.935337
5642 737 2 0.5897 9.036478 76.106937 5.032889
5643 737 2 0.5897 8.775357 76.016088 6.642295
5644 738 1 -1.1794 5.025600 54.342015 29.472119
5645 738 2 0.5897 5.848799 54.906480 29.533134
5646 738 2 0.5897 4.340245 54.811220 28.915221
5647 739 1 -1.1794 15.522744 77.509996 16.420553
5648 739 2 0.5897 14.574241 77.270125 16.213665
5649 739 2 0.5897 16.032227 77.620911 15.567251
5650 740 1 -1.1794 5.261095 74.622968 29.859145
5651 740 2 0.5897 6.099238 74.905251 30.325871
5652 740 2 0.5897 4.514010 75.236183 30.115723
5653 741 1 -1.1794 14.868202 69.453653 23.327220
5654 741 2 0.5897 14.476708 68.693692 23.846056
5655 741 2 0.5897 15.432776 70.014704 23.932594
5656 742 1 -1.1794 10.607781 77.858686 0.716833
5657 742 2 0.5897 11.090476 78.335294 -0.017913
5658 742 2 0.5897 9.815476 77.379517 0.339145
5659 743 1 -1.1794 1.058567 68.661433 30.135965
5660 743 2 0.5897 1.900640 68.250273 30.485048
5661 743 2 0.5897 0.545782 69.065163 30.893628
5662 744 1 -1.1794 8.741279 93.151018 20.884354
5663 744 2 0.5897 8.944304 94.117122 21.043803
5664 744 2 0.5897 8.920710 92.630525 21.719154
5665 745 1 -1.1794 13.978487 86.139428 28.515897
5666 745 2 0.5897 14.953634 86.113462 28.735926
5667 745 2 0.5897 13.841764 85.839963 27.571637
5668 746 1 -1.1794 5.233575 74.915352 26.856313
5669 746 2 0.5897 4.742311 74.697189 26.013066
5670 746 2 0.5897 4.652819 74.708059 27.643556
5671 747 1 -1.1794 2.350417 94.054219 10.718737
5672 747 2 0.5897 1.900829 93.203917 10.992338
5673 747 2 0.5897 1.705648 94.814015 10.802299
5674 748 1 -1.1794 18.301539 65.105042 32.651596
5675 748 2 0.5897 18.484760 64.303299 33.220489
5676 748 2 0.5897 18.187483 65.908925 33.235346
5677 749 1 -1.1794 11.973049 80.821810 27.383931
5678 749 2 0.5897 12.135006 80.116157 28.073731
5679 749 2 0.5897 11.593050 81.636019 27.822868
5680 750 1 -1.1794 4.829689 94.739558 31.766740
5681 750 2 0.5897 5.070725 94.506613 32.708886
5682 750 2 0.5897 3.978883 95.264999 31.760542
5683 751 1 -1.1794 2.432107 51.702184 20.899564
5684 751 2 0.5897 2.367395 51.995770 21.853304
5685 751 2 0.5897 2.245640 50.721573 20.839290
5686 752 1 -1.1794 2.693694 81.856691 14.500264
5687 752 2 0.5897 1.900166 81.418013 14.922017
5688 752 2 0.5897 3.032584 82.580887 15.100841
5689 753 1 -1.1794 15.243584 58.663430 8.608043
5690 753 2 0.5897 14.757120 58.850214 9.461544
5691 753 2 0.5897 16.165687 58.336280 8.814677
5692 754 1 -1.1794 14.210574 93.605858 16.540554
5693 754 2 0.5897 14.914005 93.867709 17.201326
5694 754 2 0.5897 13.362942 93.388547 17.024595
5695 755 1 -1.1794 12.878176 97.246432 29.355533
5696 755 2 0.5897 13.813357 96.930031 29.196386
5697 755 2 0.5897 12.507899 97.630822 28.509874
5698 756 1 -1.1794 12.600582 73.142624 20.521965
5699 756 2 0.5897 12.396593 73.869326 21.177932
5700 756 2 0.5897 13.512010 72.774282 20.705332
5701 757 1 -1.1794 17.111584 75.249548 2.425156
5702 757 2 0.5897 16.495369 75.704688 1.782407
5703 757 2 0.5897 17.399310 74.370376 2.045326
5704 758 1 -1.1794 5.574451 50.213647 28.603152
5705 758 2 0.5897 6.365033 50.312779 27.998872
5706 758 2 0.5897 4.767657 49.979335 28.060768
5707 759 1 -1.1794 0.260083 59.424869 4.659356
5708 759 2 0.5897 0.580312 60.304480 4.307592
5709 759 2 0.5897 -0.000001 59.524699 5.619767
5710 760 1 -1.1794 12.848761 87.761867 19.689002
5711 760 2 0.5897 12.632835 87.260271 18.851280
5712 760 2 0.5897 12.796381 88.744668 19.511920
5713 761 1 -1.1794 19.870699 50.223371 11.825831
5714 761 2 0.5897 20.678181 50.811588 11.781414
5715 761 2 0.5897 19.434410 50.187750 10.926729
5716 762 1 -1.1794 8.375724 48.566967 28.331216
5717 762 2 0.5897 7.772071 48.965888 29.021481
5718 762 2 0.5897 9.313704 48.551507 28.677560
5719 763 1 -1.1794 0.241052 87.187913 12.365783
5720 763 2 0.5897 0.000095 86.608814 11.586948
5721 763 2 0.5897 0.716478 86.639981 13.054071
5722 764 1 -1.1794 16.619818 92.624717 21.748466
5723 764 2 0.5897 15.703756 92.756630 21.369746
5724 764 2 0.5897 17.062140 93.513538 21.868253
5725 765 1 -1.1794 1.142231 82.779947 7.822861
5726 765 2 0.5897 1.531396 83.269463 8.603198
5727 765 2 0.5897 0.509157 82.078938 8.151197
5728 766 1 -1.1794 1.515475 85.080862 15.272576
5729 766 2 0.5897 2.261068 84.618290 14.792871
5730 766 2 0.5897 0.640295 84.699509 14.974869
5731 767 1 -1.1794 9.776487 89.397925 21.353082
5732 767 2 0.5897 10.598378 89.106970 20.863347
5733 767 2 0.5897 9.043992 89.578965 20.696823
5734 768 1 -1.1794 16.537033 71.933268 28.506333
5735 768 2 0.5897 16.916535 71.249364 29.129432
5736 768 2 0.5897 16.982435 71.855174 27.614415
5737 769 1 -1.1794 12.079431 70.539279 12.423709
5738 769 2 0.5897 11.943871 71.151740 13.202500
5739 769 2 0.5897 11.244998 70.510170 11.873368
5740 770 1 -1.1794 4.422413 76.380740 12.744732
5741 770 2 0.5897 4.781249 76.565095 11.829718
5742 770 2 0.5897 5.173144 76.389978 13.405275
5743 771 1 -1.1794 10.309142 54.489156 25.370201
5744 771 2 0.5897 10.291333 53.883097 26.165422
5745 771 2 0.5897 11.093528 55.105660 25.438476
5746 772 1 -1.1794 11.723468 69.180169 9.097500
5747 772 2 0.5897 12.419349 68.752496 8.520572
5748 772 2 0.5897 10.996253 69.553386 8.521420
5749 773 1 -1.1794 12.523868 66.324908 2.897006
5750 773 2 0.5897 12.028767 66.984582 2.331582
5751 773 2 0.5897 13.029459 65.694353 2.308127
5752 774 1 -1.1794 10.819811 52.139551 19.115932
5753 774 2 0.5897 11.553155 52.538476 19.666446
5754 774 2 0.5897 10.052898 51.895030 19.709273
5755 775 1 -1.1794 19.588657 84.022418 1.754861
5756 775 2 0.5897 19.636023 83.592666 0.853157
5757 775 2 0.5897 19.662267 83.320231 2.463038
5758 776 1 -1.1794 11.357649 62.822592 0.302098
5759 776 2 0.5897 11.382438 63.650112 0.862986
5760 776 2 0.5897 10.666008 62.196491 0.662140
5761 777 1 -1.1794 12.683492 53.513958 28.792046
5762 777 2 0.5897 11.704341 53.312114 28.814883
5763 777 2 0.5897 13.122096 52.957752 28.086170
5764 778 1 -1.1794 7.225468 79.948667 26.172573
5765 778 2 0.5897 7.938853 79.720663 26.835216
5766 778 2 0.5897 6.339277 79.981047 26.634761
5767 779 1 -1.1794 11.701498 51.035548 6.983522
5768 779 2 0.5897 12.094662 50.187043 7.337727
5769 779 2 0.5897 11.902656 51.784926 7.614370
5770 780 1 -1.1794 14.444841 88.917163 13.975965
5771 780 2 0.5897 15.026392 88.335623 13.407099
5772 780 2 0.5897 13.871998 89.490489 13.390176
5773 781 1 -1.1794 13.349577 93.462972 22.800042
5774 781 2 0.5897 13.572470 92.493311 22.699657
5775 781 2 0.5897 13.520910 93.935590 21.935590
5776 782 1 -1.1794 0.112534 95.632045 0.384075
5777 782 2 0.5897 0.222227 96.441282 0.961225
5778 782 2 0.5897 -0.000914 94.823619 0.961637
5779 783 1 -1.1794 7.955027 80.909775 21.059304
5780 783 2 0.5897 7.836186 81.892200 21.203241
5781 783 2 0.5897 8.590752 80.547532 21.740944
5782 784 1 -1.1794 2.151234 85.498711 8.321826
5783 784 2 0.5897 1.317750 85.330307 7.795571
5784 784 2 0.5897 2.917581 85.642031 7.695590
5785 785 1 -1.1794 17.084816 64.527190 21.550508
5786 785 2 0.5897 17.014383 65.368330 21.014297
5787 785 2 0.5897 17.239064 63.752729 20.936980
5788 786 1 -1.1794 18.509037 97.051675 13.470997
5789 786 2 0.5897 18.921025 97.792869 14.000995
5790 786 2 0.5897 18.237098 96.312517 14.087190
5791 787 1 -1.1794 12.968016 48.553441 10.974125
5792 787 2 0.5897 12.210479 49.057876 10.559780
5793 787 2 0.5897 13.749111 48.552792 10.349713
5794 788 1 -1.1794 6.209189 92.948778 6.210234
5795 788 2 0.5897 5.947328 92.534527 5.338555
5796 788 2 0.5897 6.867573 93.683273 6.045774
5797 789 1 -1.1794 0.757588 54.204607 19.084693
5798 789 2 0.5897 -0.000012 54.764227 19.420652
5799 789 2 0.5897 1.045235 53.568553 19.800720
5800 790 1 -1.1794 0.214071 68.686733 28.078025
5801 790 2 0.5897 0.340422 69.660515 27.888856
5802 790 2 0.5897 0.399656 68.159306 27.248942
5803 791 1 -1.1794 13.662096 77.484599 4.399189
5804 791 2 0.5897 13.245141 76.791260 3.811456
5805 791 2 0.5897 13.198626 77.492944 5.285262
5806 792 1 -1.1794 21.588421 68.778314 2.882444
5807 792 2 0.5897 21.774204 68.044659 3.536077
5808 792 2 0.5897 20.853790 69.359087 3.233186
5809 793 1 -1.1794 11.089411 80.366591 6.133089
5810 793 2 0.5897 10.954580 79.554497 5.565353
5811 793 2 0.5897 11.178523 81.171946 5.547033
5812 794 1 -1.1794 13.455816 54.670270 20.250399
5813 794 2 0.5897 13.334803 54.255231 21.152119
5814 794 2 0.5897 12.878264 55.483361 20.177494
5815 795 1 -1.1794 11.151442 50.138124 3.763936
5816 795 2 0.5897 10.427140 49.603901 4.199817
5817 795 2 0.5897 11.641704 50.664278 4.458778
5818 796 1 -1.1794 5.036879 89.455130 14.844697
5819 796 2 0.5897 4.264191 89.088711 14.326344
5820 796 2 0.5897 5.707867 89.843419 14.213027
5821 797 1 -1.1794 17.654006 61.082306 20.476150
5822 797 2 0.5897 17.157706 60.401182 21.014441
5823 797 2 0.5897 18.098811 61.733503 21.091041
5824 798 1 -1.1794 16.457267 93.046999 26.409863
5825 798 2 0.5897 16.829883 92.361664 25.784186
5826 798 2 0.5897 15.613087 92.700755 26.819101
5827 799 1 -1.1794 8.066434 97.580375 28.840114
5828 799 2 0.5897 8.384080 97.842729 27.928922
5829 799 2 0.5897 7.592806 96.701213 28.787672
5830 800 1 -1.1794 14.672486 48.541694 16.406591
5831 800 2 0.5897 15.288591 49.067708 15.820311
5832 800 2 0.5897 13.763395 48.958080 16.393358
5833 801 1 -1.1794 17.578539 51.468416 2.564441
5834 801 2 0.5897 17.276101 52.383462 2.297567
5835 801 2 0.5897 17.574687 50.869360 1.763743
5836 802 1 -1.1794 4.847480 93.436823 14.493841
5837 802 2 0.5897 5.152697 93.612245 13.557855
5838 802 2 0.5897 3.915089 93.779082 14.610052
5839 803 1 -1.1794 8.656721 61.968107 18.344203
5840 803 2 0.5897 9.318393 61.482101 17.773250
5841 803 2 0.5897 7.933832 62.347882 17.766967
5842 804 1 -1.1794 16.560381 55.005944 24.929461
5843 804 2 0.5897 16.043667 55.854161 25.045799
5844 804 2 0.5897 17.428437 55.204213 24.474303
5845 805 1 -1.1794 17.737252 57.340071 20.833474
5846 805 2 0.5897 18.645567 57.051041 20.531107
5847 805 2 0.5897 17.582783 58.290426 20.563357
5848 806 1 -1.1794 0.107448 71.872520 19.125630
5849 806 2 0.5897 1.023103 71.627464 19.444257
5850 806 2 0.5897 -0.001037 71.588602 18.172938
5851 807 1 -1.1794 3.722514 67.632285 12.028782
5852 807 2 0.5897 3.008883 68.097636 12.552404
5853 807 2 0.5897 3.493036 66.662943 11.940949
5854 808 1 -1.1794 6.915984 88.565367 24.870020
5855 808 2 0.5897 6.472086 87.683176 24.712876
5856 808 2 0.5897 7.556177 88.484971 25.634015
5857 809 1 -1.1794 11.943044 69.726661 29.042590
5858 809 2 0.5897 12.807606 70.040603 29.434985
5859 809 2 0.5897 11.201334 70.322415 29.350721
5860 810 1 -1.1794 13.732791 90.903997 18.232064
5861 810 2 0.5897 14.214828 91.393822 17.505626
5862 810 2 0.5897 12.992055 90.362602 17.834319
5863 811 1 -1.1794 18.686083 61.875105 29.858507
5864 811 2 0.5897 19.362983 62.414853 29.358028
5865 811 2 0.5897 18.687301 62.148074 30.820529
5866 812 1 -1.1794 3.147896 91.663442 25.074660
5867 812 2 0.5897 3.718691 92.070554 24.361601
5868 812 2 0.5897 3.374343 90.694088 25.169928
5869 813 1 -1.1794 4.188124 98.118371 23.061292
5870 813 2 0.5897 3.231673 98.135676 22.769912
5871 813 2 0.5897 4.270683 98.549474 23.959810
5872 814 1 -1.1794 21.047014 68.115699 22.322218
5873 814 2 0.5897 21.521107 68.580001 21.574114
5874 814 2 0.5897 20.104706 67.921117 22.049832
5875 815 1 -1.1794 9.927812 93.660974 11.631079
5876 815 2 0.5897 10.771778 93.735931 11.099947
5877 815 2 0.5897 9.146399 93.884682 11.048542
5878 816 1 -1.1794 13.657323 76.570151 8.816274
5879 816 2 0.5897 14.258122 76.019723 9.395989
5880 816 2 0.5897 13.060394 77.129701 9.391234
5881 817 1 -1.1794 15.991343 94.641404 8.890172
5882 817 2 0.5897 15.240052 94.393141 8.278675
5883 817 2 0.5897 16.770132 94.959255 8.349378
5884 818 1 -1.1794 4.721814 72.366483 24.058141
5885 818 2 0.5897 4.207531 71.514943 23.956202
5886 818 2 0.5897 4.481708 72.798873 24.927271
5887 819 1 -1.1794 3.269511 48.896307 25.792142
5888 819 2 0.5897 4.206469 48.550000 25.745446
5889 819 2 0.5897 3.212224 49.609603 26.490661
5890 820 1 -1.1794 12.283302 55.778385 15.764454
5891 820 2 0.5897 11.648986 55.777440 14.991381
5892 820 2 0.5897 13.180800 56.096318 15.458811
5893 821 1 -1.1794 7.274898 72.128032 8.274607
5894 821 2 0.5897 6.475825 72.463313 8.773674
5895 821 2 0.5897 8.015291 71.938528 8.919514
5896 822 1 -1.1794 8.633919 68.659763 0.698477
5897 822 2 0.5897 9.554578 68.316088 0.513342
5898 822 2 0.5897 8.380819 69.328293 -0.000814
5899 823 1 -1.1794 19.907574 60.938743 6.193868
5900 823 2 0.5897 19.984294 59.942683 6.238344
5901 823 2 0.5897 20.264747 61.261752 5.317459
5902 824 1 -1.1794 10.590885 53.731988 21.566194
5903 824 2 0.5897 11.145012 54.283432 20.942613
5904 824 2 0.5897 9.677141 53.608161 21.179233
5905 825 1 -1.1794 21.634860 90.940498 29.404490
5906 825 2 0.5897 21.404126 89.979817 29.558936
5907 825 2 0.5897 21.778331 91.394379 30.283926
5908 826 1 -1.1794 7.266165 91.497912 14.411271
5909 826 2 0.5897 7.976251 91.321117 13.729713
5910 826 2 0.5897 6.464723 91.893498 13.962715
5911 827 1 -1.1794 8.333367 63.381545 28.215516
5912 827 2 0.5897 8.460664 62.710212 28.945658
5913 827 2 0.5897 8.520520 62.952458 27.331854
5914 828 1 -1.1794 3.740397 96.173161 24.841062
5915 828 2 0.5897 3.777247 96.004889 23.856010
5916 828 2 0.5897 3.165756 96.971411 25.021575
5917 829 1 -1.1794 10.727862 97.661563 13.387954
5918 829 2 0.5897 11.248866 98.510714 13.474540
5919 829 2 0.5897 10.630178 97.427609 12.420626
5920 830 1 -1.1794 6.444655 97.254534 11.708029
5921 830 2 0.5897 7.111624 97.961686 11.942737
5922 830 2 0.5897 6.395888 96.583602 12.447943
5923 831 1 -1.1794 14.778252 60.048815 6.008288
5924 831 2 0.5897 14.844407 59.185450 6.508513
5925 831 2 0.5897 14.472908 60.771049 6.628886
5926 832 1 -1.1794 11.271565 98.551499 23.056131
5927 832 2 0.5897 10.520020 98.489909 23.712932
5928 832 2 0.5897 10.952083 98.256993 22.155466
5929 833 1 -1.1794 20.116077 77.911821 17.846729
5930 833 2 0.5897 19.661095 78.580129 17.258209
5931 833 2 0.5897 19.524362 77.114398 17.965006
5932 834 1 -1.1794 2.407287 95.390186 5.323609
5933 834 2 0.5897 2.113676 94.480928 5.028580
5934 834 2 0.5897 1.910878 96.085637 4.804065
5935 835 1 -1.1794 6.421849 56.650610 27.447055
5936 835 2 0.5897 5.497211 56.725106 27.820546
5937 835 2 0.5897 6.614095 57.445788 26.871961
5938 836 1 -1.1794 20.041625 85.790943 8.911609
5939 836 2 0.5897 19.603071 85.107367 8.328176
5940 836 2 0.5897 20.614781 86.388979 8.351390
5941 837 1 -1.1794 12.292257 63.982551 13.742054
5942 837 2 0.5897 12.283631 64.837548 13.223491
5943 837 2 0.5897 12.089156 63.218935 13.129159
5944 838 1 -1.1794 10.742060 88.535429 7.661853
5945 838 2 0.5897 10.228982 89.286934 8.076572
5946 838 2 0.5897 10.810265 87.779294 8.312704
5947 839 1 -1.1794 6.641004 59.996750 19.719094
5948 839 2 0.5897 7.159968 60.848274 19.644369
5949 839 2 0.5897 5.938985 59.970712 19.007412
5950 840 1 -1.1794 0.435068 97.323049 25.959160
5951 840 2 0.5897 -0.016224 97.363521 25.067702
5952 840 2 0.5897 1.321562 97.782625 25.905143
5953 841 1 -1.1794 2.471622 60.974296 24.797156
5954 841 2 0.5897 2.400497 61.817563 25.329923
5955 841 2 0.5897 2.382698 61.186386 23.823960
5956 842 1 -1.1794 9.841301 65.964959 11.068627
5957 842 2 0.5897 8.905026 66.295878 10.950803
5958 842 2 0.5897 9.993965 65.731586 12.028955
5959 843 1 -1.1794 9.663849 51.089656 27.908779
5960 843 2 0.5897 8.912680 51.104195 28.568728
5961 843 2 0.5897 10.201888 51.927877 27.997662
5962 844 1 -1.1794 8.171588 92.265430 7.682628
5963 844 2 0.5897 7.244621 91.939418 7.868227
5964 844 2 0.5897 8.193942 93.262877 7.750452
5965 845 1 -1.1794 1.669316 86.185691 25.004889
5966 845 2 0.5897 2.405632 85.557989 25.257534
5967 845 2 0.5897 1.614118 86.250928 24.008547
5968 846 1 -1.1794 11.044074 63.261231 18.926484
5969 846 2 0.5897 10.275562 62.934161 19.476406
5970 846 2 0.5897 11.752812 63.628125 19.529045
5971 847 1 -1.1794 0.762131 76.031926 33.005389
5972 847 2 0.5897 0.830907 75.548083 32.132941
5973 847 2 0.5897 0.265383 75.465105 33.662622
5974 848 1 -1.1794 20.010607 53.044318 7.570817
5975 848 2 0.5897 19.205341 52.810066 7.026140
5976 848 2 0.5897 20.747056 53.344829 6.964734
5977 849 1 -1.1794 4.932185 97.591554 3.264090
5978 849 2 0.5897 4.639565 96.731531 2.846077
5979 849 2 0.5897 5.273875 98.207761 2.554486
5980 850 1 -1.1794 8.333965 93.962214 27.447424
5981 850 2 0.5897 8.068400 93.435869 28.255159
5982 850 2 0.5897 8.133558 94.930044 27.599551
5983 851 1 -1.1794 0.857147 87.525799 27.089333
5984 851 2 0.5897 0.350991 87.450301 26.230202
5985 851 2 0.5897 1.791353 87.194924 26.955988
5986 852 1 -1.1794 8.457430 69.047115 16.292390
5987 852 2 0.5897 7.871877 69.550978 16.927409
5988 852 2 0.5897 8.878223 69.686121 15.648492
5989 853 1 -1.1794 10.095162 67.606398 9.603394
5990 853 2 0.5897 10.633455 66.873131 9.187990
5991 853 2 0.5897 9.485098 68.002025 8.916880
5992 854 1 -1.1794 15.606419 86.654164 14.832841
5993 854 2 0.5897 16.270735 86.653024 14.085390
5994 854 2 0.5897 14.757141 86.225538 14.524610
5995 855 1 -1.1794 15.618013 53.125352 12.192146
5996 855 2 0.5897 16.032065 53.509149 13.017532
5997 855 2 0.5897 15.479486 53.852438 11.519722
5998 856 1 -1.1794 7.613919 74.602210 9.208231
5999 856 2 0.5897 7.106230 75.204369 8.592068
6000 856 2 0.5897 8.311196 74.106633 8.690344
6001 857 1 -1.1794 10.259113 88.643489 26.405918
6002 857 2 0.5897 9.917591 89.422435 26.931852
6003 857 2 0.5897 10.639888 87.961174 27.029983
6004 858 1 -1.1794 19.124764 87.283758 13.743175
6005 858 2 0.5897 19.382604 88.020982 13.118661
6006 858 2 0.5897 19.684600 86.476724 13.555343
6007 859 1 -1.1794 16.650508 69.851914 17.153415
6008 859 2 0.5897 17.363629 69.154317 17.222816
6009 859 2 0.5897 16.798743 70.550856 17.853063
6010 860 1 -1.1794 21.066010 79.428696 28.618665
6011 860 2 0.5897 20.334627 79.835545 29.165979
6012 860 2 0.5897 21.775077 80.113002 28.448520
6013 861 1 -1.1794 2.861341 70.110974 7.039979
6014 861 2 0.5897 3.599673 69.499571 7.324677
6015 861 2 0.5897 2.086193 70.010508 7.663719
6016 862 1 -1.1794 13.433250 94.640683 11.274242
6017 862 2 0.5897 13.130146 93.883594 11.852986
6018 862 2 0.5897 13.724218 95.404678 11.850131
6019 863 1 -1.1794 15.604159 73.513398 30.171381
6020 863 2 0.5897 15.129588 73.612882 31.045958
6021 863 2 0.5897 16.197891 74.304166 30.022493
6022 864 1 -1.1794 5.186418 78.298167 23.121518
6023 864 2 0.5897 5.985308 78.787742 22.772102
6024 864 2 0.5897 4.404214 78.465409 22.521362
6025 865 1 -1.1794 2.923436 69.593024 10.205359
6026 865 2 0.5897 2.785129 69.797799 11.174347
6027 865 2 0.5897 3.276120 70.404926 9.740140
6028 866 1 -1.1794 15.695734 83.326483 12.699608
6029 866 2 0.5897 15.403961 82.953054 11.819029
6030 866 2 0.5897 15.080172 84.067522 12.967831
6031 867 1 -1.1794 15.248302 84.274382 30.851004
6032 867 2 0.5897 15.653925 85.148902 30.585137
6033 867 2 0.5897 15.932360 83.549979 30.765540
6034 868 1 -1.1794 13.265985 86.786045 10.109131
6035 868 2 0.5897 14.102485 87.324850 10.208914
6036 868 2 0.5897 12.708110 86.880846 10.933624
6037 869 1 -1.1794 10.838499 97.333738 31.265765
6038 869 2 0.5897 11.523240 96.660565 30.986537
6039 869 2 0.5897 11.076694 98.228164 30.887261
6040 870 1 -1.1794 14.709733 71.608928 -0.000277
6041 870 2 0.5897 14.567280 70.695467 0.380901
6042 870 2 0.5897 15.108425 72.203137 0.698265
6043 871 1 -1.1794 0.507811 75.948222 13.036595
6044 871 2 0.5897 1.043696 76.769876 13.230791
6045 871 2 0.5897 0.640841 75.282304 13.770663
6046 872 1 -1.1794 17.947059 49.100909 26.117749
6047 872 2 0.5897 18.527352 49.789628 26.552405
6048 872 2 0.5897 17.294739 48.744435 26.786632
6049 873 1 -1.1794 11.464474 75.107396 9.447934
6050 873 2 0.5897 11.426576 75.848440 10.118320
6051 873 2 0.5897 12.414303 74.822053 9.319853
6052 874 1 -1.1794 3.788755 76.313863 6.188829
6053 874 2 0.5897 3.696766 76.256157 5.194742
6054 874 2 0.5897 4.433564 75.617912 6.504856
6055 875 1 -1.1794 11.848609 81.411278 16.857463
6056 875 2 0.5897 10.964696 81.013942 16.610845
6057 875 2 0.5897 11.704750 82.195764 17.460692
6058 876 1 -1.1794 5.298685 95.532843 19.159993
6059 876 2 0.5897 6.090292 95.582313 18.550968
6060 876 2 0.5897 4.462331 95.471680 18.615226
6061 877 1 -1.1794 6.577028 57.989497 29.858140
6062 877 2 0.5897 6.054633 57.138222 29.907477
6063 877 2 0.5897 6.645742 58.283627 28.904848
6064 878 1 -1.1794 5.331162 84.175619 13.888938
6065 878 2 0.5897 4.505720 84.174258 14.453424
6066 878 2 0.5897 6.138003 84.133432 14.478199
6067 879 1 -1.1794 12.471024 50.451274 13.033900
6068 879 2 0.5897 13.153938 50.797230 12.390516
6069 879 2 0.5897 11.783241 49.921851 12.537244
6070 880 1 -1.1794 4.313181 54.205713 0.595249
6071 880 2 0.5897 5.029770 54.570544 0.000776
6072 880 2 0.5897 3.562803 53.854008 0.035573
6073 881 1 -1.1794 4.877342 51.325818 18.282706
6074 881 2 0.5897 4.793435 52.067710 17.617457
6075 881 2 0.5897 5.491989 50.623700 17.923207
6076 882 1 -1.1794 11.938134 50.295192 32.367792
6077 882 2 0.5897 11.389412 49.835677 33.066182
6078 882 2 0.5897 11.391889 51.010538 31.932021
6079 883 1 -1.1794 0.834865 55.319825 22.847154
6080 883 2 0.5897 0.639701 55.191226 23.819457
6081 883 2 0.5897 -0.000126 55.171821 22.317169
6082 884 1 -1.1794 17.852866 55.963638 27.400486
6083 884 2 0.5897 17.926990 56.818974 27.913229
6084 884 2 0.5897 17.724879 56.166951 26.429773
6085 885 1 -1.1794 19.628565 65.952828 0.610996
6086 885 2 0.5897 18.838279 65.962496 -0.001666
6087 885 2 0.5897 20.465406 65.846855 0.073905
6088 886 1 -1.1794 5.205621 66.370802 27.591520
6089 886 2 0.5897 4.496444 65.687887 27.416318
6090 886 2 0.5897 5.349913 66.920182 26.768501
6091 887 1 -1.1794 3.674833 63.835948 17.468996
6092 887 2 0.5897 3.824865 64.420072 16.671319
6093 887 2 0.5897 4.480928 63.263574 17.619327
6094 888 1 -1.1794 2.771456 90.673694 15.281232
6095 888 2 0.5897 3.541697 91.108525 14.814702
6096 888 2 0.5897 2.201697 90.197666 14.611327
6097 889 1 -1.1794 7.538569 55.606738 -0.007852
6098 889 2 0.5897 7.948150 56.334994 0.541590
6099 889 2 0.5897 7.147301 54.912946 0.596765
6100 890 1 -1.1794 17.997519 95.446039 2.266870
6101 890 2 0.5897 18.342511 94.508943 2.320088
6102 890 2 0.5897 18.297907 95.958017 3.071634
6103 891 1 -1.1794 4.312625 79.039970 28.490335
6104 891 2 0.5897 3.587269 78.360183 28.381947
6105 891 2 0.5897 4.246154 79.717943 27.758260
6106 892 1 -1.1794 0.835629 58.326716 14.575426
6107 892 2 0.5897 0.327471 58.377465 13.715659
6108 892 2 0.5897 0.249052 57.939877 15.286962
6109 893 1 -1.1794 3.915767 56.773322 3.271310
6110 893 2 0.5897 4.688358 57.400286 3.171215
6111 893 2 0.5897 4.070228 56.177133 4.059156
6112 894 1 -1.1794 21.692992 95.972987 21.210171
6113 894 2 0.5897 21.774084 96.907240 20.862902
6114 894 2 0.5897 21.005010 95.478489 20.678991
6115 895 1 -1.1794 10.801553 97.449358 3.854336
6116 895 2 0.5897 9.830068 97.226001 3.774786
6117 895 2 0.5897 11.341940 96.609503 3.803092
6118 896 1 -1.1794 20.786354 52.791282 18.573447
6119 896 2 0.5897 20.857231 52.661689 17.584416
6120 896 2 0.5897 19.959314 52.341144 18.910169
6121 897 1 -1.1794 12.632295 65.729025 -0.002162
6122 897 2 0.5897 13.096089 64.872015 0.222402
6123 897 2 0.5897 11.772319 65.785455 0.505042
6124 898 1 -1.1794 6.283305 80.303976 13.752244
6125 898 2 0.5897 5.873859 79.407018 13.585448
6126 898 2 0.5897 5.591260 81.014831 13.626708
6127 899 1 -1.1794 14.740168 92.515478 10.398666
6128 899 2 0.5897 14.260755 93.192111 9.839799
6129 899 2 0.5897 15.383142 92.006065 9.826754
6130 900 1 -1.1794 2.414020 81.763094 20.827142
6131 900 2 0.5897 2.548851 82.594182 20.287593
6132 900 2 0.5897 2.483871 80.963487 20.230694
6133 901 1 -1.1794 7.996458 90.243760 23.540967
6134 901 2 0.5897 7.146606 90.693713 23.815364
6135 901 2 0.5897 8.561534 90.077467 24.349073
6136 902 1 -1.1794 21.058508 65.693101 10.925701
6137 902 2 0.5897 20.283639 65.376392 10.378642
6138 902 2 0.5897 21.800636 65.977876 10.318949
6139 903 1 -1.1794 0.381556 67.701642 16.776444
6140 903 2 0.5897 0.920026 67.369595 16.001980
6141 903 2 0.5897 0.735728 67.304762 17.623232
6142 904 1 -1.1794 8.730109 57.628365 9.058765
6143 904 2 0.5897 8.067665 58.377201 9.038423
6144 904 2 0.5897 8.264496 56.765965 8.860092
6145 905 1 -1.1794 20.344226 69.643758 18.558087
6146 905 2 0.5897 20.051002 70.529787 18.198960
6147 905 2 0.5897 21.284943 69.713442 18.890043
6148 906 1 -1.1794 5.234438 84.809913 1.903900
6149 906 2 0.5897 4.961831 85.008649 2.845276
6150 906 2 0.5897 5.642494 83.897987 1.860516
6151 907 1 -1.1794 16.412185 98.134419 27.598282
6152 907 2 0.5897 17.382176 97.969028 27.776504
6153 907 2 0.5897 15.861016 97.646873 28.275417
6154 908 1 -1.1794 19.620873 60.432653 17.917551
6155 908 2 0.5897 19.922585 61.255160 18.399683
6156 908 2 0.5897 19.158701 59.820724 18.559377
6157 909 1 -1.1794 6.067934 61.530764 32.915535
6158 909 2 0.5897 5.631723 62.000809 33.682854
6159 909 2 0.5897 6.992478 61.889501 32.786984
6160 910 1 -1.1794 18.176694 57.102591 9.656404
6161 910 2 0.5897 18.277177 56.178548 10.025251
6162 910 2 0.5897 18.505608 57.122195 8.712248
6163 911 1 -1.1794 7.107260 97.810523 0.480711
6164 911 2 0.5897 6.187655 97.460991 0.301400
6165 911 2 0.5897 7.112671 98.303584 1.350688
6166 912 1 -1.1794 3.716839 66.739550 22.098810
6167 912 2 0.5897 4.076167 65.814779 21.973583
6168 912 2 0.5897 4.367002 67.280333 22.632516
6169 913 1 -1.1794 5.118135 51.486374 11.246237
6170 913 2 0.5897 4.792056 52.250950 10.690273
6171 913 2 0.5897 4.884333 50.624078 10.797035
6172 914 1 -1.1794 3.041468 58.592858 13.071122
6173 914 2 0.5897 2.853403 57.922400 13.788839
6174 914 2 0.5897 2.249889 58.662114 12.463992
6175 915 1 -1.1794 10.163335 93.659604 31.023739
6176 915 2 0.5897 9.871326 92.741979 31.293359
6177 915 2 0.5897 11.094187 93.619894 30.660506
6178 916 1 -1.1794 0.609241 62.680233 21.906525
6179 916 2 0.5897 1.430561 62.253776 21.527621
6180 916 2 0.5897 -0.009990 62.930501 21.162268
6181 917 1 -1.1794 3.714310 56.147842 30.696361
6182 917 2 0.5897 3.217007 55.317217 30.946866
6183 917 2 0.5897 3.064593 56.850997 30.407499
6184 918 1 -1.1794 9.260835 79.201683 14.084114
6185 918 2 0.5897 9.240717 78.324455 14.563766
6186 918 2 0.5897 9.049824 79.938003 14.727003
6187 919 1 -1.1794 1.702238 57.833228 32.966245
6188 919 2 0.5897 1.188736 57.333381 33.663719
6189 919 2 0.5897 1.981619 58.721562 33.330675
6190 920 1 -1.1794 16.461528 71.384489 12.681180
6191 920 2 0.5897 17.198504 71.713805 12.090911
6192 920 2 0.5897 15.590859 71.446146 12.193192
6193 921 1 -1.1794 2.894794 74.726154 33.506358
6194 921 2 0.5897 3.415223 73.886901 33.663867
6195 921 2 0.5897 3.486156 75.518327 33.657202
6196 922 1 -1.1794 13.873541 72.458620 23.026635
6197 922 2 0.5897 13.195081 73.186223 23.128059
6198 922 2 0.5897 14.736406 72.849735 22.706489
6199 923 1 -1.1794 13.068150 57.458473 13.721680
6200 923 2 0.5897 13.491938 58.359533 13.629511
6201 923 2 0.5897 12.641594 57.200506 12.854787
6202 924 1 -1.1794 14.745120 52.663578 19.507804
6203 924 2 0.5897 14.333163 51.755132 19.578642
6204 924 2 0.5897 15.425950 52.664630 18.775362
6205 925 1 -1.1794 15.371607 62.825308 23.765845
6206 925 2 0.5897 15.777748 62.865994 22.852941
6207 925 2 0.5897 16.062117 62.527177 24.424870
6208 926 1 -1.1794 13.693155 52.413894 32.399601
6209 926 2 0.5897 13.536771 51.957591 31.523627
6210 926 2 0.5897 14.644015 52.719164 32.451336
6211 927 1 -1.1794 10.786453 74.247016 23.140770
6212 927 2 0.5897 10.320621 73.862426 23.937696
6213 927 2 0.5897 10.110910 74.642571 22.518534
6214 928 1 -1.1794 16.719300 91.589279 3.091537
6215 928 2 0.5897 16.746798 90.900941 3.816406
6216 928 2 0.5897 17.624938 92.000444 2.987799
6217 929 1 -1.1794 15.472560 73.828696 13.247595
6218 929 2 0.5897 16.117065 74.068870 12.521696
6219 929 2 0.5897 15.765828 74.249077 14.106241
6220 930 1 -1.1794 1.948941 72.924784 6.501213
6221 930 2 0.5897 1.742175 72.359177 5.702879
6222 930 2 0.5897 2.269220 73.822792 6.199548
6223 931 1 -1.1794 13.710315 70.651147 15.583287
6224 931 2 0.5897 12.774301 70.994956 15.507972
6225 931 2 0.5897 14.206522 71.182927 16.269573
6226 932 1 -1.1794 13.881849 82.689639 30.014265
6227 932 2 0.5897 13.566565 82.860371 30.947778
6228 932 2 0.5897 13.623185 83.458320 29.429267
6229 933 1 -1.1794 8.283810 78.389945 8.453311
6230 933 2 0.5897 7.694134 79.038284 7.971711
6231 933 2 0.5897 8.863948 77.913013 7.793026
6232 934 1 -1.1794 13.934406 51.216541 15.215839
6233 934 2 0.5897 14.110065 51.974277 14.587365
6234 934 2 0.5897 13.901544 50.358786 14.702832
6235 935 1 -1.1794 12.323395 72.888951 30.231328
6236 935 2 0.5897 11.909038 73.485476 29.543967
6237 935 2 0.5897 13.310467 72.839980 30.078716
6238 936 1 -1.1794 2.316690 64.879805 20.826295
6239 936 2 0.5897 2.695218 64.187204 21.440315
6240 936 2 0.5897 1.957362 65.642018 21.364733
6241 937 1 -1.1794 5.452385 75.564050 2.344334
6242 937 2 0.5897 4.743510 75.539051 3.049225
6243 937 2 0.5897 6.282994 75.128527 2.691334
6244 938 1 -1.1794 2.182669 76.014281 3.157750
6245 938 2 0.5897 2.630356 75.221843 3.572020
6246 938 2 0.5897 2.004068 76.701907 3.861507
6247 939 1 -1.1794 14.660248 86.120188 17.455850
6248 939 2 0.5897 13.804717 85.684598 17.735720
6249 939 2 0.5897 15.061215 85.609293 16.695447
6250 940 1 -1.1794 7.869504 91.236850 27.072280
6251 940 2 0.5897 8.044121 90.473984 26.449749
6252 940 2 0.5897 7.869326 90.904171 28.015320
6253 941 1 -1.1794 6.214933 64.979437 0.426009
6254 941 2 0.5897 5.229749 64.808110 0.418356
6255 941 2 0.5897 6.704598 64.107959 0.453481
6256 942 1 -1.1794 16.764753 71.595547 9.531015
6257 942 2 0.5897 17.065479 72.419942 10.010533
6258 942 2 0.5897 16.401413 70.939186 10.192207
6259 943 1 -1.1794 21.792953 71.938731 30.581729
6260 943 2 0.5897 21.455358 72.538905 31.306864
6261 943 2 0.5897 21.026092 71.439807 30.177997
6262 944 1 -1.1794 11.921300 55.637570 8.166867
6263 944 2 0.5897 11.015250 55.955248 8.446428
6264 944 2 0.5897 12.442524 56.404456 7.792420
6265 945 1 -1.1794 21.165819 64.768435 19.390417
6266 945 2 0.5897 21.380253 65.112072 20.304710
6267 945 2 0.5897 21.775180 64.007054 19.169107
6268 946 1 -1.1794 10.771149 57.858997 27.845794
6269 946 2 0.5897 10.327782 58.644308 27.413691
6270 946 2 0.5897 10.769148 57.979645 28.838487
6271 947 1 -1.1794 1.024100 92.277047 -0.008482
6272 947 2 0.5897 1.419552 93.162515 0.235575
6273 947 2 0.5897 1.101145 91.652093 0.768368
6274 948 1 -1.1794 16.180119 92.125844 18.628559
6275 948 2 0.5897 15.376299 92.240478 19.212282
6276 948 2 0.5897 16.994465 92.021387 19.199462
6277 949 1 -1.1794 5.213741 89.887701 23.141411
6278 949 2 0.5897 5.485909 89.133317 22.544058
6279 949 2 0.5897 4.975785 90.684026 22.585314
6280 950 1 -1.1794 21.787804 77.910972 25.102765
6281 950 2 0.5897 20.882014 78.329780 25.038392
6282 950 2 0.5897 21.698586 76.915813 25.061534
6283 951 1 -1.1794 6.088736 97.240269 14.955533
6284 951 2 0.5897 5.191614 96.993803 15.322175
6285 951 2 0.5897 6.603144 97.748132 15.646517
6286 952 1 -1.1794 20.942981 73.477160 11.500468
6287 952 2 0.5897 21.221307 74.140529 10.805862
6288 952 2 0.5897 21.489405 73.611103 12.327196
6289 953 1 -1.1794 8.399680 89.837133 30.472995
6290 953 2 0.5897 7.571516 89.831036 29.912543
6291 953 2 0.5897 9.189048 89.607117 29.903793
6292 954 1 -1.1794 6.057357 74.092716 6.671810
6293 954 2 0.5897 7.025017 73.892778 6.825630
6294 954 2 0.5897 5.563961 74.039790 7.540003
6295 955 1 -1.1794 11.994400 49.351279 23.177694
6296 955 2 0.5897 12.031677 48.786511 24.002101
6297 955 2 0.5897 11.795463 50.298004 23.430946
6298 956 1 -1.1794 0.376510 62.919873 4.225482
6299 956 2 0.5897 0.145716 63.725408 4.771235
6300 956 2 0.5897 -0.000003 63.022038 3.304721
6301 957 1 -1.1794 20.263562 67.098984 20.015424
6302 957 2 0.5897 19.701213 66.399692 19.574114
6303 957 2 0.5897 20.754866 67.620687 19.317968
6304 958 1 -1.1794 20.185634 54.480143 24.941780
6305 958 2 0.5897 19.602063 54.755337 24.177768
6306 958 2 0.5897 20.830428 53.780672 24.633591
6307 959 1 -1.1794 10.248600 58.997722 7.422129
6308 959 2 0.5897 10.354180 59.448550 8.308474
6309 959 2 0.5897 10.347565 58.009288 7.537040
6310 960 1 -1.1794 7.100784 84.253914 3.468804
6311 960 2 0.5897 7.223402 85.221404 3.247610
6312 960 2 0.5897 6.453492 84.164504 4.225785
6313 961 1 -1.1794 13.691060 49.166205 5.217528
6314 961 2 0.5897 13.728305 49.998870 4.665004
6315 961 2 0.5897 14.428715 48.549917 4.941749
6316 962 1 -1.1794 19.902638 77.753527 13.684770
6317 962 2 0.5897 20.089753 78.430949 14.396168
6318 962 2 0.5897 19.367486 77.002721 14.071942
6319 963 1 -1.1794 8.398758 57.085330 20.162608
6320 963 2 0.5897 8.839505 57.004526 21.056595
6321 963 2 0.5897 7.760505 56.326019 20.035805
6322 964 1 -1.1794 16.484887 78.938479 2.098268
6323 964 2 0.5897 16.942607 79.768515 2.416910
6324 964 2 0.5897 15.785935 79.180672 1.425357
6325 965 1 -1.1794 21.145864 96.171450 24.198481
6326 965 2 0.5897 21.693343 96.308061 25.024073
6327 965 2 0.5897 21.714755 96.329368 23.391372
6328 966 1 -1.1794 10.545978 77.947500 29.057909
6329 966 2 0.5897 10.454657 78.942765 29.024625
6330 966 2 0.5897 11.170382 77.645799 28.337425
6331 967 1 -1.1794 10.019254 89.341852 5.422118
6332 967 2 0.5897 10.348581 90.284764 5.372503
6333 967 2 0.5897 9.239723 89.228211 4.806149
6334 968 1 -1.1794 7.259225 63.592663 15.479437
6335 968 2 0.5897 6.282453 63.779804 15.375062
6336 968 2 0.5897 7.623404 63.233207 14.620271
6337 969 1 -1.1794 8.539899 79.517858 18.868671
6338 969 2 0.5897 7.864281 80.249109 18.962550
6339 969 2 0.5897 9.369682 79.882895 18.446525
6340 970 1 -1.1794 3.768855 67.386675 5.561781
6341 970 2 0.5897 4.450657 68.001929 5.957519
6342 970 2 0.5897 3.065026 67.923859 5.096962
6343 971 1 -1.1794 13.622935 97.968379 32.504615
6344 971 2 0.5897 13.934430 98.006118 31.555117
6345 971 2 0.5897 14.181389 97.312733 33.012805
6346 972 1 -1.1794 11.577125 89.228014 12.792077
6347 972 2 0.5897 11.353345 90.168562 12.536553
6348 972 2 0.5897 10.781334 88.642402 12.637882
6349 973 1 -1.1794 1.430773 57.262451 24.638883
6350 973 2 0.5897 1.880116 57.015973 23.780198
6351 973 2 0.5897 2.051082 57.818551 25.192028
6352 974 1 -1.1794 4.954409 78.992439 8.880365
6353 974 2 0.5897 4.724169 79.282722 7.951535
6354 974 2 0.5897 5.699691 78.326556 8.846370
6355 975 1 -1.1794 10.051238 58.423166 4.392040
6356 975 2 0.5897 10.382795 58.854978 5.230854
6357 975 2 0.5897 9.394667 59.028782 3.942436
6358 976 1 -1.1794 3.907381 49.493998 19.092431
6359 976 2 0.5897 3.125592 50.057902 18.826310
6360 976 2 0.5897 4.361969 49.905860 19.882190
6361 977 1 -1.1794 7.442588 71.276171 5.499440
6362 977 2 0.5897 6.697073 70.782188 5.946863
6363 977 2 0.5897 7.816467 71.957065 6.129199
6364 978 1 -1.1794 1.410505 73.444434 32.412309
6365 978 2 0.5897 1.468681 72.771806 33.149999
6366 978 2 0.5897 2.245337 73.409632 31.862906
6367 979 1 -1.1794 6.476000 52.048414 30.570359
6368 979 2 0.5897 6.712492 52.826404 29.988292
6369 979 2 0.5897 6.823562 51.206109 30.158384
6370 980 1 -1.1794 17.619960 53.193851 29.706004
6371 980 2 0.5897 16.728206 52.787137 29.904396
6372 980 2 0.5897 18.278435 52.469676 29.501114
6373 981 1 -1.1794 16.604246 70.315532 22.094908
6374 981 2 0.5897 17.564108 70.074891 21.950840
6375 981 2 0.5897 16.545717 71.236374 22.480427
6376 982 1 -1.1794 12.907736 60.324224 30.933964
6377 982 2 0.5897 12.396530 59.470981 30.830793
6378 982 2 0.5897 12.487292 60.880056 31.651096
6379 983 1 -1.1794 19.924956 57.837187 11.206715
6380 983 2 0.5897 20.247835 58.444913 11.932262
6381 983 2 0.5897 20.122618 56.888596 11.453907
6382 984 1 -1.1794 8.057048 72.667635 30.310739
6383 984 2 0.5897 7.329041 72.069761 30.646228
6384 984 2 0.5897 7.861198 73.611960 30.575109
6385 985 1 -1.1794 13.274362 67.930389 13.241225
6386 985 2 0.5897 13.461278 67.624113 12.307814
6387 985 2 0.5897 12.477871 68.535039 13.240418
6388 986 1 -1.1794 19.903810 68.792975 10.758253
6389 986 2 0.5897 19.314168 69.409529 10.236540
6390 986 2 0.5897 19.604228 67.848960 10.620099
6391 987 1 -1.1794 10.421610 61.270106 32.536002
6392 987 2 0.5897 10.099847 60.963576 33.431830
6393 987 2 0.5897 9.646406 61.604005 31.999744
6394 988 1 -1.1794 4.054590 78.113487 30.989063
6395 988 2 0.5897 3.480084 78.924201 30.876436
6396 988 2 0.5897 4.797741 78.317509 31.626323
6397 989 1 -1.1794 12.722453 50.622229 18.518673
6398 989 2 0.5897 13.579438 50.243755 18.168911
6399 989 2 0.5897 12.255784 51.121113 17.788375
6400 990 1 -1.1794 20.315607 91.945690 8.037206
6401 990 2 0.5897 20.920441 92.327116 8.736270
6402 990 2 0.5897 19.525831 91.518118 8.477020
6403 991 1 -1.1794 2.135273 89.576090 2.709628
6404 991 2 0.5897 1.983311 88.741311 2.180428
6405 991 2 0.5897 2.310307 90.338465 2.086613
6406 992 1 -1.1794 13.754062 68.980792 4.948931
6407 992 2 0.5897 13.019535 68.641917 4.361025
6408 992 2 0.5897 14.031195 69.892073 4.644359
6409 993 1 -1.1794 21.067400 94.307232 6.447658
6410 993 2 0.5897 21.537183 93.529177 6.864712
6411 993 2 0.5897 20.265649 94.545365 6.995826
6412 994 1 -1.1794 11.233752 94.471512 13.205260
6413 994 2 0.5897 11.362556 93.984779 14.069263
6414 994 2 0.5897 10.521900 95.165010 13.316284
6415 995 1 -1.1794 15.713130 82.388843 16.715323
6416 995 2 0.5897 16.648941 82.231527 17.030773
6417 995 2 0.5897 15.653721 83.289011 16.283851
6418 996 1 -1.1794 13.498107 82.291369 9.895200
6419 996 2 0.5897 14.484435 82.455740 9.883417
6420 996 2 0.5897 13.089469 82.655654 9.058354
6421 997 1 -1.1794 13.673840 76.561341 13.872350
6422 997 2 0.5897 13.872089 77.508197 13.619049
6423 997 2 0.5897 13.091162 76.144657 13.174597
6424 998 1 -1.1794 16.362131 66.501200 30.425263
6425 998 2 0.5897 16.593745 67.308543 29.882536
6426 998 2 0.5897 15.830460 65.865021 29.866155
6427 999 1 -1.1794 4.370296 82.284543 29.664138
6428 999 2 0.5897 3.866660 82.740482 28.930332
6429 999 2 0.5897 4.977789 81.593672 29.272158
6430 1000 1 -1.1794 12.572952 75.628537 6.701721
6431 1000 2 0.5897 12.787541 74.677591 6.478891
6432 1000 2 0.5897 11.721539 75.664298 7.224997
6433 1001 1 -1.1794 0.489828 82.743795 15.968544
6434 1001 2 0.5897 0.176575 81.921130 16.442986
6435 1001 2 0.5897 1.328181 83.078069 16.399153
6436 1002 1 -1.1794 11.149404 94.198094 32.964188
6437 1002 2 0.5897 10.428692 94.149311 33.655704
6438 1002 2 0.5897 11.976982 94.583927 33.371922
6439 1003 1 -1.1794 18.656832 75.186134 20.961714
6440 1003 2 0.5897 18.032416 75.928488 21.204644
6441 1003 2 0.5897 18.836234 74.623869 21.768977
6442 1004 1 -1.1794 12.314465 71.639613 -0.002167
6443 1004 2 0.5897 11.513821 71.171717 0.372057
6444 1004 2 0.5897 12.717685 72.224739 0.701424
6445 1005 1 -1.1794 15.047317 65.744931 10.734350
6446 1005 2 0.5897 14.248748 65.816454 11.331989
6447 1005 2 0.5897 14.957533 64.935896 10.153486
6448 1006 1 -1.1794 9.931619 48.995011 21.758356
6449 1006 2 0.5897 10.316384 48.682720 20.889777
6450 1006 2 0.5897 10.151903 49.961207 21.892296
6451 1007 1 -1.1794 -0.000757 80.792265 3.387808
6452 1007 2 0.5897 0.723016 81.207774 2.836897
6453 1007 2 0.5897 0.044389 81.148757 4.321015
6454 1008 1 -1.1794 12.979452 87.035331 25.717189
6455 1008 2 0.5897 12.202676 86.776283 25.143156
6456 1008 2 0.5897 13.756048 87.279890 25.136595
6457 1009 1 -1.1794 11.505458 58.918146 25.575718
6458 1009 2 0.5897 11.518054 59.680137 24.928253
6459 1009 2 0.5897 11.225785 58.082965 25.102163
6460 1010 1 -1.1794 21.206565 86.027295 15.848751
6461 1010 2 0.5897 20.323494 85.574235 15.726598
6462 1010 2 0.5897 21.772938 85.877561 15.038318
6463 1011 1 -1.1794 15.591743 86.959693 22.456569
6464 1011 2 0.5897 16.025765 86.248050 21.904131
6465 1011 2 0.5897 15.167797 87.636606 21.854857
6466 1012 1 -1.1794 17.106205 64.310149 0.459047
6467 1012 2 0.5897 16.407249 64.858542 0.000000
6468 1012 2 0.5897 16.667796 63.680155 1.100066
6469 1013 1 -1.1794 10.337597 82.512313 3.997469
6470 1013 2 0.5897 9.668690 81.771902 4.063457
6471 1013 2 0.5897 10.155343 83.054006 3.176889
6472 1014 1 -1.1794 13.074856 91.978510 26.453318
6473 1014 2 0.5897 13.712753 91.214727 26.551931
6474 1014 2 0.5897 12.422753 91.968157 27.211377
6475 1015 1 -1.1794 15.317880 64.855871 7.089559
6476 1015 2 0.5897 15.945616 65.476701 7.559152
6477 1015 2 0.5897 14.698193 64.441428 7.756062
6478 1016 1 -1.1794 0.860868 84.625213 11.989575
6479 1016 2 0.5897 1.554490 84.635299 12.709844
6480 1016 2 0.5897 -0.003748 84.290332 12.364132
6481 1017 1 -1.1794 5.368490 64.583690 8.750480
6482 1017 2 0.5897 4.644371 65.180651 9.095866
6483 1017 2 0.5897 5.649807 64.892294 7.841842
6484 1018 1 -1.1794 8.068252 55.889340 25.156627
6485 1018 2 0.5897 8.299154 56.724631 25.655599
6486 1018 2 0.5897 8.185420 55.098822 25.757753
6487 1019 1 -1.1794 2.245767 84.493741 10.285509
6488 1019 2 0.5897 2.649840 85.212045 10.851870
6489 1019 2 0.5897 2.417836 83.602335 10.704781
6490 1020 1 -1.1794 0.115927 77.740230 29.657161
6491 1020 2 0.5897 0.509403 76.918273 29.245380
6492 1020 2 0.5897 0.793729 78.475402 29.646796
6493 1021 1 -1.1794 17.300338 84.627772 32.669185
6494 1021 2 0.5897 16.566564 84.234510 33.223188
6495 1021 2 0.5897 16.998964 85.502263 32.289134
6496 1022 1 -1.1794 10.724064 95.103596 16.832003
6497 1022 2 0.5897 11.531596 95.247797 16.260079
6498 1022 2 0.5897 9.922625 94.969013 16.249266
6499 1023 1 -1.1794 21.163464 69.307297 8.033115
6500 1023 2 0.5897 20.821670 69.942657 8.725570
6501 1023 2 0.5897 21.774155 68.642433 8.463246
6502 1024 1 -1.1794 3.584836 69.206301 28.236055
6503 1024 2 0.5897 2.670617 69.583550 28.088110
6504 1024 2 0.5897 3.801900 68.561412 27.503252
6505 1025 1 -1.1794 7.074190 63.147009 5.408715
6506 1025 2 0.5897 7.744635 63.882924 5.503222
6507 1025 2 0.5897 6.158187 63.505463 5.588852
6508 1026 1 -1.1794 13.605882 74.446846 14.475481
6509 1026 2 0.5897 12.609213 74.491306 14.543849
6510 1026 2 0.5897 14.014625 74.866736 15.285803
6511 1027 1 -1.1794 20.288658 72.932063 26.981528
6512 1027 2 0.5897 20.984422 73.594731 26.704431
6513 1027 2 0.5897 19.928479 72.468681 26.171869
6514 1028 1 -1.1794 14.228053 93.425256 25.263214
6515 1028 2 0.5897 14.174499 94.391453 25.011036
6516 1028 2 0.5897 14.955513 92.983558 24.738137
6517 1029 1 -1.1794 20.111008 74.950064 32.267556
6518 1029 2 0.5897 19.287493 75.511320 32.350110
6519 1029 2 0.5897 20.308733 74.516961 33.146946
6520 1030 1 -1.1794 8.014815 93.692472 3.415976
6521 1030 2 0.5897 8.969838 93.928372 3.236302
6522 1030 2 0.5897 7.625710 93.242544 2.612133
6523 1031 1 -1.1794 3.789027 84.070546 16.532612
6524 1031 2 0.5897 3.369772 84.769263 17.112285
6525 1031 2 0.5897 3.991438 83.259557 17.081544
6526 1032 1 -1.1794 4.332084 85.583882 22.737464
6527 1032 2 0.5897 3.595894 85.500397 23.409070
6528 1032 2 0.5897 5.045150 86.185423 23.097582
6529 1033 1 -1.1794 8.883908 74.482311 11.921348
6530 1033 2 0.5897 9.691780 74.599557 11.343770
6531 1033 2 0.5897 8.077541 74.352857 11.344273
6532 1034 1 -1.1794 5.481903 65.246772 24.018408
6533 1034 2 0.5897 5.854672 65.788164 23.264791
6534 1034 2 0.5897 5.684045 65.700245 24.886452
6535 1035 1 -1.1794 21.775661 73.377046 22.347133
6536 1035 2 0.5897 21.773336 72.513520 21.842834
6537 1035 2 0.5897 21.765329 74.140323 21.701145
6538 1036 1 -1.1794 10.325470 73.627939 7.946890
6539 1036 2 0.5897 9.994389 74.302857 7.287442
6540 1036 2 0.5897 11.321407 73.562347 7.885185
6541 1037 1 -1.1794 11.059332 62.639989 29.908734
6542 1037 2 0.5897 10.892934 62.989519 30.830765
6543 1037 2 0.5897 11.889456 62.082410 29.908419
6544 1038 1 -1.1794 5.938444 81.687223 22.296944
6545 1038 2 0.5897 5.302082 80.922528 22.398363
6546 1038 2 0.5897 5.742794 82.378208 22.992833
6547 1039 1 -1.1794 11.212101 79.690398 1.875393
6548 1039 2 0.5897 12.191610 79.802241 2.042880
6549 1039 2 0.5897 10.770337 80.587512 1.869794
6550 1040 1 -1.1794 1.156919 79.255559 4.454628
6551 1040 2 0.5897 1.963723 78.727285 4.719190
6552 1040 2 0.5897 0.429367 78.632041 4.168457
6553 1041 1 -1.1794 14.586454 54.421571 29.924885
6554 1041 2 0.5897 13.767657 54.383042 30.497673
6555 1041 2 0.5897 15.399812 54.434202 30.506511
6556 1042 1 -1.1794 4.600368 60.354387 23.112703
6557 1042 2 0.5897 4.729173 60.001877 24.039604
6558 1042 2 0.5897 5.325103 61.010365 22.901867
6559 1043 1 -1.1794 5.039361 55.316235 33.592160
6560 1043 2 0.5897 4.902348 55.565195 32.633387
6561 1043 2 0.5897 5.779224 54.646934 33.660281
6562 1044 1 -1.1794 2.869948 98.458259 20.108248
6563 1044 2 0.5897 3.526829 98.539697 19.358665
6564 1044 2 0.5897 1.941221 98.549977 19.749007
6565 1045 1 -1.1794 0.841933 58.725476 1.650903
6566 1045 2 0.5897 1.490566 58.903186 0.910839
6567 1045 2 0.5897 -0.000639 59.238168 1.485921
6568 1046 1 -1.1794 21.035759 61.684014 33.508331
6569 1046 2 0.5897 21.774995 62.355098 33.564683
6570 1046 2 0.5897 20.156054 62.147424 33.614964
6571 1047 1 -1.1794 1.745912 66.022224 4.078839
6572 1047 2 0.5897 2.605784 65.819161 4.547225
6573 1047 2 0.5897 0.978012 65.759009 4.662832
6574 1048 1 -1.1794 0.515564 96.323540 9.488792
6575 1048 2 0.5897 0.144632 95.654480 8.844766
6576 1048 2 0.5897 0.858715 97.116336 8.985085
6577 1049 1 -1.1794 9.656204 53.579924 29.570447
6578 1049 2 0.5897 9.543718 52.672708 29.975793
6579 1049 2 0.5897 10.004790 54.212941 30.261662
6580 1050 1 -1.1794 19.006859 67.930094 29.589108
6581 1050 2 0.5897 19.695569 68.512179 29.156840
6582 1050 2 0.5897 18.894665 67.092814 29.053968
6583 1051 1 -1.1794 14.229707 88.261758 17.085096
6584 1051 2 0.5897 14.987721 88.103997 16.452224
6585 1051 2 0.5897 13.363345 88.083886 16.618430
6586 1052 1 -1.1794 20.767590 67.788109 1.063894
6587 1052 2 0.5897 20.973637 68.721391 0.769735
6588 1052 2 0.5897 21.620930 67.301804 1.251827
6589 1053 1 -1.1794 5.419236 69.200682 30.775368
6590 1053 2 0.5897 4.951568 68.333336 30.605083
6591 1053 2 0.5897 5.667593 69.622280 29.903259
6592 1054 1 -1.1794 7.491171 95.234446 22.803309
6593 1054 2 0.5897 6.938007 95.973096 23.188543
6594 1054 2 0.5897 8.435192 95.324675 23.120615
6595 1055 1 -1.1794 1.921876 90.455373 23.147741
6596 1055 2 0.5897 2.887192 90.202819 23.081556
6597 1055 2 0.5897 1.440759 89.787417 23.715510
6598 1056 1 -1.1794 18.210494 85.926753 16.227266
6599 1056 2 0.5897 18.183414 86.762546 15.678890
6600 1056 2 0.5897 17.316744 85.776243 16.649825
6601 1057 1 -1.1794 20.179852 59.998541 20.501357
6602 1057 2 0.5897 20.167681 60.996068 20.570580
6603 1057 2 0.5897 19.307327 59.631388 20.823688
6604 1058 1 -1.1794 7.802769 53.414440 7.141557
6605 1058 2 0.5897 6.806373 53.498284 7.154455
6606 1058 2 0.5897 8.135302 53.534738 6.206170
6607 1059 1 -1.1794 17.963967 84.615374 13.375314
6608 1059 2 0.5897 17.271534 84.861508 12.697114
6609 1059 2 0.5897 17.715092 85.004677 14.262165
6610 1060 1 -1.1794 12.139902 78.830292 11.755360
6611 1060 2 0.5897 12.418044 79.705288 12.151617
6612 1060 2 0.5897 11.597629 78.994867 10.931434
6613 1061 1 -1.1794 11.942176 92.060361 18.776475
6614 1061 2 0.5897 11.200339 91.786954 19.388786
6615 1061 2 0.5897 12.666874 92.500504 19.306651
6616 1062 1 -1.1794 14.298126 48.553324 21.093089
6617 1062 2 0.5897 15.198934 48.545884 20.658937
6618 1062 2 0.5897 13.596006 48.721350 20.401139
6619 1063 1 -1.1794 17.162552 81.280131 22.845360
6620 1063 2 0.5897 16.738188 81.365714 21.943922
6621 1063 2 0.5897 16.590459 80.704687 23.429804
6622 1064 1 -1.1794 20.383716 82.197910 19.898711
6623 1064 2 0.5897 20.263288 82.164793 18.906541
6624 1064 2 0.5897 20.071487 81.337413 20.301274
6625 1065 1 -1.1794 8.408039 96.815674 24.882676
6626 1065 2 0.5897 8.502947 96.568558 25.847003
6627 1065 2 0.5897 8.151845 97.779506 24.809237
6628 1066 1 -1.1794 15.384102 91.309156 12.659635
6629 1066 2 0.5897 16.008122 91.553901 11.917544
6630 1066 2 0.5897 14.676831 92.010868 12.745477
6631 1067 1 -1.1794 13.587936 66.289045 7.316113
6632 1067 2 0.5897 13.991288 67.203747 7.291031
6633 1067 2 0.5897 12.923614 66.238040 8.061816
6634 1068 1 -1.1794 3.863817 84.397992 20.944667
6635 1068 2 0.5897 4.140185 84.843643 20.093188
6636 1068 2 0.5897 2.903958 84.605623 21.133244
6637 1069 1 -1.1794 3.136256 82.796101 22.630219
6638 1069 2 0.5897 3.764668 83.316492 23.208398
6639 1069 2 0.5897 2.825359 81.983433 23.123083
6640 1070 1 -1.1794 6.371702 84.146415 21.599702
6641 1070 2 0.5897 6.328086 84.463640 22.547049
6642 1070 2 0.5897 6.368901 84.934313 20.983902
6643 1071 1 -1.1794 20.841022 82.485425 29.385381
6644 1071 2 0.5897 21.800768 82.751830 29.296420
6645 1071 2 0.5897 20.569919 81.944969 28.588882
6646 1072 1 -1.1794 21.120952 74.277029 15.869195
6647 1072 2 0.5897 21.777545 73.856640 15.242969
6648 1072 2 0.5897 20.203315 74.223224 15.475435
6649 1073 1 -1.1794 18.308119 53.819467 13.883614
6650 1073 2 0.5897 19.264234 54.048077 14.066864
6651 1073 2 0.5897 17.713908 54.487101 14.332142
6652 1074 1 -1.1794 7.718153 87.654065 5.017297
6653 1074 2 0.5897 7.334382 87.675857 5.940468
6654 1074 2 0.5897 8.005097 86.721665 4.797540
6655 1075 1 -1.1794 9.821681 57.520096 13.816563
6656 1075 2 0.5897 10.115101 57.336252 14.754703
6657 1075 2 0.5897 10.573126 57.941423 13.308809
6658 1076 1 -1.1794 12.361913 61.042696 12.955772
6659 1076 2 0.5897 11.366626 61.020019 12.861483
6660 1076 2 0.5897 12.645224 60.388969 13.657467
6661 1077 1 -1.1794 1.528924 97.893201 14.895492
6662 1077 2 0.5897 1.500945 96.963998 14.526982
6663 1077 2 0.5897 1.492728 98.551268 14.143403
6664 1078 1 -1.1794 20.430447 53.555987 28.934436
6665 1078 2 0.5897 21.164647 53.399088 29.594991
6666 1078 2 0.5897 20.210911 52.697992 28.470056
6667 1079 1 -1.1794 20.092031 78.199537 5.463441
6668 1079 2 0.5897 19.902119 77.348185 5.952454
6669 1079 2 0.5897 19.413081 78.888389 5.717426
6670 1080 1 -1.1794 10.477980 53.657053 6.443143
6671 1080 2 0.5897 11.342687 53.905371 6.879744
6672 1080 2 0.5897 10.112670 52.831296 6.872880
6673 1081 1 -1.1794 6.778627 77.602369 32.408329
6674 1081 2 0.5897 6.887155 78.585134 32.258683
6675 1081 2 0.5897 6.856988 77.403301 33.385176
6676 1082 1 -1.1794 15.192181 61.368356 2.416150
6677 1082 2 0.5897 15.667989 61.596913 1.566816
6678 1082 2 0.5897 14.356049 60.862492 2.204050
6679 1083 1 -1.1794 11.800780 50.648513 27.191023
6680 1083 2 0.5897 12.784047 50.800511 27.090611
6681 1083 2 0.5897 11.501869 49.955728 26.534745
6682 1084 1 -1.1794 10.532335 94.366822 5.678544
6683 1084 2 0.5897 10.713026 94.498821 4.703902
6684 1084 2 0.5897 11.394991 94.209010 6.159086
6685 1085 1 -1.1794 5.124435 59.666008 32.190243
6686 1085 2 0.5897 4.244269 59.703687 31.717073
6687 1085 2 0.5897 5.862170 59.830327 31.535456
6688 1086 1 -1.1794 11.185891 70.519899 33.612903
6689 1086 2 0.5897 11.660731 69.641662 33.669714
6690 1086 2 0.5897 11.556700 71.050610 32.850770
6691 1087 1 -1.1794 4.752784 75.781980 8.720082
6692 1087 2 0.5897 3.781609 75.828546 8.953854
6693 1087 2 0.5897 5.288240 76.244743 9.426578
6694 1088 1 -1.1794 15.921784 67.554162 8.286131
6695 1088 2 0.5897 15.475053 67.108351 9.061813
6696 1088 2 0.5897 16.628483 68.177151 8.621483
6697 1089 1 -1.1794 12.011527 65.083337 32.426189
6698 1089 2 0.5897 12.040838 65.369264 33.383992
6699 1089 2 0.5897 12.942919 65.026646 32.066613
6700 1090 1 -1.1794 2.115776 48.946711 11.082077
6701 1090 2 0.5897 1.199530 48.877030 11.476587
6702 1090 2 0.5897 2.475126 49.867398 11.234403
6703 1091 1 -1.1794 0.401023 88.083884 15.800259
6704 1091 2 0.5897 0.542481 87.359518 15.125511
6705 1091 2 0.5897 1.286109 88.391625 16.149424
6706 1092 1 -1.1794 2.198783 59.897588 9.634053
6707 1092 2 0.5897 2.886908 60.498690 9.227656
6708 1092 2 0.5897 1.573887 59.577135 8.922143
6709 1093 1 -1.1794 12.794058 95.913265 24.158758
6710 1093 2 0.5897 13.043655 96.879522 24.095116
6711 1093 2 0.5897 11.905071 95.827578 24.608602
6712 1094 1 -1.1794 15.986292 74.221928 24.353312
6713 1094 2 0.5897 15.315644 74.451971 25.058516
6714 1094 2 0.5897 16.841247 73.936921 24.786697
6715 1095 1 -1.1794 15.708373 70.591451 32.707318
6716 1095 2 0.5897 15.559588 70.397895 33.677060
6717 1095 2 0.5897 16.506023 71.185761 32.604607
6718 1096 1 -1.1794 0.285147 53.494554 1.168284
6719 1096 2 0.5897 0.324941 53.266520 0.195444
6720 1096 2 0.5897 1.010976 54.146467 1.387785
6721 1097 1 -1.1794 18.976530 98.248501 23.262183
6722 1097 2 0.5897 18.862513 97.829467 22.361400
6723 1097 2 0.5897 19.692217 97.765247 23.766424
6724 1098 1 -1.1794 8.291006 51.766323 26.302751
6725 1098 2 0.5897 8.007384 50.822455 26.472078
6726 1098 2 0.5897 7.948909 52.353818 27.036113
6727 1099 1 -1.1794 11.128672 78.912862 31.117978
6728 1099 2 0.5897 10.568713 79.608458 31.568080
6729 1099 2 0.5897 11.591916 78.358953 31.809780
6730 1100 1 -1.1794 17.375020 51.275922 14.976010
6731 1100 2 0.5897 16.830425 51.878165 14.392298
6732 1100 2 0.5897 18.093514 50.843883 14.430934
6733 1101 1 -1.1794 12.182075 92.244747 24.460497
6734 1101 2 0.5897 11.653819 91.989219 23.650774
6735 1101 2 0.5897 12.107140 93.230683 24.609885
6736 1102 1 -1.1794 15.565855 71.828840 25.616203
6737 1102 2 0.5897 15.098128 72.271997 24.851452
6738 1102 2 0.5897 16.553496 71.851476 25.461116
6739 1103 1 -1.1794 9.580310 85.508824 26.473052
6740 1103 2 0.5897 8.702527 85.807952 26.098861
6741 1103 2 0.5897 9.536688 84.532696 26.685822
6742 1104 1 -1.1794 17.877534 94.204039 23.791418
6743 1104 2 0.5897 17.782203 95.199098 23.763649
6744 1104 2 0.5897 17.997693 93.907019 24.738699
6745 1105 1 -1.1794 16.462880 86.541276 8.418918
6746 1105 2 0.5897 15.735517 87.226850 8.449446
6747 1105 2 0.5897 17.018688 86.681271 7.599480
6748 1106 1 -1.1794 3.315591 48.536279 3.851389
6749 1106 2 0.5897 2.876980 48.831318 4.700254
6750 1106 2 0.5897 3.816305 49.303597 3.450755
6751 1107 1 -1.1794 4.401249 61.337279 26.107322
6752 1107 2 0.5897 4.795382 62.255846 26.137234
6753 1107 2 0.5897 3.956306 61.136907 26.980177
6754 1108 1 -1.1794 6.393670 65.234892 32.583072
6755 1108 2 0.5897 7.124430 64.643066 32.242878
6756 1108 2 0.5897 5.730978 65.399744 31.852550
6757 1109 1 -1.1794 5.813423 88.909459 18.849235
6758 1109 2 0.5897 6.793864 89.042817 18.704489
6759 1109 2 0.5897 5.349013 88.864387 17.964763
6760 1110 1 -1.1794 18.484705 86.000097 5.842535
6761 1110 2 0.5897 18.392528 86.993565 5.909791
6762 1110 2 0.5897 19.363531 85.719983 6.228800
6763 1111 1 -1.1794 9.392676 98.320744 32.609728
6764 1111 2 0.5897 8.524332 98.186380 33.087143
6765 1111 2 0.5897 10.105479 98.549998 33.272567
6766 1112 1 -1.1794 2.149217 71.214541 31.753088
6767 1112 2 0.5897 1.431329 71.070661 31.071959
6768 1112 2 0.5897 1.937113 70.689017 32.577003
6769 1113 1 -1.1794 1.729056 50.993919 27.926918
6770 1113 2 0.5897 1.979090 51.605985 27.176680
6771 1113 2 0.5897 2.557889 50.612469 28.336224
6772 1114 1 -1.1794 3.094123 86.585026 15.563856
6773 1114 2 0.5897 2.948406 87.379255 14.973969
6774 1114 2 0.5897 2.751067 86.784198 16.481812
6775 1115 1 -1.1794 17.813979 94.961969 31.730507
6776 1115 2 0.5897 17.565822 95.652601 31.051210
6777 1115 2 0.5897 18.182342 94.155975 31.267169
6778 1116 1 -1.1794 21.724054 76.868409 32.659231
6779 1116 2 0.5897 21.760438 76.156185 33.360241
6780 1116 2 0.5897 21.643220 76.444419 31.757179
6781 1117 1 -1.1794 15.879854 72.139484 5.056361
6782 1117 2 0.5897 15.404246 72.801544 5.635561
6783 1117 2 0.5897 15.644477 71.212220 5.347529
6784 1118 1 -1.1794 4.331754 93.055841 27.705374
6785 1118 2 0.5897 5.002018 92.627124 28.311136
6786 1118 2 0.5897 3.430951 92.652604 27.866474
6787 1119 1 -1.1794 17.002675 87.248548 30.646294
6788 1119 2 0.5897 16.005709 87.320184 30.615840
6789 1119 2 0.5897 17.361744 87.196729 29.714422
6790 1120 1 -1.1794 4.239550 91.117246 20.133476
6791 1120 2 0.5897 5.181424 91.446382 20.066073
6792 1120 2 0.5897 3.699536 91.760938 20.675735
6793 1121 1 -1.1794 19.042019 73.547512 5.255130
6794 1121 2 0.5897 18.104126 73.556032 4.908309
6795 1121 2 0.5897 19.640769 74.020297 4.608623
6796 1122 1 -1.1794 0.925139 87.193784 19.303474
6797 1122 2 0.5897 1.747730 87.418640 18.781185
6798 1122 2 0.5897 0.229031 87.894450 19.146950
6799 1123 1 -1.1794 4.644969 92.550039 31.180457
6800 1123 2 0.5897 5.361704 92.299302 31.831166
6801 1123 2 0.5897 3.812052 92.791151 31.678566
6802 1124 1 -1.1794 11.872670 50.362674 0.691829
6803 1124 2 0.5897 12.001359 50.200144 1.670105
6804 1124 2 0.5897 12.019513 51.331598 0.492773
6805 1125 1 -1.1794 19.842601 65.435875 27.621115
6806 1125 2 0.5897 19.951099 64.832020 28.410791
6807 1125 2 0.5897 20.534704 66.156866 27.655267
6808 1126 1 -1.1794 20.610473 49.034319 3.986406
6809 1126 2 0.5897 21.489265 49.466330 4.189118
6810 1126 2 0.5897 20.171668 49.512402 3.225560
6811 1127 1 -1.1794 7.319485 70.644842 26.824826
6812 1127 2 0.5897 6.669564 70.348727 26.124884
6813 1127 2 0.5897 7.542802 71.609583 26.685529
6814 1128 1 -1.1794 12.469663 63.947463 27.870933
6815 1128 2 0.5897 13.254012 64.023717 27.255317
6816 1128 2 0.5897 11.628619 64.137075 27.364285
6817 1129 1 -1.1794 12.949382 49.153543 30.510190
6818 1129 2 0.5897 13.137773 50.008602 30.027093
6819 1129 2 0.5897 13.691824 48.963010 31.152434
6820 1130 1 -1.1794 0.646370 77.728930 1.240620
6821 1130 2 0.5897 -0.000022 77.389874 0.557086
6822 1130 2 0.5897 0.150488 77.983790 2.070769
6823 1131 1 -1.1794 21.640898 97.676678 9.906761
6824 1131 2 0.5897 20.797605 98.212968 9.942120
6825 1131 2 0.5897 21.519347 96.829884 10.424608
6826 1132 1 -1.1794 14.070577 83.463719 17.807212
6827 1132 2 0.5897 14.899571 83.717131 18.305762
6828 1132 2 0.5897 13.331534 83.287108 18.457307
6829 1133 1 -1.1794 4.125118 66.314980 30.317703
6830 1133 2 0.5897 4.748119 65.859554 29.681733
6831 1133 2 0.5897 3.446272 66.837965 29.802285
6832 1134 1 -1.1794 7.207302 79.685429 16.123846
6833 1134 2 0.5897 6.606327 79.069435 16.633140
6834 1134 2 0.5897 7.751377 80.226151 16.765408
6835 1135 1 -1.1794 18.862546 54.458348 5.586086
6836 1135 2 0.5897 19.742268 54.711582 5.183641
6837 1135 2 0.5897 18.344461 55.285847 5.802497
6838 1136 1 -1.1794 10.910413 69.190590 25.046533
6839 1136 2 0.5897 10.585221 68.245793 25.086644
6840 1136 2 0.5897 10.883272 69.591594 25.962208
6841 1137 1 -1.1794 3.099245 56.022372 1.015667
6842 1137 2 0.5897 2.701888 55.623030 1.841883
6843 1137 2 0.5897 3.291426 56.991058 1.172877
6844 1138 1 -1.1794 20.707609 70.802295 13.557127
6845 1138 2 0.5897 21.637069 70.455353 13.682566
6846 1138 2 0.5897 20.711265 71.799549 13.631092
6847 1139 1 -1.1794 12.040963 98.442716 1.974846
6848 1139 2 0.5897 12.596122 98.550578 2.799566
6849 1139 2 0.5897 12.620103 98.550405 1.166761
6850 1140 1 -1.1794 6.914172 68.613175 28.186321
6851 1140 2 0.5897 6.092737 69.050964 27.820828
6852 1140 2 0.5897 7.482252 68.286941 27.430771
6853 1141 1 -1.1794 20.571824 80.784141 4.351577
6854 1141 2 0.5897 20.421125 81.744116 4.115491
6855 1141 2 0.5897 20.695525 80.699501 5.340280
6856 1142 1 -1.1794 15.564302 67.370069 32.985099
6857 1142 2 0.5897 16.254637 66.752329 32.608491
6858 1142 2 0.5897 14.969291 67.693317 32.249251
6859 1143 1 -1.1794 8.083321 55.144668 10.417177
6860 1143 2 0.5897 8.509464 55.369125 11.293545
6861 1143 2 0.5897 7.606952 54.268684 10.492841
6862 1144 1 -1.1794 15.665319 91.515313 0.429835
6863 1144 2 0.5897 15.873150 90.892484 1.184083
6864 1144 2 0.5897 15.641850 92.455201 0.770511
6865 1145 1 -1.1794 8.128825 70.064155 7.729683
6866 1145 2 0.5897 8.808610 69.420753 7.377651
6867 1145 2 0.5897 7.620043 69.636002 8.476560
6868 1146 1 -1.1794 12.820983 76.613464 24.673626
6869 1146 2 0.5897 12.584303 75.919012 23.994127
6870 1146 2 0.5897 13.475855 76.231927 25.325984
6871 1147 1 -1.1794 8.909922 98.138336 20.725427
6872 1147 2 0.5897 9.769742 97.868147 20.292176
6873 1147 2 0.5897 8.307207 98.550032 20.041876
6874 1148 1 -1.1794 1.935513 56.108542 12.938459
6875 1148 2 0.5897 2.837029 55.833177 12.604629
6876 1148 2 0.5897 1.261016 55.995160 12.208940
6877 1149 1 -1.1794 0.700498 90.191564 17.270959
6878 1149 2 0.5897 0.624160 90.093226 18.263180
6879 1149 2 0.5897 1.114177 91.075881 17.054503
6880 1150 1 -1.1794 6.219323 89.911247 4.767285
6881 1150 2 0.5897 5.863361 89.217568 5.393465
6882 1150 2 0.5897 6.730927 89.465913 4.032481
6883 1151 1 -1.1794 19.410587 54.831217 8.705851
6884 1151 2 0.5897 18.548845 54.565191 8.273843
6885 1151 2 0.5897 19.612122 54.206385 9.460151
6886 1152 1 -1.1794 10.134585 88.810242 31.723432
6887 1152 2 0.5897 10.579321 89.378210 32.415979
6888 1152 2 0.5897 10.776954 88.115849 31.399115
6889 1153 1 -1.1794 8.601428 60.054623 14.403135
6890 1153 2 0.5897 8.787259 59.193335 14.876051
6891 1153 2 0.5897 8.357433 60.756449 15.072394
6892 1154 1 -1.1794 6.491993 72.523491 3.926129
6893 1154 2 0.5897 6.305085 73.088455 4.729797
6894 1154 2 0.5897 6.928914 73.081568 3.220686
6895 1155 1 -1.1794 2.148026 87.156839 4.588434
6896 1155 2 0.5897 2.496475 88.024135 4.232934
6897 1155 2 0.5897 2.872203 86.468019 4.555359
6898 1156 1 -1.1794 6.573687 71.269165 21.784419
6899 1156 2 0.5897 5.714791 71.717043 21.536019
6900 1156 2 0.5897 7.188542 71.266677 20.995783
6901 1157 1 -1.1794 7.229005 78.959294 5.395311
6902 1157 2 0.5897 7.862412 78.360702 5.885703
6903 1157 2 0.5897 6.759633 79.554097 6.047920
6904 1158 1 -1.1794 3.672157 74.778981 14.451461
6905 1158 2 0.5897 4.393053 74.387326 13.879696
6906 1158 2 0.5897 2.951682 75.154758 13.868617
6907 1159 1 -1.1794 4.552417 98.550706 13.822497
6908 1159 2 0.5897 3.613704 98.260093 13.637128
6909 1159 2 0.5897 5.106886 98.432037 12.998797
6910 1160 1 -1.1794 11.229358 93.790645 21.145959
6911 1160 2 0.5897 11.471100 92.996275 21.703218
6912 1160 2 0.5897 11.015887 94.564024 21.742880
6913 1161 1 -1.1794 4.061056 72.029544 11.000662
6914 1161 2 0.5897 4.690228 71.854707 11.758009
6915 1161 2 0.5897 3.134095 72.145576 11.357423
6916 1162 1 -1.1794 14.662060 79.593657 17.668419
6917 1162 2 0.5897 13.858434 79.583591 18.263468
6918 1162 2 0.5897 15.490142 79.531475 18.225565
6919 1163 1 -1.1794 0.316280 95.353081 6.130792
6920 1163 2 0.5897 -0.047810 96.092227 6.697450
6921 1163 2 0.5897 0.714421 94.648200 6.717841
6922 1164 1 -1.1794 4.151835 86.869710 33.078662
6923 1164 2 0.5897 3.437163 87.253600 33.663361
6924 1164 2 0.5897 4.856989 86.447073 33.647992
6925 1165 1 -1.1794 13.100847 89.177222 27.444387
6926 1165 2 0.5897 12.274753 89.667428 27.166419
6927 1165 2 0.5897 13.678139 89.016207 26.643882
6928 1166 1 -1.1794 10.186878 50.994886 11.287359
6929 1166 2 0.5897 10.119345 51.327402 12.228035
6930 1166 2 0.5897 9.290548 50.672960 10.982473
6931 1167 1 -1.1794 6.105371 61.524222 28.626007
6932 1167 2 0.5897 6.457268 62.247685 28.032063
6933 1167 2 0.5897 5.823892 60.742989 28.068831
6934 1168 1 -1.1794 14.694898 57.839940 24.615966
6935 1168 2 0.5897 14.634353 57.468748 25.542546
6936 1168 2 0.5897 13.832837 58.288188 24.379483
6937 1169 1 -1.1794 8.907968 60.236634 28.067121
6938 1169 2 0.5897 9.196441 60.547488 28.972744
6939 1169 2 0.5897 8.395903 59.382241 28.155454
6940 1170 1 -1.1794 19.471044 61.667874 11.030926
6941 1170 2 0.5897 18.863685 61.606676 11.822993
6942 1170 2 0.5897 18.940252 61.539606 10.193188
6943 1171 1 -1.1794 18.678179 76.287252 25.331066
6944 1171 2 0.5897 19.526719 76.602117 24.905814
6945 1171 2 0.5897 18.209897 75.655853 24.712967
6946 1172 1 -1.1794 9.269927 77.833445 31.614513
6947 1172 2 0.5897 8.954346 77.890101 32.561718
6948 1172 2 0.5897 8.716732 78.438697 31.042110
6949 1173 1 -1.1794 16.805028 73.780158 21.813832
6950 1173 2 0.5897 16.151582 74.447398 22.171323
6951 1173 2 0.5897 17.257545 73.315866 22.575186
6952 1174 1 -1.1794 0.851716 82.851257 29.213850
6953 1174 2 0.5897 0.054796 82.863190 28.609884
6954 1174 2 0.5897 1.686843 82.873010 28.664222
6955 1175 3 0 0.328611 78.224455 9.217053
6956 1176 3 0 12.755694 77.194059 17.450590
6957 1177 3 0 14.318125 86.518675 12.388322
6958 1178 3 0 0.125740 83.230830 3.615146
6959 1179 3 0 5.047700 53.197433 3.233096
6960 1180 3 0 4.051604 58.615587 25.641340
6961 1181 3 0 16.234844 69.254656 28.497521
6962 1182 3 0 2.341643 88.174237 0.085316
6963 1183 3 0 1.924150 96.658106 20.947855
6964 1184 3 0 15.575903 51.061374 16.704348
6965 1185 3 0 19.877846 55.106823 27.474899
6966 1186 3 0 9.565494 69.840821 10.167594
6967 1187 3 0 5.550733 77.668998 1.711988
6968 1188 3 0 3.606034 66.323668 24.496970
6969 1189 3 0 7.011737 57.932646 15.187229
6970 1190 3 0 13.238470 59.527465 4.402652
6971 1191 3 0 14.786748 95.508056 20.852712
6972 1192 3 0 19.256625 91.806330 28.425508
6973 1193 3 0 6.616925 76.659968 24.276729
6974 1194 3 0 18.249885 70.776564 13.811981
6975 1195 3 0 15.518095 55.294982 4.155416
6976 1196 3 0 9.968588 48.723273 10.220353
6977 1197 3 0 19.817641 72.132396 32.962693
6978 1198 3 0 16.371606 75.499647 8.435855
6979 1199 3 0 0.204586 58.807948 26.001878
6980 1200 3 0 20.610516 57.342594 15.448850
6981 1201 3 0 5.931431 64.874458 17.261630
6982 1202 3 0 11.860336 88.690688 10.017731
6983 1203 3 0 14.234446 50.464312 6.908566
6984 1204 3 0 3.560830 56.324938 6.751090
6985 1205 3 0 15.854615 76.396052 13.634344
6986 1206 3 0 9.111357 64.539246 20.427824
6987 1207 3 0 4.788685 90.144257 31.522070
6988 1208 3 0 13.257292 58.764594 19.849379
6989 1209 3 0 9.037205 72.032740 19.894690
6990 1210 3 0 16.970356 78.656168 4.314624
6991 1211 3 0 20.739491 62.266734 15.076245
6992 1212 3 0 21.514342 76.499528 4.430048
6993 1213 3 0 13.152978 55.864089 25.284665
6994 1214 3 0 12.312926 65.941399 15.381640
6995 1215 3 0 3.911389 91.183633 8.505030
6996 1216 3 0 9.041992 78.445288 16.789970
6997 1217 3 0 8.867512 64.160224 25.521194
6998 1218 3 0 20.185528 90.563889 21.272989
6999 1219 3 0 4.664909 84.441950 11.283071
7000 1220 3 0 0.624155 72.836353 16.472284
7001 1221 3 0 6.931657 94.392453 20.199117
7002 1222 3 0 18.155776 68.676023 27.594328
7003 1223 3 0 7.811411 92.781176 23.613948
7004 1224 3 0 19.317882 95.052287 8.915401
7005 1225 3 0 12.859862 62.118336 20.687016
7006 1226 3 0 10.506650 55.104105 10.410157
7007 1227 3 0 19.764542 95.726560 31.043733
7008 1228 3 0 3.287128 96.343053 27.140767
7009 1229 3 0 3.524594 77.641714 10.172870
7010 1230 3 0 11.784440 95.430360 10.050138
7011 1231 3 0 15.715646 68.942725 25.832882
7012 1232 3 0 2.142687 78.234840 24.342855
7013 1233 3 0 3.552555 52.196954 15.801766
7014 1234 3 0 3.456189 64.844754 32.455624
7015 1235 3 0 17.015432 63.272546 17.640255
7016 1236 3 0 12.104886 76.546564 15.414197
7017 1237 3 0 12.243868 79.235318 16.810350
7018 1238 3 0 5.844989 64.103641 26.701363
7019 1239 3 0 4.345353 61.717433 5.371942
7020 1240 3 0 16.581696 56.504893 11.389008
7021 1241 3 0 19.479249 58.369160 4.058795
7022 1242 3 0 0.709098 87.110102 2.924734
7023 1243 3 0 5.024365 86.990746 14.075872
7024 1244 3 0 15.588027 81.150756 30.503010
7025 1245 3 0 12.337371 61.942537 33.638195
7026 1246 3 0 11.172912 93.085306 16.070735
7027 1247 3 0 5.845408 56.195259 7.066097
7028 1248 3 0 16.508253 69.896563 19.937274
7029 1249 3 0 10.784013 60.113188 14.797741
7030 1250 3 0 4.889964 76.250707 21.040988
7031 1251 3 0 14.159476 50.831815 0.596575
7032 1252 3 0 19.948833 51.402847 2.002929
7033 1253 3 0 9.220506 93.605812 14.672803
7034 1254 3 0 13.443099 53.829821 18.171766
7035 1255 3 0 16.958465 95.886008 21.042950
7036 1256 3 0 1.039529 67.280121 20.214789
7037 1257 3 0 11.482035 76.133123 21.660014
7038 1258 3 0 8.990743 61.590887 12.877239
7039 1259 3 0 1.981992 74.843376 11.370191
7040 1260 3 0 3.495462 98.424417 28.777362
7041 1261 3 0 16.202434 60.962512 16.741484
7042 1262 3 0 6.970929 87.133296 22.615655
7043 1263 3 0 11.229373 94.132460 18.972635
7044 1264 3 0 17.221207 97.758611 15.397448
7045 1265 3 0 15.912549 66.298677 12.687639
7046 1266 3 0 15.078114 85.316746 19.805199
7047 1267 3 0 10.000874 90.940728 16.534550
7048 1268 3 0 10.588918 77.191947 17.833252
7049 1269 3 0 2.635155 66.772607 2.088088
7050 1270 3 0 10.608453 84.853330 24.643836
7051 1271 3 0 4.966413 48.979006 13.273734
7052 1272 3 0 15.250083 96.682644 8.541768
7053 1273 3 0 2.248268 85.026760 18.985595
7054 1274 3 0 21.775243 64.251700 27.326520
7055 1275 3 0 14.274455 48.959739 23.735336
7056 1276 3 0 15.376955 56.615790 33.662559
7057 1277 3 0 9.595972 75.985870 8.683205
7058 1278 3 0 9.502796 94.749691 9.057476
7059 1279 3 0 3.622149 67.007741 9.771873
7060 1280 3 0 19.258582 69.287495 31.350707
7061 1281 3 0 14.536913 69.098019 9.045077
7062 1282 3 0 1.439103 92.164560 19.315849
7063 1283 3 0 3.627432 81.570554 18.443466
7064 1284 3 0 21.772053 65.673146 17.368485
7065 1285 3 0 1.013920 89.901536 26.953591
7066 1286 3 0 15.417155 78.432863 23.785820
7067 1287 3 0 18.284947 57.699558 32.116516
7068 1288 3 0 8.402008 66.517963 24.669841
7069 1289 3 0 6.696076 77.357689 27.044296
7070 1290 3 0 9.850106 53.955916 12.660862
7071 1291 3 0 19.837054 59.221441 26.406649
7072 1292 3 0 20.098120 97.553114 2.554722
7073 1293 3 0 20.315001 63.596086 11.670007
7074 1294 3 0 21.775018 73.303226 4.795918
7075 1295 3 0 18.139413 55.712678 16.958702
7076 1296 3 0 15.947370 92.144818 16.307630
7077 1297 3 0 9.826434 49.044413 24.062629
7078 1298 3 0 12.866129 74.298939 11.997760
7079 1299 3 0 0.000431 93.506785 4.978007
7080 1300 3 0 18.053383 76.925793 3.494353
7081 1301 3 0 14.850503 52.761049 21.708739
7082 1302 3 0 7.801541 64.493572 7.615971
7083 1303 3 0 9.498156 72.596052 26.477240
7084 1304 3 0 4.019633 61.283377 0.408481
7085 1305 3 0 17.747128 57.610804 1.314894
7086 1306 3 0 13.983308 63.806267 12.185736
7087 1307 3 0 16.843762 60.933039 23.125791
7088 1308 3 0 20.223984 53.670019 20.646016
7089 1309 3 0 15.336501 82.373645 2.229191
7090 1310 3 0 20.638525 64.260076 1.587775
7091 1311 3 0 16.016377 55.861272 14.596652
7092 1312 3 0 9.292470 63.001104 16.165514
7093 1313 3 0 21.299502 68.676004 31.922579
7094 1314 3 0 14.949793 54.117472 26.139555
7095 1315 3 0 6.095573 57.401193 -0.000024
7096 1316 3 0 1.939666 60.390417 2.579756
7097 1317 3 0 1.490403 56.400419 3.527298
7098 1318 3 0 1.510076 86.853299 9.931884
7099 1319 3 0 0.857110 51.006511 32.718522
7100 1320 3 0 20.809382 71.518183 10.260977
7101 1321 3 0 19.582321 50.610958 24.738663
7102 1322 3 0 13.524921 95.115156 6.314520
7103 1323 3 0 10.456096 49.050293 6.409575
7104 1324 3 0 4.476363 88.979285 20.595249
7105 1325 3 0 9.891376 98.580451 5.506811
7106 1326 3 0 9.694589 69.012436 27.752046
7107 1327 3 0 20.940024 89.914997 4.294743
7108 1328 3 0 19.231216 70.909052 11.844146
7109 1329 3 0 21.792397 67.881177 11.421221
7110 1330 3 0 17.613488 84.649078 4.340755
7111 1331 3 0 17.907752 71.474254 5.590205
7112 1332 3 0 8.750769 76.344075 30.080696
7113 1333 3 0 5.542006 54.216287 11.334199
7114 1334 3 0 7.906519 59.370038 0.981840
7115 1335 3 0 19.041183 62.810140 16.916772
7116 1336 3 0 3.544786 61.989129 22.062248
7117 1337 3 0 2.340544 96.139726 30.581522
7118 1338 3 0 15.151222 85.647714 1.810351
7119 1339 3 0 15.120712 75.684223 3.499763
7120 1340 3 0 18.328249 81.476717 2.451010
7121 1341 3 0 12.174987 53.780981 4.846988
7122 1342 3 0 9.123037 54.885688 8.106698
7123 1343 3 0 12.745107 69.645414 1.368231
7124 1344 3 0 21.762293 65.384562 6.750659
7125 1345 3 0 12.534331 96.828651 15.104326
7126 1346 3 0 2.864738 54.987511 33.649461
7127 1347 3 0 18.912411 77.619347 20.099967
7128 1348 3 0 4.298105 65.368776 19.828579
7129 1349 3 0 5.237642 71.720804 13.882458
7130 1350 3 0 16.929358 55.637787 31.553984
7131 1351 3 0 16.171520 90.147016 20.265482
7132 1352 3 0 2.142331 75.601018 22.796025
7133 1353 3 0 14.268565 94.792855 30.671482
7134 1354 3 0 13.205027 57.003557 29.350463
7135 1355 3 0 14.881447 98.379551 14.488677
7136 1356 3 0 3.506525 93.080454 16.655580
7137 1357 3 0 0.415937 62.213216 12.131583
7138 1358 3 0 17.814394 78.033711 24.309461
7139 1359 3 0 17.769838 63.595819 23.435014
7140 1360 3 0 5.550482 72.250578 29.364355
7141 1361 3 0 9.371408 69.737290 23.568234
7142 1362 3 0 7.894777 95.671780 16.745225
7143 1363 3 0 3.353106 69.161185 31.869905
7144 1364 3 0 18.860052 67.468002 2.630769
7145 1365 3 0 16.517320 88.862870 2.157404
7146 1366 3 0 2.981089 92.718620 12.924010
7147 1367 3 0 0.194835 60.944304 23.374978
7148 1368 3 0 2.919242 66.934572 17.192815
7149 1369 3 0 21.632265 90.671265 1.519832
7150 1370 3 0 15.655587 86.011581 3.920472
7151 1371 3 0 1.929372 79.342248 10.775418
7152 1372 3 0 21.029732 92.961498 13.291257
7153 1373 3 0 19.254897 96.792609 26.728735
7154 1374 3 0 3.748975 54.129916 9.805775
7155 1375 4 2.0 9.775646 58.573370 19.308533
7156 1376 4 2.0 8.841016 92.972494 25.548760
7157 1377 4 2.0 10.369019 96.373544 23.131444
7158 1378 4 2.0 7.242115 58.062028 18.558130
7159 1379 4 2.0 13.831252 70.506553 25.357388
7160 1380 4 2.0 6.701451 95.645660 30.844342
7161 1381 4 2.0 13.271929 97.702874 22.067778
7162 1382 4 2.0 5.254967 77.953940 6.172267
7163 1383 4 2.0 3.810616 51.850573 12.977160
7164 1384 4 2.0 5.215479 87.685773 30.913281
7165 1385 4 2.0 19.224908 73.042972 10.194415
7166 1386 4 2.0 20.984447 77.486199 27.106119
7167 1387 4 2.0 1.348585 98.559819 23.825040
7168 1388 4 2.0 5.206169 70.861006 7.961449
7169 1389 4 2.0 10.960381 65.785899 19.300191
7170 1390 4 2.0 11.042277 83.029387 25.979772
7171 1391 5 -1.0 9.882352 67.323455 22.831418
7172 1392 5 -1.0 6.286808 89.219568 9.257520
7173 1393 5 -1.0 12.711381 63.269646 17.491984
7174 1394 5 -1.0 18.812365 91.186066 30.682383
7175 1395 5 -1.0 19.237139 49.401934 20.747304
7176 1396 5 -1.0 6.549090 53.845918 4.713854
7177 1397 5 -1.0 11.468289 60.757573 5.435765
7178 1398 5 -1.0 18.975591 50.723500 8.326980
7179 1399 5 -1.0 10.225907 59.273553 31.135548
7180 1400 5 -1.0 5.022142 49.138524 5.282139
7181 1401 5 -1.0 20.609053 75.179691 2.920584
7182 1402 5 -1.0 12.317255 87.566874 28.720426
7183 1403 5 -1.0 15.824447 79.617523 32.089158
7184 1404 5 -1.0 0.538251 81.522307 10.742355
7185 1405 5 -1.0 15.823782 85.474279 24.126028
7186 1406 5 -1.0 5.575415 63.220641 31.597203
7187 1407 5 -1.0 8.182121 70.762737 32.196250
7188 1408 5 -1.0 10.683842 79.047084 33.691525
7189 1409 5 -1.0 7.104008 52.935511 20.583043
7190 1410 5 -1.0 7.860016 51.567108 8.506116
7191 1411 5 -1.0 15.878629 68.152276 4.960706
7192 1412 5 -1.0 12.832606 67.195781 32.414622
7193 1413 5 -1.0 19.411477 84.766377 33.397470
7194 1414 5 -1.0 6.079007 60.553049 0.664618
7195 1415 5 -1.0 6.225053 93.789919 26.845242
7196 1416 5 -1.0 11.804951 90.405103 7.016197
7197 1417 5 -1.0 6.360541 61.537968 24.768172
7198 1418 5 -1.0 17.013385 90.817179 7.981165
7199 1419 5 -1.0 0.396056 61.642835 1.637108
7200 1420 5 -1.0 14.680193 81.567338 18.741995
7201 1421 5 -1.0 12.414131 70.674367 27.114637
7202 1422 5 -1.0 18.054530 90.097098 21.556911
7203 1423 6 -0.683000 16.787705 97.014838 10.079547
7204 1423 9 0.145000 16.167142 97.244677 11.331172
7205 1423 8 0.040000 15.384712 97.999181 11.217904
7206 1423 8 0.040000 16.914373 97.584672 12.052322
7207 1423 8 0.040000 15.721965 96.311350 11.683744
7208 1423 7 0.418000 17.173362 97.860022 9.792380
7209 1424 6 -0.683000 16.691181 62.578541 15.331398
7210 1424 9 0.145000 15.408527 63.167899 15.440696
7211 1424 8 0.040000 15.103273 63.561504 14.467968
7212 1424 8 0.040000 15.438369 63.973321 16.178538
7213 1424 8 0.040000 14.694260 62.406994 15.763861
7214 1424 7 0.418000 17.303030 63.277239 15.043311
7215 1425 6 -0.683000 14.088042 62.977542 9.655248
7216 1425 9 0.145000 13.876518 61.950393 10.606412
7217 1425 8 0.040000 14.715526 61.922021 11.306102
7218 1425 8 0.040000 13.783981 60.990398 10.092744
7219 1425 8 0.040000 12.954612 62.158146 11.154606
7220 1425 7 0.418000 14.912358 62.765987 9.184844
7221 1426 6 -0.683000 11.015080 77.956809 3.217245
7222 1426 9 0.145000 9.753431 78.593455 3.303352
7223 1426 8 0.040000 9.886479 79.623500 3.643366
7224 1426 8 0.040000 9.115671 78.047179 4.002531
7225 1426 8 0.040000 9.288325 78.595584 2.314787
7226 1426 7 0.418000 11.403251 77.970130 4.108692
7227 1427 6 -0.683000 10.685217 79.606228 8.484638
7228 1427 9 0.145000 11.293622 80.818762 8.889724
7229 1427 8 0.040000 10.575297 81.416409 9.456409
7230 1427 8 0.040000 11.628805 81.371353 8.008644
7231 1427 8 0.040000 12.154116 80.590317 9.522931
7232 1427 7 0.418000 9.925671 79.840827 7.924651
7233 1428 6 -0.683000 3.898837 59.242225 19.478670
7234 1428 9 0.145000 4.127529 59.750525 20.780138
7235 1428 8 0.040000 4.673958 59.010751 21.370437
7236 1428 8 0.040000 3.170886 59.978096 21.256640
7237 1428 8 0.040000 4.721351 60.664511 20.705340
7238 1428 7 0.418000 3.370052 58.432152 19.577170
7239 1429 6 -0.683000 7.125032 53.508989 13.282529
7240 1429 9 0.145000 7.858830 52.313902 13.088114
7241 1429 8 0.040000 8.768931 52.341634 13.692474
7242 1429 8 0.040000 8.113894 52.209887 12.030697
7243 1429 8 0.040000 7.244271 51.465294 13.397582
7244 1429 7 0.418000 7.695512 54.243791 12.999419
7245 1430 6 -0.683000 6.724517 79.790763 30.425742
7246 1430 9 0.145000 7.193452 79.812742 29.090037
7247 1430 8 0.040000 6.902502 80.753539 28.616167
7248 1430 8 0.040000 6.769391 78.969039 28.540178
7249 1430 8 0.040000 8.282912 79.731230 29.094575
7250 1430 7 0.418000 5.755612 79.864590 30.389629
7251 1431 6 -0.683000 15.581368 55.111778 16.741576
7252 1431 9 0.145000 15.459003 53.877577 16.058741
7253 1431 8 0.040000 14.916212 54.030274 15.122597
7254 1431 8 0.040000 14.925099 53.162626 16.689454
7255 1431 8 0.040000 16.457544 53.492174 15.839720
7256 1431 7 0.418000 14.680083 55.428899 16.922276
7257 1432 6 -0.683000 20.837726 65.435833 3.436495
7258 1432 9 0.145000 20.665407 64.160891 4.027527
7259 1432 8 0.040000 20.930532 64.210344 5.086567
7260 1432 8 0.040000 21.299209 63.432505 3.515906
7261 1432 8 0.040000 19.619024 63.862402 3.929673
7262 1432 7 0.418000 21.774994 65.673786 3.538673
7263 1433 6 -0.683000 2.188726 71.049645 13.107829
7264 1433 9 0.145000 1.962798 72.245022 13.832067
7265 1433 8 0.040000 2.728394 72.980125 13.571703
7266 1433 8 0.040000 1.994389 72.034219 14.903781
7267 1433 8 0.040000 0.978222 72.638935 13.569330
7268 1433 7 0.418000 3.069082 70.723903 13.361595
7269 1434 6 -0.683000 11.199712 66.943889 28.975079
7270 1434 9 0.145000 12.582352 66.929810 28.670777
7271 1434 8 0.040000 12.874356 67.896596 28.253210
7272 1434 8 0.040000 12.790123 66.132953 27.952546
7273 1434 8 0.040000 13.146255 66.746396 29.588362
7274 1434 7 0.418000 10.725543 67.108529 28.142259
7275 1435 6 -0.683000 2.137844 78.829227 13.577561
7276 1435 9 0.145000 3.339250 78.941667 14.318150
7277 1435 8 0.040000 3.138171 78.740240 15.373279
7278 1435 8 0.040000 3.748382 79.947956 14.199823
7279 1435 8 0.040000 4.058929 78.211440 13.940765
7280 1435 7 0.418000 1.519195 79.488904 13.934817
7281 1436 6 -0.683000 9.579810 96.153276 29.556218
7282 1436 9 0.145000 10.474848 95.480817 28.689502
7283 1436 8 0.040000 10.170583 94.435986 28.589223
7284 1436 8 0.040000 11.488188 95.539112 29.094163
7285 1436 8 0.040000 10.448323 95.961499 27.708772
7286 1436 7 0.418000 9.625161 95.704719 30.417770
7287 1437 6 -0.683000 6.698447 59.304312 23.107682
7288 1437 9 0.145000 7.950622 59.244554 22.449672
7289 1437 8 0.040000 8.527923 58.402159 22.838770
7290 1437 8 0.040000 8.493789 60.178577 22.612701
7291 1437 8 0.040000 7.783124 59.105147 21.379112
7292 1437 7 0.418000 6.879165 59.428332 24.055043
7293 1438 6 -0.683000 3.026215 96.550789 9.924905
7294 1438 9 0.145000 2.725560 97.331440 11.067131
7295 1438 8 0.040000 3.652852 97.704345 11.509143
7296 1438 8 0.040000 2.182525 96.721883 11.793463
7297 1438 8 0.040000 2.102422 98.176716 10.765805
7298 1438 7 0.418000 3.579593 95.809027 10.223391
7299 1439 6 -0.683000 11.385775 54.385630 -0.001246
7300 1439 9 0.145000 10.142248 54.913983 0.421807
7301 1439 8 0.040000 10.091026 54.898314 1.513336
7302 1439 8 0.040000 9.329563 54.317873 -0.000334
7303 1439 8 0.040000 10.055939 55.944673 0.069930
7304 1439 7 0.418000 11.433591 53.471015 0.325442
7305 1440 6 -0.683000 8.804728 96.285725 5.526974
7306 1440 9 0.145000 8.005205 96.250863 6.694894
7307 1440 8 0.040000 8.109980 97.193627 7.237592
7308 1440 8 0.040000 8.319080 95.417083 7.327586
7309 1440 8 0.040000 6.960515 96.113232 6.406330
7310 1440 7 0.418000 9.725430 96.408678 5.814592
7311 1441 6 -0.683000 0.006718 72.644344 25.009145
7312 1441 9 0.145000 0.842402 73.132733 23.975899
7313 1441 8 0.040000 1.858669 73.259551 24.357243
7314 1441 8 0.040000 0.455526 74.088580 23.614387
7315 1441 8 0.040000 0.850885 72.411738 23.155116
7316 1441 7 0.418000 0.019099 73.304723 25.722782
7317 1442 6 -0.683000 3.622571 62.797550 7.147030
7318 1442 9 0.145000 2.965445 64.048897 7.064535
7319 1442 8 0.040000 3.557625 64.732758 6.451378
7320 1442 8 0.040000 2.837104 64.460878 8.068432
7321 1442 8 0.040000 1.985239 63.905775 6.603773
7322 1442 7 0.418000 4.488655 62.956314 7.559613
7323 1443 6 -0.683000 6.133427 57.217053 11.200236
7324 1443 9 0.145000 6.120345 58.018866 12.367032
7325 1443 8 0.040000 7.066076 57.901071 12.901842
7326 1443 8 0.040000 5.287480 57.718327 13.007360
7327 1443 8 0.040000 5.995649 59.065010 12.077856
7328 1443 7 0.418000 6.245264 56.295099 11.488379
7329 1444 6 -0.683000 5.509231 94.138716 10.575518
7330 1444 9 0.145000 6.449285 93.129466 10.255823
7331 1444 8 0.040000 6.784113 92.638387 11.172903
7332 1444 8 0.040000 7.301199 93.575142 9.736572
7333 1444 8 0.040000 5.972605 92.393474 9.604147
7334 1444 7 0.418000 5.960634 94.776677 11.154114
7335 1445 6 -0.683000 2.046618 73.779632 28.554926
7336 1445 9 0.145000 0.838401 73.093159 28.825956
7337 1445 8 0.040000 -0.002655 73.658600 28.417049
7338 1445 8 0.040000 0.720473 72.973822 29.905705
7339 1445 8 0.040000 0.875958 72.108221 28.354706
7340 1445 7 0.418000 1.983870 74.649271 28.985419
7341 1446 6 -0.683000 0.705021 53.205870 28.190815
7342 1446 9 0.145000 1.894388 53.965766 28.079218
7343 1446 8 0.040000 1.793759 54.888573 28.655938
7344 1446 8 0.040000 2.081534 54.198924 27.028208
7345 1446 8 0.040000 2.728168 53.380775 28.474422
7346 1446 7 0.418000 -0.016574 53.750375 27.832558
7347 1447 6 -0.683000 20.892446 87.836750 28.238505
7348 1447 9 0.145000 20.214306 88.691468 27.336245
7349 1447 8 0.040000 20.386072 89.732682 27.620277
7350 1447 8 0.040000 19.144699 88.468874 27.356238
7351 1447 8 0.040000 20.600590 88.522537 26.328358
7352 1447 7 0.418000 20.528636 88.009203 29.123624
7353 1448 6 -0.683000 14.380033 58.316542 2.074503
7354 1448 9 0.145000 14.023350 58.295150 0.704536
7355 1448 8 0.040000 12.948146 58.463077 0.604331
7356 1448 8 0.040000 14.293931 57.328974 0.271757
7357 1448 8 0.040000 14.563992 59.089211 0.184188
7358 1448 7 0.418000 13.885109 57.601620 2.509783
7359 1449 6 -0.683000 6.091947 82.954979 17.662085
7360 1449 9 0.145000 6.415637 83.644051 18.855774
7361 1449 8 0.040000 5.940543 84.628203 18.849762
7362 1449 8 0.040000 7.500304 83.751729 18.932643
7363 1449 8 0.040000 6.047408 83.069313 19.708812
7364 1449 7 0.418000 6.431020 83.488558 16.923264
7365 1450 6 -0.683000 21.083116 84.506005 12.140639
7366 1450 9 0.145000 20.860340 83.824650 13.361547
7367 1450 8 0.040000 21.781402 83.818315 13.949688
7368 1450 8 0.040000 20.540204 82.800497 13.155077
7369 1450 8 0.040000 20.077521 84.343136 13.920077
7370 1450 7 0.418000 21.782024 84.023184 11.667412
7371 1451 6 -0.683000 8.900684 72.267967 3.871560
7372 1451 9 0.145000 9.411232 73.566807 4.109979
7373 1451 8 0.040000 10.306721 73.724299 3.503679
7374 1451 8 0.040000 9.652309 73.675513 5.170202
7375 1451 8 0.040000 8.652716 74.302967 3.833731
7376 1451 7 0.418000 9.595323 71.636815 4.125838
7377 1452 6 -0.683000 11.012683 65.318449 22.426668
7378 1452 9 0.145000 12.188136 66.018505 22.790976
7379 1452 8 0.040000 12.058291 67.083504 22.583075
7380 1452 8 0.040000 13.036768 65.626689 22.225015
7381 1452 8 0.040000 12.369056 65.877423 23.859130
7382 1452 7 0.418000 10.878122 65.462136 21.474418
7383 1453 6 -0.683000 15.115083 73.829527 19.072372
7384 1453 9 0.145000 15.975726 74.941211 19.239531
7385 1453 8 0.040000 15.776421 75.678304 18.457691
7386 1453 8 0.040000 17.015464 74.609442 19.185864
7387 1453 8 0.040000 15.789161 75.391093 20.217483
7388 1453 7 0.418000 15.303590 73.451423 18.196567
7389 1454 6 -0.683000 1.902910 63.247300 19.408631
7390 1454 9 0.145000 0.839381 62.447032 18.925965
7391 1454 8 0.040000 1.048805 62.142779 17.897434
7392 1454 8 0.040000 -0.092916 63.015534 18.966408
7393 1454 8 0.040000 0.749346 61.558535 19.555296
7394 1454 7 0.418000 1.958387 64.027474 18.830891
7395 1455 6 -0.683000 3.383627 52.292047 31.760140
7396 1455 9 0.145000 3.985633 51.411464 32.691081
7397 1455 8 0.040000 4.833815 51.908557 33.168354
7398 1455 8 0.040000 4.321796 50.508752 32.175220
7399 1455 8 0.040000 3.249467 51.141037 33.451685
7400 1455 7 0.418000 4.060355 52.514198 31.098157
7401 1456 6 -0.683000 10.456312 85.926497 17.959900
7402 1456 9 0.145000 10.832758 84.656371 17.460344
7403 1456 8 0.040000 11.921970 84.598637 17.392618
7404 1456 8 0.040000 10.387174 84.505104 16.474149
7405 1456 8 0.040000 10.470921 83.884384 18.143499
7406 1456 7 0.418000 10.790841 86.590566 17.333294
7407 1457 6 -0.683000 17.043303 87.554462 10.283445
7408 1457 9 0.145000 17.950771 88.270029 9.465547
7409 1457 8 0.040000 18.473417 89.017751 10.067258
7410 1457 8 0.040000 17.404961 88.756803 8.653666
7411 1457 8 0.040000 18.677524 87.570925 9.045222
7412 1457 7 0.418000 16.411211 88.200574 10.641957
7413 1458 6 -0.683000 3.876565 87.421865 6.733218
7414 1458 9 0.145000 4.611574 88.191799 7.666734
7415 1458 8 0.040000 4.348521 89.246888 7.557672
7416 1458 8 0.040000 5.681379 88.052194 7.493433
7417 1458 8 0.040000 4.361852 87.858805 8.676855
7418 1458 7 0.418000 4.118880 87.739888 5.846833
7419 1459 6 -0.683000 0.578784 84.891186 29.985106
7420 1459 9 0.145000 1.733450 85.656998 29.693959
7421 1459 8 0.040000 2.154912 86.049916 30.622555
7422 1459 8 0.040000 1.467266 86.479365 29.025480
7423 1459 8 0.040000 2.470545 85.016318 29.204255
7424 1459 7 0.418000 -0.056678 85.485955 30.418664
7425 1460 6 -0.683000 7.427139 84.203564 31.266130
7426 1460 9 0.145000 7.520466 85.505877 30.718626
7427 1460 8 0.040000 7.354736 85.461150 29.639350
7428 1460 8 0.040000 8.509202 85.920625 30.929321
7429 1460 8 0.040000 6.757002 86.139282 31.176351
7430 1460 7 0.418000 8.116258 83.664951 30.841226
7431 1461 6 -0.683000 6.045174 94.392892 4.132076
7432 1461 9 0.145000 5.040367 93.963886 3.231627
7433 1461 8 0.040000 5.435765 93.970581 2.212844
7434 1461 8 0.040000 4.177181 94.630060 3.303251
7435 1461 8 0.040000 4.736807 92.948145 3.495656
7436 1461 7 0.418000 6.294157 95.296442 3.872967
7437 1462 6 -0.683000 19.452870 72.544760 29.115423
7438 1462 9 0.145000 18.865619 72.552620 30.403664
7439 1462 8 0.040000 18.937412 71.554973 30.843949
7440 1462 8 0.040000 17.818079 72.853590 30.325662
7441 1462 8 0.040000 19.401441 73.266131 31.034049
7442 1462 7 0.418000 18.956708 71.903053 28.579170
7443 1463 6 -0.683000 9.198618 67.561190 30.829215
7444 1463 9 0.145000 7.960283 67.480780 31.510793
7445 1463 8 0.040000 7.399943 68.406971 31.360816
7446 1463 8 0.040000 8.139794 67.319485 32.576517
7447 1463 8 0.040000 7.387395 66.641766 31.108992
7448 1463 7 0.418000 9.684344 68.314071 31.207067
7449 1464 6 -0.683000 10.657823 91.159287 10.695097
7450 1464 9 0.145000 11.968668 91.293429 10.177235
7451 1464 8 0.040000 11.966908 91.051706 9.111462
7452 1464 8 0.040000 12.643540 90.621511 10.713035
7453 1464 8 0.040000 12.300893 92.325171 10.314069
7454 1464 7 0.418000 10.390378 90.234275 10.559603
7455 1465 6 -0.683000 8.321160 66.740168 5.757313
7456 1465 9 0.145000 9.506756 67.514006 5.752203
7457 1465 8 0.040000 10.231578 67.067329 5.067063
7458 1465 8 0.040000 9.921065 67.554079 6.762524
7459 1465 8 0.040000 9.268723 68.526539 5.417976
7460 1465 7 0.418000 8.563734 65.847795 6.057914
7461 1466 6 -0.683000 12.163124 78.727895 21.628890
7462 1466 9 0.145000 10.756272 78.886741 21.623943
7463 1466 8 0.040000 10.482206 79.694057 20.940252
7464 1466 8 0.040000 10.411301 79.117952 22.634658
7465 1466 8 0.040000 10.294720 77.955246 21.287972
7466 1466 7 0.418000 12.544629 79.569725 21.931064
7467 1467 6 -0.683000 13.446221 88.308417 31.262957
7468 1467 9 0.145000 13.141623 89.564026 30.684031
7469 1467 8 0.040000 12.097240 89.815289 30.885115
7470 1467 8 0.040000 13.316196 89.521214 29.606210
7471 1467 8 0.040000 13.788827 90.325332 31.125766
7472 1467 7 0.418000 12.856673 87.653601 30.851638
7473 1468 6 -0.683000 8.025453 57.357145 33.561735
7474 1468 9 0.145000 7.092081 58.263967 33.004078
7475 1468 8 0.040000 6.254475 58.396116 33.693467
7476 1468 8 0.040000 6.732982 57.876352 32.047621
7477 1468 8 0.040000 7.584022 59.226101 32.843201
7478 1468 7 0.418000 7.560499 56.513284 33.693067
7479 1469 6 -0.683000 3.670757 62.019398 29.908054
7480 1469 9 0.145000 4.088940 63.333650 29.588125
7481 1469 8 0.040000 3.580738 63.667863 28.680195
7482 1469 8 0.040000 5.171254 63.346216 29.438308
7483 1469 8 0.040000 3.829942 63.999932 30.414308
7484 1469 7 0.418000 3.913825 61.451478 29.157110
7485 1470 6 -0.683000 5.033590 82.488143 5.123737
7486 1470 9 0.145000 3.768475 81.852725 5.138528
7487 1470 8 0.040000 3.904440 80.768687 5.164570
7488 1470 8 0.040000 3.205688 82.138753 4.246639
7489 1470 8 0.040000 3.221585 82.170659 6.029268
7490 1470 7 0.418000 5.495257 82.186898 4.322708
7491 1471 10 -0.28140000 18.529165 81.160716 15.165735
7492 1471 11 0.22380000 17.076201 81.063343 14.723129
7493 1471 12 -0.25930000 16.944342 80.507793 13.383472
7494 1471 13 -0.03810000 17.470410 81.030324 12.212120
7495 1471 14 -0.04010000 17.103737 80.186298 11.201270
7496 1471 15 -0.22290000 16.363199 79.171906 11.781883
7497 1471 16 0.14660000 16.215711 79.420144 13.091751
7498 1471 17 -0.05690000 15.812020 78.002075 11.111402
7499 1471 18 -0.50700000 16.351554 80.205795 15.588456
7500 1471 19 0.11960000 19.112846 81.804707 14.500662
7501 1471 20 0.11960000 18.996135 80.170581 15.181405
7502 1471 21 0.11960000 18.593726 81.563748 16.182162
7503 1471 22 0.15350000 16.604695 82.051505 14.733101
7504 1471 23 0.22630000 18.043533 81.941791 12.248433
7505 1471 24 0.22900000 17.272158 80.177427 10.137966
7506 1471 25 0.26750000 15.614111 78.839930 13.784419
7507 1471 26 0.13150000 16.061583 78.019542 10.047595
7508 1471 27 0.13150000 14.725170 78.008527 11.232233
7509 1471 28 0.13150000 16.232011 77.102623 11.570829
7510 1471 29 0.40570000 16.917936 79.988124 16.349218
7511 1472 10 -0.28140000 12.703928 70.131605 21.310820
7512 1472 11 0.22380000 13.385516 69.279477 20.249784
7513 1472 12 -0.25930000 12.444084 68.774721 19.260020
7514 1472 13 -0.03810000 11.350946 67.955327 19.495590
7515 1472 14 -0.04010000 10.752215 67.735110 18.286593
7516 1472 15 -0.22290000 11.495827 68.424812 17.345397
7517 1472 16 0.14660000 12.556900 68.989334 17.940855
7518 1472 17 -0.05690000 11.206509 68.543165 15.922676
7519 1472 18 -0.50700000 14.344351 70.045504 19.540466
7520 1472 19 0.11960000 11.945822 69.564723 21.860048
7521 1472 20 0.11960000 12.219181 71.001525 20.855919
7522 1472 21 0.11960000 13.439621 70.510918 22.028179
7523 1472 22 0.15350000 13.890993 68.424374 20.710406
7524 1472 23 0.22630000 11.136889 67.632616 20.500876
7525 1472 24 0.22900000 9.890515 67.171688 17.971811
7526 1472 25 0.26750000 13.357790 69.522943 17.438662
7527 1472 26 0.13150000 10.292739 67.998280 15.672879
7528 1472 27 0.13150000 12.046027 68.127396 15.358559
7529 1472 28 0.13150000 11.080302 69.601327 15.676015
7530 1472 29 0.40570000 14.445529 70.902521 19.990149
7531 1473 10 -0.28140000 8.679244 85.678742 11.411172
7532 1473 11 0.22380000 7.536722 84.738680 11.768120
7533 1473 12 -0.25930000 6.754817 84.353877 10.601391
7534 1473 13 -0.03810000 6.054389 85.199555 9.755177
7535 1473 14 -0.04010000 5.473296 84.413022 8.800009
7536 1473 15 -0.22290000 5.833467 83.108654 9.088796
7537 1473 16 0.14660000 6.549354 83.083659 10.222821
7538 1473 17 -0.05690000 5.506433 81.921742 8.310247
7539 1473 18 -0.50700000 8.040240 83.538583 12.329841
7540 1473 19 0.11960000 8.314409 86.606087 10.958782
7541 1473 20 0.11960000 9.367755 85.200996 10.706625
7542 1473 21 0.11960000 9.258493 85.934226 12.304998
7543 1473 22 0.15350000 6.863966 85.209609 12.492348
7544 1473 23 0.22630000 6.060296 86.260551 9.941759
7545 1473 24 0.22900000 4.844446 84.613077 7.949371
7546 1473 25 0.26750000 6.896916 82.191938 10.735065
7547 1473 26 0.13150000 4.915617 82.192916 7.431798
7548 1473 27 0.13150000 4.932005 81.236767 8.940107
7549 1473 28 0.13150000 6.436637 81.442500 7.991618
7550 1473 29 0.40570000 8.993910 83.650503 12.487692
7551 1474 10 -0.28140000 14.654221 83.165805 23.658249
7552 1474 11 0.22380000 13.736988 82.828154 24.824937
7553 1474 12 -0.25930000 14.109953 81.579917 25.475709
7554 1474 13 -0.03810000 14.157435 80.322157 24.894644
7555 1474 14 -0.04010000 14.558375 79.450189 25.868075
7556 1474 15 -0.22290000 14.744075 80.198209 27.017196
7557 1474 16 0.14660000 14.399259 81.472747 26.781007
7558 1474 17 -0.05690000 15.234155 79.715619 28.301243
7559 1474 18 -0.50700000 13.807160 83.837298 25.817911
7560 1474 19 0.11960000 14.629693 82.390482 22.886237
7561 1474 20 0.11960000 15.688590 83.278027 23.999072
7562 1474 21 0.11960000 14.359874 84.117360 23.202585
7563 1474 22 0.15350000 12.699630 82.741847 24.485349
7564 1474 23 0.22630000 13.899166 80.208146 23.855000
7565 1474 24 0.22900000 14.733781 78.388271 25.893025
7566 1474 25 0.26750000 14.364203 82.268426 27.518588
7567 1474 26 0.13150000 15.447014 78.644945 28.250045
7568 1474 27 0.13150000 14.468973 79.900480 29.060327
7569 1474 28 0.13150000 16.149053 80.258614 28.555401
7570 1474 29 0.40570000 14.319426 84.583632 25.460842
7571 1475 10 -0.28140000 4.258634 72.816723 16.426256
7572 1475 11 0.22380000 4.627045 74.220282 16.885362
7573 1475 12 -0.25930000 4.970872 74.264881 18.299752
7574 1475 13 -0.03810000 4.153059 73.919770 19.364613
7575 1475 14 -0.04010000 4.883011 74.112297 20.504241
7576 1475 15 -0.22290000 6.126126 74.570430 20.105143
7577 1475 16 0.14660000 6.138378 74.725402 18.772866
7578 1475 17 -0.05690000 7.267784 74.852792 20.964642
7579 1475 18 -0.50700000 5.762883 74.689893 16.179224
7580 1475 19 0.11960000 3.393709 72.426260 16.971392
7581 1475 20 0.11960000 5.097038 72.128448 16.574682
7582 1475 21 0.11960000 4.023938 72.812964 15.356382
7583 1475 22 0.15350000 3.795815 74.911575 16.712007
7584 1475 23 0.22630000 3.149549 73.577704 19.173510
7585 1475 24 0.22900000 4.677050 73.984805 21.553233
7586 1475 25 0.26750000 6.951074 75.147365 18.189914
7587 1475 26 0.13150000 7.017115 74.652768 22.009356
7588 1475 27 0.13150000 7.541494 75.905243 20.849261
7589 1475 28 0.13150000 8.103321 74.215676 20.660603
7590 1475 29 0.40570000 5.960254 74.061179 15.463199
7591 1476 5 -1.0 4.321395 67.259519 15.128947
7592 1477 5 -1.0 3.944952 80.875927 16.184506
7593 1478 5 -1.0 11.912675 59.081209 11.976509
7594 1479 5 -1.0 8.008676 88.066354 31.726809
7595 1480 5 -1.0 5.340447 59.639748 16.859653
7596 1481 30 0.10820000 3.100493 50.601418 0.996416
7597 1481 31 0.03560000 1.782122 50.094246 1.592035
7598 1481 32 0.46770000 1.132962 51.206526 2.440638
7599 1481 33 -0.47280000 -0.007597 51.614520 2.271041
7600 1481 34 -0.54600000 1.928270 51.657507 3.437111
7601 1481 35 -0.81230000 0.855126 49.653156 0.523553
7602 1481 36 -0.72310000 3.986298 50.992540 2.054720
7603 1481 37 0.10400000 2.934816 51.471180 0.351085
7604 1481 38 0.10400000 3.594876 49.814403 0.416780
7605 1481 39 0.15790000 1.968661 49.248644 2.265509
7606 1481 40 0.48340000 2.845675 51.297630 3.349351
7607 1481 41 0.32740000 0.571401 50.479951 -0.010425
7608 1481 42 0.32740000 -0.017740 49.368756 0.979760
7609 1481 43 0.43860000 4.705166 51.500883 1.631074

Bonds

1 1 1 2
2 1 1 3
4 1 4 5
6 1 4 6
8 1 7 8
10 1 7 9
12 1 10 11
14 1 10 12
16 1 13 14
18 1 13 15
19 1 16 17
3 1 16 18
5 1 19 20
7 1 19 21
9 1 22 23
11 1 22 24
13 1 25 26
15 1 25 27
17 1 28 29
20 1 28 30
21 1 31 32
22 1 31 33
23 1 34 35
24 1 34 36
25 1 37 38
26 1 37 39
27 1 40 41
28 1 40 42
29 1 43 44
30 1 43 45
31 1 46 47
32 1 46 48
33 1 49 50
34 1 49 51
35 1 52 53
36 1 52 54
37 1 55 56
38 1 55 57
39 1 58 59
40 1 58 60
41 1 61 62
42 1 61 63
43 1 64 65
44 1 64 66
45 1 67 68
46 1 67 69
47 1 70 71
48 1 70 72
49 1 73 74
50 1 73 75
51 1 76 77
52 1 76 78
53 1 79 80
54 1 79 81
55 1 82 83
56 1 82 84
57 1 85 86
58 1 85 87
59 1 88 89
60 1 88 90
61 1 91 92
62 1 91 93
63 1 94 95
64 1 94 96
65 1 97 98
66 1 97 99
67 1 100 101
68 1 100 102
69 1 103 104
70 1 103 105
71 1 106 107
72 1 106 108
73 1 109 110
74 1 109 111
75 1 112 113
76 1 112 114
77 1 115 116
78 1 115 117
79 1 118 119
80 1 118 120
81 1 121 122
82 1 121 123
83 1 124 125
84 1 124 126
85 1 127 128
86 1 127 129
87 1 130 131
88 1 130 132
89 1 133 134
90 1 133 135
91 1 136 137
92 1 136 138
93 1 147 148
94 1 147 149
96 1 150 151
98 1 150 152
100 1 153 154
102 1 153 155
104 1 156 157
106 1 156 158
108 1 159 160
110 1 159 161
111 1 162 163
95 1 162 164
97 1 165 166
99 1 165 167
101 1 168 169
103 1 168 170
105 1 171 172
107 1 171 173
109 1 174 175
112 1 174 176
113 1 177 178
114 1 177 179
115 1 180 181
116 1 180 182
117 1 183 184
118 1 183 185
119 1 186 187
120 1 186 188
121 1 189 190
122 1 189 191
123 1 192 193
124 1 192 194
125 1 195 196
126 1 195 197
127 1 198 199
128 1 198 200
129 1 201 202
130 1 201 203
131 1 204 205
132 1 204 206
133 1 207 208
134 1 207 209
135 1 210 211
136 1 210 212
137 1 213 214
138 1 213 215
139 1 216 217
140 1 216 218
141 1 219 220
142 1 219 221
143 1 222 223
144 1 222 224
145 1 225 226
146 1 225 227
147 1 228 229
148 1 228 230
149 1 231 232
150 1 231 233
151 1 234 235
152 1 234 236
153 1 237 238
154 1 237 239
155 1 240 241
156 1 240 242
157 1 243 244
158 1 243 245
159 1 246 247
160 1 246 248
161 1 249 250
162 1 249 251
163 1 252 253
164 1 252 254
165 1 255 256
166 1 255 257
167 1 258 259
168 1 258 260
169 1 261 262
170 1 261 263
171 1 264 265
172 1 264 266
173 1 267 268
174 1 267 269
175 1 270 271
176 1 270 272
177 1 273 274
178 1 273 275
179 1 276 277
180 1 276 278
181 1 279 280
182 1 279 281
183 1 282 283
184 1 282 284
185 1 293 294
186 1 293 295
188 1 296 297
190 1 296 298
192 1 299 300
194 1 299 301
196 1 302 303
198 1 302 304
200 1 305 306
202 1 305 307
203 1 308 309
187 1 308 310
189 1 311 312
191 1 311 313
193 1 314 315
195 1 314 316
197 1 317 318
199 1 317 319
201 1 320 321
204 1 320 322
205 1 323 324
206 1 323 325
207 1 326 327
208 1 326 328
209 1 329 330
210 1 329 331
211 1 332 333
212 1 332 334
213 1 335 336
214 1 335 337
215 1 338 339
216 1 338 340
217 1 341 342
218 1 341 343
219 1 344 345
220 1 344 346
221 1 347 348
222 1 347 349
223 1 350 351
224 1 350 352
225 1 353 354
226 1 353 355
227 1 356 357
228 1 356 358
229 1 359 360
230 1 359 361
231 1 362 363
232 1 362 364
233 1 365 366
234 1 365 367
235 1 368 369
236 1 368 370
237 1 371 372
238 1 371 373
239 1 374 375
240 1 374 376
241 1 377 378
242 1 377 379
243 1 380 381
244 1 380 382
245 1 383 384
246 1 383 385
247 1 386 387
248 1 386 388
249 1 389 390
250 1 389 391
251 1 392 393
252 1 392 394
253 1 395 396
254 1 395 397
255 1 398 399
256 1 398 400
257 1 401 402
258 1 401 403
259 1 404 405
260 1 404 406
261 1 407 408
262 1 407 409
263 1 410 411
264 1 410 412
265 1 413 414
266 1 413 415
267 1 416 417
268 1 416 418
269 1 419 420
270 1 419 421
271 1 422 423
272 1 422 424
273 1 425 426
274 1 425 427
275 1 428 429
276 1 428 430
277 1 439 440
278 1 439 441
280 1 442 443
282 1 442 444
284 1 445 446
286 1 445 447
288 1 448 449
290 1 448 450
292 1 451 452
294 1 451 453
295 1 454 455
279 1 454 456
281 1 457 458
283 1 457 459
285 1 460 461
287 1 460 462
289 1 463 464
291 1 463 465
293 1 466 467
296 1 466 468
297 1 469 470
298 1 469 471
299 1 472 473
300 1 472 474
301 1 475 476
302 1 475 477
303 1 478 479
304 1 478 480
305 1 481 482
306 1 481 483
307 1 484 485
308 1 484 486
309 1 487 488
310 1 487 489
311 1 490 491
312 1 490 492
313 1 493 494
314 1 493 495
315 1 496 497
316 1 496 498
317 1 499 500
318 1 499 501
319 1 502 503
320 1 502 504
321 1 505 506
322 1 505 507
323 1 508 509
324 1 508 510
325 1 511 512
326 1 511 513
327 1 514 515
328 1 514 516
329 1 517 518
330 1 517 519
331 1 520 521
332 1 520 522
333 1 523 524
334 1 523 525
335 1 526 527
336 1 526 528
337 1 529 530
338 1 529 531
339 1 532 533
340 1 532 534
341 1 535 536
342 1 535 537
343 1 538 539
344 1 538 540
345 1 541 542
346 1 541 543
347 1 544 545
348 1 544 546
349 1 547 548
350 1 547 549
351 1 550 551
352 1 550 552
353 1 553 554
354 1 553 555
355 1 556 557
356 1 556 558
357 1 559 560
358 1 559 561
359 1 562 563
360 1 562 564
361 1 565 566
362 1 565 567
363 1 568 569
364 1 568 570
365 1 571 572
366 1 571 573
367 1 574 575
368 1 574 576
369 1 585 586
370 1 585 587
372 1 588 589
374 1 588 590
376 1 591 592
378 1 591 593
380 1 594 595
382 1 594 596
384 1 597 598
386 1 597 599
387 1 600 601
371 1 600 602
373 1 603 604
375 1 603 605
377 1 606 607
379 1 606 608
381 1 609 610
383 1 609 611
385 1 612 613
388 1 612 614
389 1 615 616
390 1 615 617
391 1 618 619
392 1 618 620
393 1 621 622
394 1 621 623
395 1 624 625
396 1 624 626
397 1 627 628
398 1 627 629
399 1 630 631
400 1 630 632
401 1 633 634
402 1 633 635
403 1 636 637
404 1 636 638
405 1 639 640
406 1 639 641
407 1 642 643
408 1 642 644
409 1 645 646
410 1 645 647
411 1 648 649
412 1 648 650
413 1 651 652
414 1 651 653
415 1 654 655
416 1 654 656
417 1 657 658
418 1 657 659
419 1 660 661
420 1 660 662
421 1 663 664
422 1 663 665
423 1 666 667
424 1 666 668
425 1 669 670
426 1 669 671
427 1 672 673
428 1 672 674
429 1 675 676
430 1 675 677
431 1 678 679
432 1 678 680
433 1 681 682
434 1 681 683
435 1 684 685
436 1 684 686
437 1 687 688
438 1 687 689
439 1 690 691
440 1 690 692
441 1 693 694
442 1 693 695
443 1 696 697
444 1 696 698
445 1 699 700
446 1 699 701
447 1 702 703
448 1 702 704
449 1 705 706
450 1 705 707
451 1 708 709
452 1 708 710
453 1 711 712
454 1 711 713
455 1 714 715
456 1 714 716
457 1 717 718
458 1 717 719
459 1 720 721
460 1 720 722
461 1 731 732
462 1 731 733
464 1 734 735
466 1 734 736
468 1 737 738
470 1 737 739
472 1 740 741
474 1 740 742
476 1 743 744
478 1 743 745
479 1 746 747
463 1 746 748
465 1 749 750
467 1 749 751
469 1 752 753
471 1 752 754
473 1 755 756
475 1 755 757
477 1 758 759
480 1 758 760
481 1 761 762
482 1 761 763
483 1 764 765
484 1 764 766
485 1 767 768
486 1 767 769
487 1 770 771
488 1 770 772
489 1 773 774
490 1 773 775
491 1 776 777
492 1 776 778
493 1 779 780
494 1 779 781
495 1 782 783
496 1 782 784
497 1 785 786
498 1 785 787
499 1 788 789
500 1 788 790
501 1 791 792
502 1 791 793
503 1 794 795
504 1 794 796
505 1 797 798
506 1 797 799
507 1 800 801
508 1 800 802
509 1 803 804
510 1 803 805
511 1 806 807
512 1 806 808
513 1 809 810
514 1 809 811
515 1 812 813
516 1 812 814
517 1 815 816
518 1 815 817
519 1 818 819
520 1 818 820
521 1 821 822
522 1 821 823
523 1 824 825
524 1 824 826
525 1 827 828
526 1 827 829
527 1 830 831
528 1 830 832
529 1 833 834
530 1 833 835
531 1 836 837
532 1 836 838
533 1 839 840
534 1 839 841
535 1 842 843
536 1 842 844
537 1 845 846
538 1 845 847
539 1 848 849
540 1 848 850
541 1 851 852
542 1 851 853
543 1 854 855
544 1 854 856
545 1 857 858
546 1 857 859
547 1 860 861
548 1 860 862
549 1 863 864
550 1 863 865
551 1 866 867
552 1 866 868
553 1 877 878
554 1 877 879
556 1 880 881
558 1 880 882
560 1 883 884
562 1 883 885
564 1 886 887
566 1 886 888
568 1 889 890
570 1 889 891
571 1 892 893
555 1 892 894
557 1 895 896
559 1 895 897
561 1 898 899
563 1 898 900
565 1 901 902
567 1 901 903
569 1 904 905
572 1 904 906
573 1 907 908
574 1 907 909
575 1 910 911
576 1 910 912
577 1 913 914
578 1 913 915
579 1 916 917
580 1 916 918
581 1 919 920
582 1 919 921
583 1 922 923
584 1 922 924
585 1 925 926
586 1 925 927
587 1 928 929
588 1 928 930
589 1 931 932
590 1 931 933
591 1 934 935
592 1 934 936
593 1 937 938
594 1 937 939
595 1 940 941
596 1 940 942
597 1 943 944
598 1 943 945
599 1 946 947
600 1 946 948
601 1 949 950
602 1 949 951
603 1 952 953
604 1 952 954
605 1 955 956
606 1 955 957
607 1 958 959
608 1 958 960
609 1 961 962
610 1 961 963
611 1 964 965
612 1 964 966
613 1 967 968
614 1 967 969
615 1 970 971
616 1 970 972
617 1 973 974
618 1 973 975
619 1 976 977
620 1 976 978
621 1 979 980
622 1 979 981
623 1 982 983
624 1 982 984
625 1 985 986
626 1 985 987
627 1 988 989
628 1 988 990
629 1 991 992
630 1 991 993
631 1 994 995
632 1 994 996
633 1 997 998
634 1 997 999
635 1 1000 1001
636 1 1000 1002
637 1 1003 1004
638 1 1003 1005
639 1 1006 1007
640 1 1006 1008
641 1 1009 1010
642 1 1009 1011
643 1 1012 1013
644 1 1012 1014
645 1 1023 1024
646 1 1023 1025
648 1 1026 1027
650 1 1026 1028
652 1 1029 1030
654 1 1029 1031
656 1 1032 1033
658 1 1032 1034
660 1 1035 1036
662 1 1035 1037
663 1 1038 1039
647 1 1038 1040
649 1 1041 1042
651 1 1041 1043
653 1 1044 1045
655 1 1044 1046
657 1 1047 1048
659 1 1047 1049
661 1 1050 1051
664 1 1050 1052
665 1 1053 1054
666 1 1053 1055
667 1 1056 1057
668 1 1056 1058
669 1 1059 1060
670 1 1059 1061
671 1 1062 1063
672 1 1062 1064
673 1 1065 1066
674 1 1065 1067
675 1 1068 1069
676 1 1068 1070
677 1 1071 1072
678 1 1071 1073
679 1 1074 1075
680 1 1074 1076
681 1 1077 1078
682 1 1077 1079
683 1 1080 1081
684 1 1080 1082
685 1 1083 1084
686 1 1083 1085
687 1 1086 1087
688 1 1086 1088
689 1 1089 1090
690 1 1089 1091
691 1 1092 1093
692 1 1092 1094
693 1 1095 1096
694 1 1095 1097
695 1 1098 1099
696 1 1098 1100
697 1 1101 1102
698 1 1101 1103
699 1 1104 1105
700 1 1104 1106
701 1 1107 1108
702 1 1107 1109
703 1 1110 1111
704 1 1110 1112
705 1 1113 1114
706 1 1113 1115
707 1 1116 1117
708 1 1116 1118
709 1 1119 1120
710 1 1119 1121
711 1 1122 1123
712 1 1122 1124
713 1 1125 1126
714 1 1125 1127
715 1 1128 1129
716 1 1128 1130
717 1 1131 1132
718 1 1131 1133
719 1 1134 1135
720 1 1134 1136
721 1 1137 1138
722 1 1137 1139
723 1 1140 1141
724 1 1140 1142
725 1 1143 1144
726 1 1143 1145
727 1 1146 1147
728 1 1146 1148
729 1 1149 1150
730 1 1149 1151
731 1 1152 1153
732 1 1152 1154
733 1 1155 1156
734 1 1155 1157
735 1 1158 1159
736 1 1158 1160
737 1 1169 1170
738 1 1169 1171
740 1 1172 1173
742 1 1172 1174
744 1 1175 1176
746 1 1175 1177
748 1 1178 1179
750 1 1178 1180
752 1 1181 1182
754 1 1181 1183
755 1 1184 1185
739 1 1184 1186
741 1 1187 1188
743 1 1187 1189
745 1 1190 1191
747 1 1190 1192
749 1 1193 1194
751 1 1193 1195
753 1 1196 1197
756 1 1196 1198
757 1 1199 1200
758 1 1199 1201
759 1 1202 1203
760 1 1202 1204
761 1 1205 1206
762 1 1205 1207
763 1 1208 1209
764 1 1208 1210
765 1 1211 1212
766 1 1211 1213
767 1 1214 1215
768 1 1214 1216
769 1 1217 1218
770 1 1217 1219
771 1 1220 1221
772 1 1220 1222
773 1 1223 1224
774 1 1223 1225
775 1 1226 1227
776 1 1226 1228
777 1 1229 1230
778 1 1229 1231
779 1 1232 1233
780 1 1232 1234
781 1 1235 1236
782 1 1235 1237
783 1 1238 1239
784 1 1238 1240
785 1 1241 1242
786 1 1241 1243
787 1 1244 1245
788 1 1244 1246
789 1 1247 1248
790 1 1247 1249
791 1 1250 1251
792 1 1250 1252
793 1 1253 1254
794 1 1253 1255
795 1 1256 1257
796 1 1256 1258
797 1 1259 1260
798 1 1259 1261
799 1 1262 1263
800 1 1262 1264
801 1 1265 1266
802 1 1265 1267
803 1 1268 1269
804 1 1268 1270
805 1 1271 1272
806 1 1271 1273
807 1 1274 1275
808 1 1274 1276
809 1 1277 1278
810 1 1277 1279
811 1 1280 1281
812 1 1280 1282
813 1 1283 1284
814 1 1283 1285
815 1 1286 1287
816 1 1286 1288
817 1 1289 1290
818 1 1289 1291
819 1 1292 1293
820 1 1292 1294
821 1 1295 1296
822 1 1295 1297
823 1 1298 1299
824 1 1298 1300
825 1 1301 1302
826 1 1301 1303
827 1 1304 1305
828 1 1304 1306
829 1 1315 1316
830 1 1315 1317
832 1 1318 1319
834 1 1318 1320
836 1 1321 1322
838 1 1321 1323
840 1 1324 1325
842 1 1324 1326
844 1 1327 1328
846 1 1327 1329
847 1 1330 1331
831 1 1330 1332
833 1 1333 1334
835 1 1333 1335
837 1 1336 1337
839 1 1336 1338
841 1 1339 1340
843 1 1339 1341
845 1 1342 1343
848 1 1342 1344
849 1 1345 1346
850 1 1345 1347
851 1 1348 1349
852 1 1348 1350
853 1 1351 1352
854 1 1351 1353
855 1 1354 1355
856 1 1354 1356
857 1 1357 1358
858 1 1357 1359
859 1 1360 1361
860 1 1360 1362
861 1 1363 1364
862 1 1363 1365
863 1 1366 1367
864 1 1366 1368
865 1 1369 1370
866 1 1369 1371
867 1 1372 1373
868 1 1372 1374
869 1 1375 1376
870 1 1375 1377
871 1 1378 1379
872 1 1378 1380
873 1 1381 1382
874 1 1381 1383
875 1 1384 1385
876 1 1384 1386
877 1 1387 1388
878 1 1387 1389
879 1 1390 1391
880 1 1390 1392
881 1 1393 1394
882 1 1393 1395
883 1 1396 1397
884 1 1396 1398
885 1 1399 1400
886 1 1399 1401
887 1 1402 1403
888 1 1402 1404
889 1 1405 1406
890 1 1405 1407
891 1 1408 1409
892 1 1408 1410
893 1 1411 1412
894 1 1411 1413
895 1 1414 1415
896 1 1414 1416
897 1 1417 1418
898 1 1417 1419
899 1 1420 1421
900 1 1420 1422
901 1 1423 1424
902 1 1423 1425
903 1 1426 1427
904 1 1426 1428
905 1 1429 1430
906 1 1429 1431
907 1 1432 1433
908 1 1432 1434
909 1 1435 1436
910 1 1435 1437
911 1 1438 1439
912 1 1438 1440
913 1 1441 1442
914 1 1441 1443
915 1 1444 1445
916 1 1444 1446
917 1 1447 1448
918 1 1447 1449
919 1 1450 1451
920 1 1450 1452
921 1 1461 1462
922 1 1461 1463
924 1 1464 1465
926 1 1464 1466
928 1 1467 1468
930 1 1467 1469
932 1 1470 1471
934 1 1470 1472
936 1 1473 1474
938 1 1473 1475
939 1 1476 1477
923 1 1476 1478
925 1 1479 1480
927 1 1479 1481
929 1 1482 1483
931 1 1482 1484
933 1 1485 1486
935 1 1485 1487
937 1 1488 1489
940 1 1488 1490
941 1 1491 1492
942 1 1491 1493
943 1 1494 1495
944 1 1494 1496
945 1 1497 1498
946 1 1497 1499
947 1 1500 1501
948 1 1500 1502
949 1 1503 1504
950 1 1503 1505
951 1 1506 1507
952 1 1506 1508
953 1 1509 1510
954 1 1509 1511
955 1 1512 1513
956 1 1512 1514
957 1 1515 1516
958 1 1515 1517
959 1 1518 1519
960 1 1518 1520
961 1 1521 1522
962 1 1521 1523
963 1 1524 1525
964 1 1524 1526
965 1 1527 1528
966 1 1527 1529
967 1 1530 1531
968 1 1530 1532
969 1 1533 1534
970 1 1533 1535
971 1 1536 1537
972 1 1536 1538
973 1 1539 1540
974 1 1539 1541
975 1 1542 1543
976 1 1542 1544
977 1 1545 1546
978 1 1545 1547
979 1 1548 1549
980 1 1548 1550
981 1 1551 1552
982 1 1551 1553
983 1 1554 1555
984 1 1554 1556
985 1 1557 1558
986 1 1557 1559
987 1 1560 1561
988 1 1560 1562
989 1 1563 1564
990 1 1563 1565
991 1 1566 1567
992 1 1566 1568
993 1 1569 1570
994 1 1569 1571
995 1 1572 1573
996 1 1572 1574
997 1 1575 1576
998 1 1575 1577
999 1 1578 1579
1000 1 1578 1580
1001 1 1581 1582
1002 1 1581 1583
1003 1 1584 1585
1004 1 1584 1586
1005 1 1587 1588
1006 1 1587 1589
1007 1 1590 1591
1008 1 1590 1592
1009 1 1593 1594
1010 1 1593 1595
1011 1 1596 1597
1012 1 1596 1598
1013 1 1607 1608
1014 1 1607 1609
1016 1 1610 1611
1018 1 1610 1612
1020 1 1613 1614
1022 1 1613 1615
1024 1 1616 1617
1026 1 1616 1618
1028 1 1619 1620
1030 1 1619 1621
1031 1 1622 1623
1015 1 1622 1624
1017 1 1625 1626
1019 1 1625 1627
1021 1 1628 1629
1023 1 1628 1630
1025 1 1631 1632
1027 1 1631 1633
1029 1 1634 1635
1032 1 1634 1636
1033 1 1637 1638
1034 1 1637 1639
1035 1 1640 1641
1036 1 1640 1642
1037 1 1643 1644
1038 1 1643 1645
1039 1 1646 1647
1040 1 1646 1648
1041 1 1649 1650
1042 1 1649 1651
1043 1 1652 1653
1044 1 1652 1654
1045 1 1655 1656
1046 1 1655 1657
1047 1 1658 1659
1048 1 1658 1660
1049 1 1661 1662
1050 1 1661 1663
1051 1 1664 1665
1052 1 1664 1666
1053 1 1667 1668
1054 1 1667 1669
1055 1 1670 1671
1056 1 1670 1672
1057 1 1673 1674
1058 1 1673 1675
1059 1 1676 1677
1060 1 1676 1678
1061 1 1679 1680
1062 1 1679 1681
1063 1 1682 1683
1064 1 1682 1684
1065 1 1685 1686
1066 1 1685 1687
1067 1 1688 1689
1068 1 1688 1690
1069 1 1691 1692
1070 1 1691 1693
1071 1 1694 1695
1072 1 1694 1696
1073 1 1697 1698
1074 1 1697 1699
1075 1 1700 1701
1076 1 1700 1702
1077 1 1703 1704
1078 1 1703 1705
1079 1 1706 1707
1080 1 1706 1708
1081 1 1709 1710
1082 1 1709 1711
1083 1 1712 1713
1084 1 1712 1714
1085 1 1715 1716
1086 1 1715 1717
1087 1 1718 1719
1088 1 1718 1720
1089 1 1721 1722
1090 1 1721 1723
1091 1 1724 1725
1092 1 1724 1726
1093 1 1727 1728
1094 1 1727 1729
1095 1 1730 1731
1096 1 1730 1732
1097 1 1733 1734
1098 1 1733 1735
1099 1 1736 1737
1100 1 1736 1738
1101 1 1739 1740
1102 1 1739 1741
1103 1 1742 1743
1104 1 1742 1744
1105 1 1753 1754
1106 1 1753 1755
1108 1 1756 1757
1110 1 1756 1758
1112 1 1759 1760
1114 1 1759 1761
1116 1 1762 1763
1118 1 1762 1764
1120 1 1765 1766
1122 1 1765 1767
1123 1 1768 1769
1107 1 1768 1770
1109 1 1771 1772
1111 1 1771 1773
1113 1 1774 1775
1115 1 1774 1776
1117 1 1777 1778
1119 1 1777 1779
1121 1 1780 1781
1124 1 1780 1782
1125 1 1783 1784
1126 1 1783 1785
1127 1 1786 1787
1128 1 1786 1788
1129 1 1789 1790
1130 1 1789 1791
1131 1 1792 1793
1132 1 1792 1794
1133 1 1795 1796
1134 1 1795 1797
1135 1 1798 1799
1136 1 1798 1800
1137 1 1801 1802
1138 1 1801 1803
1139 1 1804 1805
1140 1 1804 1806
1141 1 1807 1808
1142 1 1807 1809
1143 1 1810 1811
1144 1 1810 1812
1145 1 1813 1814
1146 1 1813 1815
1147 1 1816 1817
1148 1 1816 1818
1149 1 1819 1820
1150 1 1819 1821
1151 1 1822 1823
1152 1 1822 1824
1153 1 1825 1826
1154 1 1825 1827
1155 1 1828 1829
1156 1 1828 1830
1157 1 1831 1832
1158 1 1831 1833
1159 1 1834 1835
1160 1 1834 1836
1161 1 1837 1838
1162 1 1837 1839
1163 1 1840 1841
1164 1 1840 1842
1165 1 1843 1844
1166 1 1843 1845
1167 1 1846 1847
1168 1 1846 1848
1169 1 1849 1850
1170 1 1849 1851
1171 1 1852 1853
1172 1 1852 1854
1173 1 1855 1856
1174 1 1855 1857
1175 1 1858 1859
1176 1 1858 1860
1177 1 1861 1862
1178 1 1861 1863
1179 1 1864 1865
1180 1 1864 1866
1181 1 1867 1868
1182 1 1867 1869
1183 1 1870 1871
1184 1 1870 1872
1185 1 1873 1874
1186 1 1873 1875
1187 1 1876 1877
1188 1 1876 1878
1189 1 1879 1880
1190 1 1879 1881
1191 1 1882 1883
1192 1 1882 1884
1193 1 1885 1886
1194 1 1885 1887
1195 1 1888 1889
1196 1 1888 1890
1197 1 1899 1900
1198 1 1899 1901
1200 1 1902 1903
1202 1 1902 1904
1204 1 1905 1906
1206 1 1905 1907
1208 1 1908 1909
1210 1 1908 1910
1212 1 1911 1912
1214 1 1911 1913
1215 1 1914 1915
1199 1 1914 1916
1201 1 1917 1918
1203 1 1917 1919
1205 1 1920 1921
1207 1 1920 1922
1209 1 1923 1924
1211 1 1923 1925
1213 1 1926 1927
1216 1 1926 1928
1217 1 1929 1930
1218 1 1929 1931
1219 1 1932 1933
1220 1 1932 1934
1221 1 1935 1936
1222 1 1935 1937
1223 1 1938 1939
1224 1 1938 1940
1225 1 1941 1942
1226 1 1941 1943
1227 1 1944 1945
1228 1 1944 1946
1229 1 1947 1948
1230 1 1947 1949
1231 1 1950 1951
1232 1 1950 1952
1233 1 1953 1954
1234 1 1953 1955
1235 1 1956 1957
1236 1 1956 1958
1237 1 1959 1960
1238 1 1959 1961
1239 1 1962 1963
1240 1 1962 1964
1241 1 1965 1966
1242 1 1965 1967
1243 1 1968 1969
1244 1 1968 1970
1245 1 1971 1972
1246 1 1971 1973
1247 1 1974 1975
1248 1 1974 1976
1249 1 1977 1978
1250 1 1977 1979
1251 1 1980 1981
1252 1 1980 1982
1253 1 1983 1984
1254 1 1983 1985
1255 1 1986 1987
1256 1 1986 1988
1257 1 1989 1990
1258 1 1989 1991
1259 1 1992 1993
1260 1 1992 1994
1261 1 1995 1996
1262 1 1995 1997
1263 1 1998 1999
1264 1 1998 2000
1265 1 2001 2002
1266 1 2001 2003
1267 1 2004 2005
1268 1 2004 2006
1269 1 2007 2008
1270 1 2007 2009
1271 1 2010 2011
1272 1 2010 2012
1273 1 2013 2014
1274 1 2013 2015
1275 1 2016 2017
1276 1 2016 2018
1277 1 2019 2020
1278 1 2019 2021
1279 1 2022 2023
1280 1 2022 2024
1281 1 2025 2026
1282 1 2025 2027
1283 1 2028 2029
1284 1 2028 2030
1285 1 2031 2032
1286 1 2031 2033
1287 1 2034 2035
1288 1 2034 2036
1289 1 2045 2046
1290 1 2045 2047
1292 1 2048 2049
1294 1 2048 2050
1296 1 2051 2052
1298 1 2051 2053
1300 1 2054 2055
1302 1 2054 2056
1304 1 2057 2058
1306 1 2057 2059
1307 1 2060 2061
1291 1 2060 2062
1293 1 2063 2064
1295 1 2063 2065
1297 1 2066 2067
1299 1 2066 2068
1301 1 2069 2070
1303 1 2069 2071
1305 1 2072 2073
1308 1 2072 2074
1309 1 2075 2076
1310 1 2075 2077
1311 1 2078 2079
1312 1 2078 2080
1313 1 2081 2082
1314 1 2081 2083
1315 1 2084 2085
1316 1 2084 2086
1317 1 2087 2088
1318 1 2087 2089
1319 1 2090 2091
1320 1 2090 2092
1321 1 2093 2094
1322 1 2093 2095
1323 1 2096 2097
1324 1 2096 2098
1325 1 2099 2100
1326 1 2099 2101
1327 1 2102 2103
1328 1 2102 2104
1329 1 2105 2106
1330 1 2105 2107
1331 1 2108 2109
1332 1 2108 2110
1333 1 2111 2112
1334 1 2111 2113
1335 1 2114 2115
1336 1 2114 2116
1337 1 2117 2118
1338 1 2117 2119
1339 1 2120 2121
1340 1 2120 2122
1341 1 2123 2124
1342 1 2123 2125
1343 1 2126 2127
1344 1 2126 2128
1345 1 2129 2130
1346 1 2129 2131
1347 1 2132 2133
1348 1 2132 2134
1349 1 2135 2136
1350 1 2135 2137
1351 1 2138 2139
1352 1 2138 2140
1353 1 2141 2142
1354 1 2141 2143
1355 1 2144 2145
1356 1 2144 2146
1357 1 2147 2148
1358 1 2147 2149
1359 1 2150 2151
1360 1 2150 2152
1361 1 2153 2154
1362 1 2153 2155
1363 1 2156 2157
1364 1 2156 2158
1365 1 2159 2160
1366 1 2159 2161
1367 1 2162 2163
1368 1 2162 2164
1369 1 2165 2166
1370 1 2165 2167
1371 1 2168 2169
1372 1 2168 2170
1373 1 2171 2172
1374 1 2171 2173
1375 1 2174 2175
1376 1 2174 2176
1377 1 2177 2178
1378 1 2177 2179
1379 1 2180 2181
1380 1 2180 2182
1381 1 2191 2192
1382 1 2191 2193
1384 1 2194 2195
1386 1 2194 2196
1388 1 2197 2198
1390 1 2197 2199
1392 1 2200 2201
1394 1 2200 2202
1396 1 2203 2204
1398 1 2203 2205
1399 1 2206 2207
1383 1 2206 2208
1385 1 2209 2210
1387 1 2209 2211
1389 1 2212 2213
1391 1 2212 2214
1393 1 2215 2216
1395 1 2215 2217
1397 1 2218 2219
1400 1 2218 2220
1401 1 2221 2222
1402 1 2221 2223
1403 1 2224 2225
1404 1 2224 2226
1405 1 2227 2228
1406 1 2227 2229
1407 1 2230 2231
1408 1 2230 2232
1409 1 2233 2234
1410 1 2233 2235
1411 1 2236 2237
1412 1 2236 2238
1413 1 2239 2240
1414 1 2239 2241
1415 1 2242 2243
1416 1 2242 2244
1417 1 2245 2246
1418 1 2245 2247
1419 1 2248 2249
1420 1 2248 2250
1421 1 2251 2252
1422 1 2251 2253
1423 1 2254 2255
1424 1 2254 2256
1425 1 2257 2258
1426 1 2257 2259
1427 1 2260 2261
1428 1 2260 2262
1429 1 2263 2264
1430 1 2263 2265
1431 1 2266 2267
1432 1 2266 2268
1433 1 2269 2270
1434 1 2269 2271
1435 1 2272 2273
1436 1 2272 2274
1437 1 2275 2276
1438 1 2275 2277
1439 1 2278 2279
1440 1 2278 2280
1441 1 2281 2282
1442 1 2281 2283
1443 1 2284 2285
1444 1 2284 2286
1445 1 2287 2288
1446 1 2287 2289
1447 1 2290 2291
1448 1 2290 2292
1449 1 2293 2294
1450 1 2293 2295
1451 1 2296 2297
1452 1 2296 2298
1453 1 2299 2300
1454 1 2299 2301
1455 1 2302 2303
1456 1 2302 2304
1457 1 2305 2306
1458 1 2305 2307
1459 1 2308 2309
1460 1 2308 2310
1461 1 2311 2312
1462 1 2311 2313
1463 1 2314 2315
1464 1 2314 2316
1465 1 2317 2318
1466 1 2317 2319
1467 1 2320 2321
1468 1 2320 2322
1469 1 2323 2324
1470 1 2323 2325
1471 1 2326 2327
1472 1 2326 2328
1473 1 2337 2338
1474 1 2337 2339
1476 1 2340 2341
1478 1 2340 2342
1480 1 2343 2344
1482 1 2343 2345
1484 1 2346 2347
1486 1 2346 2348
1488 1 2349 2350
1490 1 2349 2351
1491 1 2352 2353
1475 1 2352 2354
1477 1 2355 2356
1479 1 2355 2357
1481 1 2358 2359
1483 1 2358 2360
1485 1 2361 2362
1487 1 2361 2363
1489 1 2364 2365
1492 1 2364 2366
1493 1 2367 2368
1494 1 2367 2369
1495 1 2370 2371
1496 1 2370 2372
1497 1 2373 2374
1498 1 2373 2375
1499 1 2376 2377
1500 1 2376 2378
1501 1 2379 2380
1502 1 2379 2381
1503 1 2382 2383
1504 1 2382 2384
1505 1 2385 2386
1506 1 2385 2387
1507 1 2388 2389
1508 1 2388 2390
1509 1 2391 2392
1510 1 2391 2393
1511 1 2394 2395
1512 1 2394 2396
1513 1 2397 2398
1514 1 2397 2399
1515 1 2400 2401
1516 1 2400 2402
1517 1 2403 2404
1518 1 2403 2405
1519 1 2406 2407
1520 1 2406 2408
1521 1 2409 2410
1522 1 2409 2411
1523 1 2412 2413
1524 1 2412 2414
1525 1 2415 2416
1526 1 2415 2417
1527 1 2418 2419
1528 1 2418 2420
1529 1 2421 2422
1530 1 2421 2423
1531 1 2424 2425
1532 1 2424 2426
1533 1 2427 2428
1534 1 2427 2429
1535 1 2430 2431
1536 1 2430 2432
1537 1 2433 2434
1538 1 2433 2435
1539 1 2436 2437
1540 1 2436 2438
1541 1 2439 2440
1542 1 2439 2441
1543 1 2442 2443
1544 1 2442 2444
1545 1 2445 2446
1546 1 2445 2447
1547 1 2448 2449
1548 1 2448 2450
1549 1 2451 2452
1550 1 2451 2453
1551 1 2454 2455
1552 1 2454 2456
1553 1 2457 2458
1554 1 2457 2459
1555 1 2460 2461
1556 1 2460 2462
1557 1 2463 2464
1558 1 2463 2465
1559 1 2466 2467
1560 1 2466 2468
1561 1 2469 2470
1562 1 2469 2471
1563 1 2472 2473
1564 1 2472 2474
1565 1 2483 2484
1566 1 2483 2485
1568 1 2486 2487
1570 1 2486 2488
1572 1 2489 2490
1574 1 2489 2491
1576 1 2492 2493
1578 1 2492 2494
1580 1 2495 2496
1582 1 2495 2497
1583 1 2498 2499
1567 1 2498 2500
1569 1 2501 2502
1571 1 2501 2503
1573 1 2504 2505
1575 1 2504 2506
1577 1 2507 2508
1579 1 2507 2509
1581 1 2510 2511
1584 1 2510 2512
1585 1 2513 2514
1586 1 2513 2515
1587 1 2516 2517
1588 1 2516 2518
1589 1 2519 2520
1590 1 2519 2521
1591 1 2522 2523
1592 1 2522 2524
1593 1 2525 2526
1594 1 2525 2527
1595 1 2528 2529
1596 1 2528 2530
1597 1 2531 2532
1598 1 2531 2533
1599 1 2534 2535
1600 1 2534 2536
1601 1 2537 2538
1602 1 2537 2539
1603 1 2540 2541
1604 1 2540 2542
1605 1 2543 2544
1606 1 2543 2545
1607 1 2546 2547
1608 1 2546 2548
1609 1 2549 2550
1610 1 2549 2551
1611 1 2552 2553
1612 1 2552 2554
1613 1 2555 2556
1614 1 2555 2557
1615 1 2558 2559
1616 1 2558 2560
1617 1 2561 2562
1618 1 2561 2563
1619 1 2564 2565
1620 1 2564 2566
1621 1 2567 2568
1622 1 2567 2569
1623 1 2570 2571
1624 1 2570 2572
1625 1 2573 2574
1626 1 2573 2575
1627 1 2576 2577
1628 1 2576 2578
1629 1 2579 2580
1630 1 2579 2581
1631 1 2582 2583
1632 1 2582 2584
1633 1 2585 2586
1634 1 2585 2587
1635 1 2588 2589
1636 1 2588 2590
1637 1 2591 2592
1638 1 2591 2593
1639 1 2594 2595
1640 1 2594 2596
1641 1 2597 2598
1642 1 2597 2599
1643 1 2600 2601
1644 1 2600 2602
1645 1 2603 2604
1646 1 2603 2605
1647 1 2606 2607
1648 1 2606 2608
1649 1 2609 2610
1650 1 2609 2611
1651 1 2612 2613
1652 1 2612 2614
1653 1 2615 2616
1654 1 2615 2617
1655 1 2618 2619
1656 1 2618 2620
1657 1 2629 2630
1658 1 2629 2631
1660 1 2632 2633
1662 1 2632 2634
1664 1 2635 2636
1666 1 2635 2637
1668 1 2638 2639
1670 1 2638 2640
1672 1 2641 2642
1674 1 2641 2643
1675 1 2644 2645
1659 1 2644 2646
1661 1 2647 2648
1663 1 2647 2649
1665 1 2650 2651
1667 1 2650 2652
1669 1 2653 2654
1671 1 2653 2655
1673 1 2656 2657
1676 1 2656 2658
1677 1 2659 2660
1678 1 2659 2661
1679 1 2662 2663
1680 1 2662 2664
1681 1 2665 2666
1682 1 2665 2667
1683 1 2668 2669
1684 1 2668 2670
1685 1 2671 2672
1686 1 2671 2673
1687 1 2674 2675
1688 1 2674 2676
1689 1 2677 2678
1690 1 2677 2679
1691 1 2680 2681
1692 1 2680 2682
1693 1 2683 2684
1694 1 2683 2685
1695 1 2686 2687
1696 1 2686 2688
1697 1 2689 2690
1698 1 2689 2691
1699 1 2692 2693
1700 1 2692 2694
1701 1 2695 2696
1702 1 2695 2697
1703 1 2698 2699
1704 1 2698 2700
1705 1 2701 2702
1706 1 2701 2703
1707 1 2704 2705
1708 1 2704 2706
1709 1 2707 2708
1710 1 2707 2709
1711 1 2710 2711
1712 1 2710 2712
1713 1 2713 2714
1714 1 2713 2715
1715 1 2716 2717
1716 1 2716 2718
1717 1 2719 2720
1718 1 2719 2721
1719 1 2722 2723
1720 1 2722 2724
1721 1 2725 2726
1722 1 2725 2727
1723 1 2728 2729
1724 1 2728 2730
1725 1 2731 2732
1726 1 2731 2733
1727 1 2734 2735
1728 1 2734 2736
1729 1 2737 2738
1730 1 2737 2739
1731 1 2740 2741
1732 1 2740 2742
1733 1 2743 2744
1734 1 2743 2745
1735 1 2746 2747
1736 1 2746 2748
1737 1 2749 2750
1738 1 2749 2751
1739 1 2752 2753
1740 1 2752 2754
1741 1 2755 2756
1742 1 2755 2757
1743 1 2758 2759
1744 1 2758 2760
1745 1 2761 2762
1746 1 2761 2763
1747 1 2764 2765
1748 1 2764 2766
1749 1 2775 2776
1750 1 2775 2777
1752 1 2778 2779
1754 1 2778 2780
1756 1 2781 2782
1758 1 2781 2783
1760 1 2784 2785
1762 1 2784 2786
1764 1 2787 2788
1766 1 2787 2789
1767 1 2790 2791
1751 1 2790 2792
1753 1 2793 2794
1755 1 2793 2795
1757 1 2796 2797
1759 1 2796 2798
1761 1 2799 2800
1763 1 2799 2801
1765 1 2802 2803
1768 1 2802 2804
1769 1 2805 2806
1770 1 2805 2807
1771 1 2808 2809
1772 1 2808 2810
1773 1 2811 2812
1774 1 2811 2813
1775 1 2814 2815
1776 1 2814 2816
1777 1 2817 2818
1778 1 2817 2819
1779 1 2820 2821
1780 1 2820 2822
1781 1 2823 2824
1782 1 2823 2825
1783 1 2826 2827
1784 1 2826 2828
1785 1 2829 2830
1786 1 2829 2831
1787 1 2832 2833
1788 1 2832 2834
1789 1 2835 2836
1790 1 2835 2837
1791 1 2838 2839
1792 1 2838 2840
1793 1 2841 2842
1794 1 2841 2843
1795 1 2844 2845
1796 1 2844 2846
1797 1 2847 2848
1798 1 2847 2849
1799 1 2850 2851
1800 1 2850 2852
1801 1 2853 2854
1802 1 2853 2855
1803 1 2856 2857
1804 1 2856 2858
1805 1 2859 2860
1806 1 2859 2861
1807 1 2862 2863
1808 1 2862 2864
1809 1 2865 2866
1810 1 2865 2867
1811 1 2868 2869
1812 1 2868 2870
1813 1 2871 2872
1814 1 2871 2873
1815 1 2874 2875
1816 1 2874 2876
1817 1 2877 2878
1818 1 2877 2879
1819 1 2880 2881
1820 1 2880 2882
1821 1 2883 2884
1822 1 2883 2885
1823 1 2886 2887
1824 1 2886 2888
1825 1 2889 2890
1826 1 2889 2891
1827 1 2892 2893
1828 1 2892 2894
1829 1 2895 2896
1830 1 2895 2897
1831 1 2898 2899
1832 1 2898 2900
1833 1 2901 2902
1834 1 2901 2903
1835 1 2904 2905
1836 1 2904 2906
1837 1 2907 2908
1838 1 2907 2909
1839 1 2910 2911
1840 1 2910 2912
1841 1 2921 2922
1842 1 2921 2923
1844 1 2924 2925
1846 1 2924 2926
1848 1 2927 2928
1850 1 2927 2929
1852 1 2930 2931
1854 1 2930 2932
1856 1 2933 2934
1858 1 2933 2935
1859 1 2936 2937
1843 1 2936 2938
1845 1 2939 2940
1847 1 2939 2941
1849 1 2942 2943
1851 1 2942 2944
1853 1 2945 2946
1855 1 2945 2947
1857 1 2948 2949
1860 1 2948 2950
1861 1 2951 2952
1862 1 2951 2953
1863 1 2954 2955
1864 1 2954 2956
1865 1 2957 2958
1866 1 2957 2959
1867 1 2960 2961
1868 1 2960 2962
1869 1 2963 2964
1870 1 2963 2965
1871 1 2966 2967
1872 1 2966 2968
1873 1 2969 2970
1874 1 2969 2971
1875 1 2972 2973
1876 1 2972 2974
1877 1 2975 2976
1878 1 2975 2977
1879 1 2978 2979
1880 1 2978 2980
1881 1 2981 2982
1882 1 2981 2983
1883 1 2984 2985
1884 1 2984 2986
1885 1 2987 2988
1886 1 2987 2989
1887 1 2990 2991
1888 1 2990 2992
1889 1 2993 2994
1890 1 2993 2995
1891 1 2996 2997
1892 1 2996 2998
1893 1 2999 3000
1894 1 2999 3001
1895 1 3002 3003
1896 1 3002 3004
1897 1 3005 3006
1898 1 3005 3007
1899 1 3008 3009
1900 1 3008 3010
1901 1 3011 3012
1902 1 3011 3013
1903 1 3014 3015
1904 1 3014 3016
1905 1 3017 3018
1906 1 3017 3019
1907 1 3020 3021
1908 1 3020 3022
1909 1 3023 3024
1910 1 3023 3025
1911 1 3026 3027
1912 1 3026 3028
1913 1 3029 3030
1914 1 3029 3031
1915 1 3032 3033
1916 1 3032 3034
1917 1 3035 3036
1918 1 3035 3037
1919 1 3038 3039
1920 1 3038 3040
1921 1 3041 3042
1922 1 3041 3043
1923 1 3044 3045
1924 1 3044 3046
1925 1 3047 3048
1926 1 3047 3049
1927 1 3050 3051
1928 1 3050 3052
1929 1 3053 3054
1930 1 3053 3055
1931 1 3056 3057
1932 1 3056 3058
1933 1 3067 3068
1934 1 3067 3069
1936 1 3070 3071
1938 1 3070 3072
1940 1 3073 3074
1942 1 3073 3075
1944 1 3076 3077
1946 1 3076 3078
1948 1 3079 3080
1950 1 3079 3081
1951 1 3082 3083
1935 1 3082 3084
1937 1 3085 3086
1939 1 3085 3087
1941 1 3088 3089
1943 1 3088 3090
1945 1 3091 3092
1947 1 3091 3093
1949 1 3094 3095
1952 1 3094 3096
1953 1 3097 3098
1954 1 3097 3099
1955 1 3100 3101
1956 1 3100 3102
1957 1 3103 3104
1958 1 3103 3105
1959 1 3106 3107
1960 1 3106 3108
1961 1 3109 3110
1962 1 3109 3111
1963 1 3112 3113
1964 1 3112 3114
1965 1 3115 3116
1966 1 3115 3117
1967 1 3118 3119
1968 1 3118 3120
1969 1 3121 3122
1970 1 3121 3123
1971 1 3124 3125
1972 1 3124 3126
1973 1 3127 3128
1974 1 3127 3129
1975 1 3130 3131
1976 1 3130 3132
1977 1 3133 3134
1978 1 3133 3135
1979 1 3136 3137
1980 1 3136 3138
1981 1 3139 3140
1982 1 3139 3141
1983 1 3142 3143
1984 1 3142 3144
1985 1 3145 3146
1986 1 3145 3147
1987 1 3148 3149
1988 1 3148 3150
1989 1 3151 3152
1990 1 3151 3153
1991 1 3154 3155
1992 1 3154 3156
1993 1 3157 3158
1994 1 3157 3159
1995 1 3160 3161
1996 1 3160 3162
1997 1 3163 3164
1998 1 3163 3165
1999 1 3166 3167
2000 1 3166 3168
2001 1 3169 3170
2002 1 3169 3171
2003 1 3172 3173
2004 1 3172 3174
2005 1 3175 3176
2006 1 3175 3177
2007 1 3178 3179
2008 1 3178 3180
2009 1 3181 3182
2010 1 3181 3183
2011 1 3184 3185
2012 1 3184 3186
2013 1 3187 3188
2014 1 3187 3189
2015 1 3190 3191
2016 1 3190 3192
2017 1 3193 3194
2018 1 3193 3195
2019 1 3196 3197
2020 1 3196 3198
2021 1 3199 3200
2022 1 3199 3201
2023 1 3202 3203
2024 1 3202 3204
2025 1 3213 3214
2026 1 3213 3215
2028 1 3216 3217
2030 1 3216 3218
2032 1 3219 3220
2034 1 3219 3221
2036 1 3222 3223
2038 1 3222 3224
2040 1 3225 3226
2042 1 3225 3227
2043 1 3228 3229
2027 1 3228 3230
2029 1 3231 3232
2031 1 3231 3233
2033 1 3234 3235
2035 1 3234 3236
2037 1 3237 3238
2039 1 3237 3239
2041 1 3240 3241
2044 1 3240 3242
2045 1 3243 3244
2046 1 3243 3245
2047 1 3246 3247
2048 1 3246 3248
2049 1 3249 3250
2050 1 3249 3251
2051 1 3252 3253
2052 1 3252 3254
2053 1 3255 3256
2054 1 3255 3257
2055 1 3258 3259
2056 1 3258 3260
2057 1 3261 3262
2058 1 3261 3263
2059 1 3264 3265
2060 1 3264 3266
2061 1 3267 3268
2062 1 3267 3269
2063 1 3270 3271
2064 1 3270 3272
2065 1 3273 3274
2066 1 3273 3275
2067 1 3276 3277
2068 1 3276 3278
2069 1 3279 3280
2070 1 3279 3281
2071 1 3282 3283
2072 1 3282 3284
2073 1 3285 3286
2074 1 3285 3287
2075 1 3288 3289
2076 1 3288 3290
2077 1 3291 3292
2078 1 3291 3293
2079 1 3294 3295
2080 1 3294 3296
2081 1 3297 3298
2082 1 3297 3299
2083 1 3300 3301
2084 1 3300 3302
2085 1 3303 3304
2086 1 3303 3305
2087 1 3306 3307
2088 1 3306 3308
2089 1 3309 3310
2090 1 3309 3311
2091 1 3312 3313
2092 1 3312 3314
2093 1 3315 3316
2094 1 3315 3317
2095 1 3318 3319
2096 1 3318 3320
2097 1 3321 3322
2098 1 3321 3323
2099 1 3324 3325
2100 1 3324 3326
2101 1 3327 3328
2102 1 3327 3329
2103 1 3330 3331
2104 1 3330 3332
2105 1 3333 3334
2106 1 3333 3335
2107 1 3336 3337
2108 1 3336 3338
2109 1 3339 3340
2110 1 3339 3341
2111 1 3342 3343
2112 1 3342 3344
2113 1 3345 3346
2114 1 3345 3347
2115 1 3348 3349
2116 1 3348 3350
2117 1 3359 3360
2118 1 3359 3361
2120 1 3362 3363
2122 1 3362 3364
2124 1 3365 3366
2126 1 3365 3367
2128 1 3368 3369
2130 1 3368 3370
2132 1 3371 3372
2134 1 3371 3373
2135 1 3374 3375
2119 1 3374 3376
2121 1 3377 3378
2123 1 3377 3379
2125 1 3380 3381
2127 1 3380 3382
2129 1 3383 3384
2131 1 3383 3385
2133 1 3386 3387
2136 1 3386 3388
2137 1 3389 3390
2138 1 3389 3391
2139 1 3392 3393
2140 1 3392 3394
2141 1 3395 3396
2142 1 3395 3397
2143 1 3398 3399
2144 1 3398 3400
2145 1 3401 3402
2146 1 3401 3403
2147 1 3404 3405
2148 1 3404 3406
2149 1 3407 3408
2150 1 3407 3409
2151 1 3410 3411
2152 1 3410 3412
2153 1 3413 3414
2154 1 3413 3415
2155 1 3416 3417
2156 1 3416 3418
2157 1 3419 3420
2158 1 3419 3421
2159 1 3422 3423
2160 1 3422 3424
2161 1 3425 3426
2162 1 3425 3427
2163 1 3428 3429
2164 1 3428 3430
2165 1 3431 3432
2166 1 3431 3433
2167 1 3434 3435
2168 1 3434 3436
2169 1 3437 3438
2170 1 3437 3439
2171 1 3440 3441
2172 1 3440 3442
2173 1 3443 3444
2174 1 3443 3445
2175 1 3446 3447
2176 1 3446 3448
2177 1 3449 3450
2178 1 3449 3451
2179 1 3452 3453
2180 1 3452 3454
2181 1 3455 3456
2182 1 3455 3457
2183 1 3458 3459
2184 1 3458 3460
2185 1 3461 3462
2186 1 3461 3463
2187 1 3464 3465
2188 1 3464 3466
2189 1 3467 3468
2190 1 3467 3469
2191 1 3470 3471
2192 1 3470 3472
2193 1 3473 3474
2194 1 3473 3475
2195 1 3476 3477
2196 1 3476 3478
2197 1 3479 3480
2198 1 3479 3481
2199 1 3482 3483
2200 1 3482 3484
2201 1 3485 3486
2202 1 3485 3487
2203 1 3488 3489
2204 1 3488 3490
2205 1 3491 3492
2206 1 3491 3493
2207 1 3494 3495
2208 1 3494 3496
2209 1 3505 3506
2210 1 3505 3507
2211 1 3508 3509
2212 1 3508 3510
2213 1 3511 3512
2214 1 3511 3513
2215 1 3514 3515
2216 1 3514 3516
2217 1 3517 3518
2218 1 3517 3519
2219 1 3520 3521
2220 1 3520 3522
2221 1 3523 3524
2222 1 3523 3525
2223 1 3526 3527
2224 1 3526 3528
2225 1 3529 3530
2226 1 3529 3531
2227 1 3532 3533
2228 1 3532 3534
2229 1 3535 3536
2230 1 3535 3537
2231 1 3538 3539
2232 1 3538 3540
2233 1 3541 3542
2234 1 3541 3543
2235 1 3544 3545
2236 1 3544 3546
2237 1 3547 3548
2238 1 3547 3549
2239 1 3550 3551
2240 1 3550 3552
2241 1 3553 3554
2242 1 3553 3555
2243 1 3556 3557
2244 1 3556 3558
2245 1 3559 3560
2246 1 3559 3561
2247 1 3562 3563
2248 1 3562 3564
2249 1 3565 3566
2250 1 3565 3567
2251 1 3568 3569
2252 1 3568 3570
2253 1 3571 3572
2254 1 3571 3573
2255 1 3574 3575
2256 1 3574 3576
2257 1 3577 3578
2258 1 3577 3579
2259 1 3580 3581
2260 1 3580 3582
2261 1 3583 3584
2262 1 3583 3585
2263 1 3586 3587
2264 1 3586 3588
2265 1 3589 3590
2266 1 3589 3591
2267 1 3592 3593
2268 1 3592 3594
2269 1 3595 3596
2270 1 3595 3597
2271 1 3598 3599
2272 1 3598 3600
2273 1 3601 3602
2274 1 3601 3603
2275 1 3604 3605
2276 1 3604 3606
2277 1 3607 3608
2278 1 3607 3609
2279 1 3610 3611
2280 1 3610 3612
2281 1 3613 3614
2282 1 3613 3615
2283 1 3616 3617
2284 1 3616 3618
2285 1 3619 3620
2286 1 3619 3621
2287 1 3622 3623
2288 1 3622 3624
2289 1 3625 3626
2290 1 3625 3627
2291 1 3628 3629
2292 1 3628 3630
2293 1 3631 3632
2294 1 3631 3633
2295 1 3634 3635
2296 1 3634 3636
2297 1 3637 3638
2298 1 3637 3639
2299 1 3640 3641
2300 1 3640 3642
2301 1 3643 3644
2302 1 3643 3645
2303 1 3646 3647
2304 1 3646 3648
2305 1 3649 3650
2306 1 3649 3651
2307 1 3652 3653
2308 1 3652 3654
2309 1 3655 3656
2310 1 3655 3657
2311 1 3658 3659
2312 1 3658 3660
2313 1 3661 3662
2314 1 3661 3663
2315 1 3664 3665
2316 1 3664 3666
2317 1 3667 3668
2318 1 3667 3669
2319 1 3670 3671
2320 1 3670 3672
2321 1 3673 3674
2322 1 3673 3675
2323 1 3676 3677
2324 1 3676 3678
2325 1 3679 3680
2326 1 3679 3681
2327 1 3682 3683
2328 1 3682 3684
2329 1 3685 3686
2330 1 3685 3687
2331 1 3688 3689
2332 1 3688 3690
2333 1 3691 3692
2334 1 3691 3693
2335 1 3694 3695
2336 1 3694 3696
2337 1 3697 3698
2338 1 3697 3699
2339 1 3700 3701
2340 1 3700 3702
2341 1 3703 3704
2342 1 3703 3705
2343 1 3706 3707
2344 1 3706 3708
2345 1 3709 3710
2346 1 3709 3711
2347 1 3712 3713
2348 1 3712 3714
2349 1 3715 3716
2350 1 3715 3717
2351 1 3718 3719
2352 1 3718 3720
2353 1 3721 3722
2354 1 3721 3723
2355 1 3724 3725
2356 1 3724 3726
2357 1 3727 3728
2358 1 3727 3729
2359 1 3730 3731
2360 1 3730 3732
2361 1 3733 3734
2362 1 3733 3735
2363 1 3736 3737
2364 1 3736 3738
2365 1 3739 3740
2366 1 3739 3741
2367 1 3742 3743
2368 1 3742 3744
2369 1 3745 3746
2370 1 3745 3747
2371 1 3748 3749
2372 1 3748 3750
2373 1 3751 3752
2374 1 3751 3753
2375 1 3754 3755
2376 1 3754 3756
2377 1 3757 3758
2378 1 3757 3759
2379 1 3760 3761
2380 1 3760 3762
2381 1 3763 3764
2382 1 3763 3765
2383 1 3766 3767
2384 1 3766 3768
2385 1 3769 3770
2386 1 3769 3771
2387 1 3772 3773
2388 1 3772 3774
2389 1 3775 3776
2390 1 3775 3777
2391 1 3778 3779
2392 1 3778 3780
2393 1 3781 3782
2394 1 3781 3783
2395 1 3784 3785
2396 1 3784 3786
2397 1 3787 3788
2398 1 3787 3789
2399 1 3790 3791
2400 1 3790 3792
2401 1 3793 3794
2402 1 3793 3795
2403 1 3796 3797
2404 1 3796 3798
2405 1 3799 3800
2406 1 3799 3801
2407 1 3802 3803
2408 1 3802 3804
2409 1 3805 3806
2410 1 3805 3807
2411 1 3808 3809
2412 1 3808 3810
2413 1 3811 3812
2414 1 3811 3813
2415 1 3814 3815
2416 1 3814 3816
2417 1 3817 3818
2418 1 3817 3819
2419 1 3820 3821
2420 1 3820 3822
2421 1 3823 3824
2422 1 3823 3825
2423 1 3826 3827
2424 1 3826 3828
2425 1 3829 3830
2426 1 3829 3831
2427 1 3832 3833
2428 1 3832 3834
2429 1 3835 3836
2430 1 3835 3837
2431 1 3838 3839
2432 1 3838 3840
2433 1 3841 3842
2434 1 3841 3843
2435 1 3844 3845
2436 1 3844 3846
2437 1 3847 3848
2438 1 3847 3849
2439 1 3850 3851
2440 1 3850 3852
2441 1 3853 3854
2442 1 3853 3855
2443 1 3856 3857
2444 1 3856 3858
2445 1 3859 3860
2446 1 3859 3861
2447 1 3862 3863
2448 1 3862 3864
2449 1 3865 3866
2450 1 3865 3867
2451 1 3868 3869
2452 1 3868 3870
2453 1 3871 3872
2454 1 3871 3873
2455 1 3874 3875
2456 1 3874 3876
2457 1 3877 3878
2458 1 3877 3879
2459 1 3880 3881
2460 1 3880 3882
2461 1 3883 3884
2462 1 3883 3885
2463 1 3886 3887
2464 1 3886 3888
2465 1 3889 3890
2466 1 3889 3891
2467 1 3892 3893
2468 1 3892 3894
2469 1 3895 3896
2470 1 3895 3897
2471 1 3898 3899
2472 1 3898 3900
2473 1 3901 3902
2474 1 3901 3903
2475 1 3904 3905
2476 1 3904 3906
2477 1 3907 3908
2478 1 3907 3909
2479 1 3910 3911
2480 1 3910 3912
2481 1 3913 3914
2482 1 3913 3915
2483 1 3916 3917
2484 1 3916 3918
2485 1 3919 3920
2486 1 3919 3921
2487 1 3922 3923
2488 1 3922 3924
2489 1 3925 3926
2490 1 3925 3927
2491 1 3928 3929
2492 1 3928 3930
2493 1 3931 3932
2494 1 3931 3933
2495 1 3934 3935
2496 1 3934 3936
2497 1 3937 3938
2498 1 3937 3939
2499 1 3940 3941
2500 1 3940 3942
2501 1 3943 3944
2502 1 3943 3945
2503 1 3946 3947
2504 1 3946 3948
2505 1 3949 3950
2506 1 3949 3951
2507 1 3952 3953
2508 1 3952 3954
2509 1 3955 3956
2510 1 3955 3957
2511 1 3958 3959
2512 1 3958 3960
2513 1 3961 3962
2514 1 3961 3963
2515 1 3964 3965
2516 1 3964 3966
2517 1 3967 3968
2518 1 3967 3969
2519 1 3970 3971
2520 1 3970 3972
2521 1 3973 3974
2522 1 3973 3975
2523 1 3976 3977
2524 1 3976 3978
2525 1 3979 3980
2526 1 3979 3981
2527 1 3982 3983
2528 1 3982 3984
2529 1 3985 3986
2530 1 3985 3987
2531 1 3988 3989
2532 1 3988 3990
2533 1 3991 3992
2534 1 3991 3993
2535 1 3994 3995
2536 1 3994 3996
2537 1 3997 3998
2538 1 3997 3999
2539 1 4000 4001
2540 1 4000 4002
2541 1 4003 4004
2542 1 4003 4005
2543 1 4006 4007
2544 1 4006 4008
2545 1 4009 4010
2546 1 4009 4011
2547 1 4012 4013
2548 1 4012 4014
2549 1 4015 4016
2550 1 4015 4017
2551 1 4018 4019
2552 1 4018 4020
2553 1 4021 4022
2554 1 4021 4023
2555 1 4024 4025
2556 1 4024 4026
2557 1 4027 4028
2558 1 4027 4029
2559 1 4030 4031
2560 1 4030 4032
2561 1 4033 4034
2562 1 4033 4035
2563 1 4036 4037
2564 1 4036 4038
2565 1 4039 4040
2566 1 4039 4041
2567 1 4042 4043
2568 1 4042 4044
2569 1 4045 4046
2570 1 4045 4047
2571 1 4048 4049
2572 1 4048 4050
2573 1 4051 4052
2574 1 4051 4053
2575 1 4054 4055
2576 1 4054 4056
2577 1 4057 4058
2578 1 4057 4059
2579 1 4060 4061
2580 1 4060 4062
2581 1 4063 4064
2582 1 4063 4065
2583 1 4066 4067
2584 1 4066 4068
2585 1 4069 4070
2586 1 4069 4071
2587 1 4072 4073
2588 1 4072 4074
2589 1 4075 4076
2590 1 4075 4077
2591 1 4078 4079
2592 1 4078 4080
2593 1 4081 4082
2594 1 4081 4083
2595 1 4084 4085
2596 1 4084 4086
2597 1 4087 4088
2598 1 4087 4089
2599 1 4090 4091
2600 1 4090 4092
2601 1 4093 4094
2602 1 4093 4095
2603 1 4096 4097
2604 1 4096 4098
2605 1 4099 4100
2606 1 4099 4101
2607 1 4102 4103
2608 1 4102 4104
2609 1 4105 4106
2610 1 4105 4107
2611 1 4108 4109
2612 1 4108 4110
2613 1 4111 4112
2614 1 4111 4113
2615 1 4114 4115
2616 1 4114 4116
2617 1 4117 4118
2618 1 4117 4119
2619 1 4120 4121
2620 1 4120 4122
2621 1 4123 4124
2622 1 4123 4125
2623 1 4126 4127
2624 1 4126 4128
2625 1 4129 4130
2626 1 4129 4131
2627 1 4132 4133
2628 1 4132 4134
2629 1 4135 4136
2630 1 4135 4137
2631 1 4138 4139
2632 1 4138 4140
2633 1 4141 4142
2634 1 4141 4143
2635 1 4144 4145
2636 1 4144 4146
2637 1 4147 4148
2638 1 4147 4149
2639 1 4150 4151
2640 1 4150 4152
2641 1 4153 4154
2642 1 4153 4155
2643 1 4156 4157
2644 1 4156 4158
2645 1 4159 4160
2646 1 4159 4161
2647 1 4162 4163
2648 1 4162 4164
2649 1 4165 4166
2650 1 4165 4167
2651 1 4168 4169
2652 1 4168 4170
2653 1 4171 4172
2654 1 4171 4173
2655 1 4174 4175
2656 1 4174 4176
2657 1 4177 4178
2658 1 4177 4179
2659 1 4180 4181
2660 1 4180 4182
2661 1 4183 4184
2662 1 4183 4185
2663 1 4186 4187
2664 1 4186 4188
2665 1 4189 4190
2666 1 4189 4191
2667 1 4192 4193
2668 1 4192 4194
2669 1 4195 4196
2670 1 4195 4197
2671 1 4198 4199
2672 1 4198 4200
2673 1 4201 4202
2674 1 4201 4203
2675 1 4204 4205
2676 1 4204 4206
2677 1 4207 4208
2678 1 4207 4209
2679 1 4210 4211
2680 1 4210 4212
2681 1 4213 4214
2682 1 4213 4215
2683 1 4216 4217
2684 1 4216 4218
2685 1 4219 4220
2686 1 4219 4221
2687 1 4222 4223
2688 1 4222 4224
2689 1 4225 4226
2690 1 4225 4227
2691 1 4228 4229
2692 1 4228 4230
2693 1 4231 4232
2694 1 4231 4233
2695 1 4234 4235
2696 1 4234 4236
2697 1 4237 4238
2698 1 4237 4239
2699 1 4240 4241
2700 1 4240 4242
2701 1 4243 4244
2702 1 4243 4245
2703 1 4246 4247
2704 1 4246 4248
2705 1 4249 4250
2706 1 4249 4251
2707 1 4252 4253
2708 1 4252 4254
2709 1 4255 4256
2710 1 4255 4257
2711 1 4258 4259
2712 1 4258 4260
2713 1 4261 4262
2714 1 4261 4263
2715 1 4264 4265
2716 1 4264 4266
2717 1 4267 4268
2718 1 4267 4269
2719 1 4270 4271
2720 1 4270 4272
2721 1 4273 4274
2722 1 4273 4275
2723 1 4276 4277
2724 1 4276 4278
2725 1 4279 4280
2726 1 4279 4281
2727 1 4282 4283
2728 1 4282 4284
2729 1 4285 4286
2730 1 4285 4287
2731 1 4288 4289
2732 1 4288 4290
2733 1 4291 4292
2734 1 4291 4293
2735 1 4294 4295
2736 1 4294 4296
2737 1 4297 4298
2738 1 4297 4299
2739 1 4300 4301
2740 1 4300 4302
2741 1 4303 4304
2742 1 4303 4305
2743 1 4306 4307
2744 1 4306 4308
2745 1 4309 4310
2746 1 4309 4311
2747 1 4312 4313
2748 1 4312 4314
2749 1 4315 4316
2750 1 4315 4317
2751 1 4318 4319
2752 1 4318 4320
2753 1 4321 4322
2754 1 4321 4323
2755 1 4324 4325
2756 1 4324 4326
2757 1 4327 4328
2758 1 4327 4329
2759 1 4330 4331
2760 1 4330 4332
2761 1 4333 4334
2762 1 4333 4335
2763 1 4336 4337
2764 1 4336 4338
2765 1 4339 4340
2766 1 4339 4341
2767 1 4342 4343
2768 1 4342 4344
2769 1 4345 4346
2770 1 4345 4347
2771 1 4348 4349
2772 1 4348 4350
2773 1 4351 4352
2774 1 4351 4353
2775 1 4354 4355
2776 1 4354 4356
2777 1 4357 4358
2778 1 4357 4359
2779 1 4360 4361
2780 1 4360 4362
2781 1 4363 4364
2782 1 4363 4365
2783 1 4366 4367
2784 1 4366 4368
2785 1 4369 4370
2786 1 4369 4371
2787 1 4372 4373
2788 1 4372 4374
2789 1 4375 4376
2790 1 4375 4377
2791 1 4378 4379
2792 1 4378 4380
2793 1 4381 4382
2794 1 4381 4383
2795 1 4384 4385
2796 1 4384 4386
2797 1 4387 4388
2798 1 4387 4389
2799 1 4390 4391
2800 1 4390 4392
2801 1 4393 4394
2802 1 4393 4395
2803 1 4396 4397
2804 1 4396 4398
2805 1 4399 4400
2806 1 4399 4401
2807 1 4402 4403
2808 1 4402 4404
2809 1 4405 4406
2810 1 4405 4407
2811 1 4408 4409
2812 1 4408 4410
2813 1 4411 4412
2814 1 4411 4413
2815 1 4414 4415
2816 1 4414 4416
2817 1 4417 4418
2818 1 4417 4419
2819 1 4420 4421
2820 1 4420 4422
2821 1 4423 4424
2822 1 4423 4425
2823 1 4426 4427
2824 1 4426 4428
2825 1 4429 4430
2826 1 4429 4431
2827 1 4432 4433
2828 1 4432 4434
2829 1 4435 4436
2830 1 4435 4437
2831 1 4438 4439
2832 1 4438 4440
2833 1 4441 4442
2834 1 4441 4443
2835 1 4444 4445
2836 1 4444 4446
2837 1 4447 4448
2838 1 4447 4449
2839 1 4450 4451
2840 1 4450 4452
2841 1 4453 4454
2842 1 4453 4455
2843 1 4456 4457
2844 1 4456 4458
2845 1 4459 4460
2846 1 4459 4461
2847 1 4462 4463
2848 1 4462 4464
2849 1 4465 4466
2850 1 4465 4467
2851 1 4468 4469
2852 1 4468 4470
2853 1 4471 4472
2854 1 4471 4473
2855 1 4474 4475
2856 1 4474 4476
2857 1 4477 4478
2858 1 4477 4479
2859 1 4480 4481
2860 1 4480 4482
2861 1 4483 4484
2862 1 4483 4485
2863 1 4486 4487
2864 1 4486 4488
2865 1 4489 4490
2866 1 4489 4491
2867 1 4492 4493
2868 1 4492 4494
2869 1 4495 4496
2870 1 4495 4497
2871 1 4498 4499
2872 1 4498 4500
2873 1 4501 4502
2874 1 4501 4503
2875 1 4504 4505
2876 1 4504 4506
2877 1 4507 4508
2878 1 4507 4509
2879 1 4510 4511
2880 1 4510 4512
2881 1 4513 4514
2882 1 4513 4515
2883 1 4516 4517
2884 1 4516 4518
2885 1 4519 4520
2886 1 4519 4521
2887 1 4522 4523
2888 1 4522 4524
2889 1 4525 4526
2890 1 4525 4527
2891 1 4528 4529
2892 1 4528 4530
2893 1 4531 4532
2894 1 4531 4533
2895 1 4534 4535
2896 1 4534 4536
2897 1 4537 4538
2898 1 4537 4539
2899 1 4540 4541
2900 1 4540 4542
2901 1 4543 4544
2902 1 4543 4545
2903 1 4546 4547
2904 1 4546 4548
2905 1 4549 4550
2906 1 4549 4551
2907 1 4552 4553
2908 1 4552 4554
2909 1 4555 4556
2910 1 4555 4557
2911 1 4558 4559
2912 1 4558 4560
2913 1 4561 4562
2914 1 4561 4563
2915 1 4564 4565
2916 1 4564 4566
2917 1 4567 4568
2918 1 4567 4569
2919 1 4570 4571
2920 1 4570 4572
2921 1 4573 4574
2922 1 4573 4575
2923 1 4576 4577
2924 1 4576 4578
2925 1 4579 4580
2926 1 4579 4581
2927 1 4582 4583
2928 1 4582 4584
2929 1 4585 4586
2930 1 4585 4587
2931 1 4588 4589
2932 1 4588 4590
2933 1 4591 4592
2934 1 4591 4593
2935 1 4594 4595
2936 1 4594 4596
2937 1 4597 4598
2938 1 4597 4599
2939 1 4600 4601
2940 1 4600 4602
2941 1 4603 4604
2942 1 4603 4605
2943 1 4606 4607
2944 1 4606 4608
2945 1 4609 4610
2946 1 4609 4611
2947 1 4612 4613
2948 1 4612 4614
2949 1 4615 4616
2950 1 4615 4617
2951 1 4618 4619
2952 1 4618 4620
2953 1 4621 4622
2954 1 4621 4623
2955 1 4624 4625
2956 1 4624 4626
2957 1 4627 4628
2958 1 4627 4629
2959 1 4630 4631
2960 1 4630 4632
2961 1 4633 4634
2962 1 4633 4635
2963 1 4636 4637
2964 1 4636 4638
2965 1 4639 4640
2966 1 4639 4641
2967 1 4642 4643
2968 1 4642 4644
2969 1 4645 4646
2970 1 4645 4647
2971 1 4648 4649
2972 1 4648 4650
2973 1 4651 4652
2974 1 4651 4653
2975 1 4654 4655
2976 1 4654 4656
2977 1 4657 4658
2978 1 4657 4659
2979 1 4660 4661
2980 1 4660 4662
2981 1 4663 4664
2982 1 4663 4665
2983 1 4666 4667
2984 1 4666 4668
2985 1 4669 4670
2986 1 4669 4671
2987 1 4672 4673
2988 1 4672 4674
2989 1 4675 4676
2990 1 4675 4677
2991 1 4678 4679
2992 1 4678 4680
2993 1 4681 4682
2994 1 4681 4683
2995 1 4684 4685
2996 1 4684 4686
2997 1 4687 4688
2998 1 4687 4689
2999 1 4690 4691
3000 1 4690 4692
3001 1 4693 4694
3002 1 4693 4695
3003 1 4696 4697
3004 1 4696 4698
3005 1 4699 4700
3006 1 4699 4701
3007 1 4702 4703
3008 1 4702 4704
3009 1 4705 4706
3010 1 4705 4707
3011 1 4708 4709
3012 1 4708 4710
3013 1 4711 4712
3014 1 4711 4713
3015 1 4714 4715
3016 1 4714 4716
3017 1 4717 4718
3018 1 4717 4719
3019 1 4720 4721
3020 1 4720 4722
3021 1 4723 4724
3022 1 4723 4725
3023 1 4726 4727
3024 1 4726 4728
3025 1 4729 4730
3026 1 4729 4731
3027 1 4732 4733
3028 1 4732 4734
3029 1 4735 4736
3030 1 4735 4737
3031 1 4738 4739
3032 1 4738 4740
3033 1 4741 4742
3034 1 4741 4743
3035 1 4744 4745
3036 1 4744 4746
3037 1 4747 4748
3038 1 4747 4749
3039 1 4750 4751
3040 1 4750 4752
3041 1 4753 4754
3042 1 4753 4755
3043 1 4756 4757
3044 1 4756 4758
3045 1 4759 4760
3046 1 4759 4761
3047 1 4762 4763
3048 1 4762 4764
3049 1 4765 4766
3050 1 4765 4767
3051 1 4768 4769
3052 1 4768 4770
3053 1 4771 4772
3054 1 4771 4773
3055 1 4774 4775
3056 1 4774 4776
3057 1 4777 4778
3058 1 4777 4779
3059 1 4780 4781
3060 1 4780 4782
3061 1 4783 4784
3062 1 4783 4785
3063 1 4786 4787
3064 1 4786 4788
3065 1 4789 4790
3066 1 4789 4791
3067 1 4792 4793
3068 1 4792 4794
3069 1 4795 4796
3070 1 4795 4797
3071 1 4798 4799
3072 1 4798 4800
3073 1 4801 4802
3074 1 4801 4803
3075 1 4804 4805
3076 1 4804 4806
3077 1 4807 4808
3078 1 4807 4809
3079 1 4810 4811
3080 1 4810 4812
3081 1 4813 4814
3082 1 4813 4815
3083 1 4816 4817
3084 1 4816 4818
3085 1 4819 4820
3086 1 4819 4821
3087 1 4822 4823
3088 1 4822 4824
3089 1 4825 4826
3090 1 4825 4827
3091 1 4828 4829
3092 1 4828 4830
3093 1 4831 4832
3094 1 4831 4833
3095 1 4834 4835
3096 1 4834 4836
3097 1 4837 4838
3098 1 4837 4839
3099 1 4840 4841
3100 1 4840 4842
3101 1 4843 4844
3102 1 4843 4845
3103 1 4846 4847
3104 1 4846 4848
3105 1 4849 4850
3106 1 4849 4851
3107 1 4852 4853
3108 1 4852 4854
3109 1 4855 4856
3110 1 4855 4857
3111 1 4858 4859
3112 1 4858 4860
3113 1 4861 4862
3114 1 4861 4863
3115 1 4864 4865
3116 1 4864 4866
3117 1 4867 4868
3118 1 4867 4869
3119 1 4870 4871
3120 1 4870 4872
3121 1 4873 4874
3122 1 4873 4875
3123 1 4876 4877
3124 1 4876 4878
3125 1 4879 4880
3126 1 4879 4881
3127 1 4882 4883
3128 1 4882 4884
3129 1 4885 4886
3130 1 4885 4887
3131 1 4888 4889
3132 1 4888 4890
3133 1 4891 4892
3134 1 4891 4893
3135 1 4894 4895
3136 1 4894 4896
3137 1 4897 4898
3138 1 4897 4899
3139 1 4900 4901
3140 1 4900 4902
3141 1 4903 4904
3142 1 4903 4905
3143 1 4906 4907
3144 1 4906 4908
3145 1 4909 4910
3146 1 4909 4911
3147 1 4912 4913
3148 1 4912 4914
3149 1 4915 4916
3150 1 4915 4917
3151 1 4918 4919
3152 1 4918 4920
3153 1 4921 4922
3154 1 4921 4923
3155 1 4924 4925
3156 1 4924 4926
3157 1 4927 4928
3158 1 4927 4929
3159 1 4930 4931
3160 1 4930 4932
3161 1 4933 4934
3162 1 4933 4935
3163 1 4936 4937
3164 1 4936 4938
3165 1 4939 4940
3166 1 4939 4941
3167 1 4942 4943
3168 1 4942 4944
3169 1 4945 4946
3170 1 4945 4947
3171 1 4948 4949
3172 1 4948 4950
3173 1 4951 4952
3174 1 4951 4953
3175 1 4954 4955
3176 1 4954 4956
3177 1 4957 4958
3178 1 4957 4959
3179 1 4960 4961
3180 1 4960 4962
3181 1 4963 4964
3182 1 4963 4965
3183 1 4966 4967
3184 1 4966 4968
3185 1 4969 4970
3186 1 4969 4971
3187 1 4972 4973
3188 1 4972 4974
3189 1 4975 4976
3190 1 4975 4977
3191 1 4978 4979
3192 1 4978 4980
3193 1 4981 4982
3194 1 4981 4983
3195 1 4984 4985
3196 1 4984 4986
3197 1 4987 4988
3198 1 4987 4989
3199 1 4990 4991
3200 1 4990 4992
3201 1 4993 4994
3202 1 4993 4995
3203 1 4996 4997
3204 1 4996 4998
3205 1 4999 5000
3206 1 4999 5001
3207 1 5002 5003
3208 1 5002 5004
3209 1 5005 5006
3210 1 5005 5007
3211 1 5008 5009
3212 1 5008 5010
3213 1 5011 5012
3214 1 5011 5013
3215 1 5014 5015
3216 1 5014 5016
3217 1 5017 5018
3218 1 5017 5019
3219 1 5020 5021
3220 1 5020 5022
3221 1 5023 5024
3222 1 5023 5025
3223 1 5026 5027
3224 1 5026 5028
3225 1 5029 5030
3226 1 5029 5031
3227 1 5032 5033
3228 1 5032 5034
3229 1 5035 5036
3230 1 5035 5037
3231 1 5038 5039
3232 1 5038 5040
3233 1 5041 5042
3234 1 5041 5043
3235 1 5044 5045
3236 1 5044 5046
3237 1 5047 5048
3238 1 5047 5049
3239 1 5050 5051
3240 1 5050 5052
3241 1 5053 5054
3242 1 5053 5055
3243 1 5056 5057
3244 1 5056 5058
3245 1 5059 5060
3246 1 5059 5061
3247 1 5062 5063
3248 1 5062 5064
3249 1 5065 5066
3250 1 5065 5067
3251 1 5068 5069
3252 1 5068 5070
3253 1 5071 5072
3254 1 5071 5073
3255 1 5074 5075
3256 1 5074 5076
3257 1 5077 5078
3258 1 5077 5079
3259 1 5080 5081
3260 1 5080 5082
3261 1 5083 5084
3262 1 5083 5085
3263 1 5086 5087
3264 1 5086 5088
3265 1 5089 5090
3266 1 5089 5091
3267 1 5092 5093
3268 1 5092 5094
3269 1 5095 5096
3270 1 5095 5097
3271 1 5098 5099
3272 1 5098 5100
3273 1 5101 5102
3274 1 5101 5103
3275 1 5104 5105
3276 1 5104 5106
3277 1 5107 5108
3278 1 5107 5109
3279 1 5110 5111
3280 1 5110 5112
3281 1 5113 5114
3282 1 5113 5115
3283 1 5116 5117
3284 1 5116 5118
3285 1 5119 5120
3286 1 5119 5121
3287 1 5122 5123
3288 1 5122 5124
3289 1 5125 5126
3290 1 5125 5127
3291 1 5128 5129
3292 1 5128 5130
3293 1 5131 5132
3294 1 5131 5133
3295 1 5134 5135
3296 1 5134 5136
3297 1 5137 5138
3298 1 5137 5139
3299 1 5140 5141
3300 1 5140 5142
3301 1 5143 5144
3302 1 5143 5145
3303 1 5146 5147
3304 1 5146 5148
3305 1 5149 5150
3306 1 5149 5151
3307 1 5152 5153
3308 1 5152 5154
3309 1 5155 5156
3310 1 5155 5157
3311 1 5158 5159
3312 1 5158 5160
3313 1 5161 5162
3314 1 5161 5163
3315 1 5164 5165
3316 1 5164 5166
3317 1 5167 5168
3318 1 5167 5169
3319 1 5170 5171
3320 1 5170 5172
3321 1 5173 5174
3322 1 5173 5175
3323 1 5176 5177
3324 1 5176 5178
3325 1 5179 5180
3326 1 5179 5181
3327 1 5182 5183
3328 1 5182 5184
3329 1 5185 5186
3330 1 5185 5187
3331 1 5188 5189
3332 1 5188 5190
3333 1 5191 5192
3334 1 5191 5193
3335 1 5194 5195
3336 1 5194 5196
3337 1 5197 5198
3338 1 5197 5199
3339 1 5200 5201
3340 1 5200 5202
3341 1 5203 5204
3342 1 5203 5205
3343 1 5206 5207
3344 1 5206 5208
3345 1 5209 5210
3346 1 5209 5211
3347 1 5212 5213
3348 1 5212 5214
3349 1 5215 5216
3350 1 5215 5217
3351 1 5218 5219
3352 1 5218 5220
3353 1 5221 5222
3354 1 5221 5223
3355 1 5224 5225
3356 1 5224 5226
3357 1 5227 5228
3358 1 5227 5229
3359 1 5230 5231
3360 1 5230 5232
3361 1 5233 5234
3362 1 5233 5235
3363 1 5236 5237
3364 1 5236 5238
3365 1 5239 5240
3366 1 5239 5241
3367 1 5242 5243
3368 1 5242 5244
3369 1 5245 5246
3370 1 5245 5247
3371 1 5248 5249
3372 1 5248 5250
3373 1 5251 5252
3374 1 5251 5253
3375 1 5254 5255
3376 1 5254 5256
3377 1 5257 5258
3378 1 5257 5259
3379 1 5260 5261
3380 1 5260 5262
3381 1 5263 5264
3382 1 5263 5265
3383 1 5266 5267
3384 1 5266 5268
3385 1 5269 5270
3386 1 5269 5271
3387 1 5272 5273
3388 1 5272 5274
3389 1 5275 5276
3390 1 5275 5277
3391 1 5278 5279
3392 1 5278 5280
3393 1 5281 5282
3394 1 5281 5283
3395 1 5284 5285
3396 1 5284 5286
3397 1 5287 5288
3398 1 5287 5289
3399 1 5290 5291
3400 1 5290 5292
3401 1 5293 5294
3402 1 5293 5295
3403 1 5296 5297
3404 1 5296 5298
3405 1 5299 5300
3406 1 5299 5301
3407 1 5302 5303
3408 1 5302 5304
3409 1 5305 5306
3410 1 5305 5307
3411 1 5308 5309
3412 1 5308 5310
3413 1 5311 5312
3414 1 5311 5313
3415 1 5314 5315
3416 1 5314 5316
3417 1 5317 5318
3418 1 5317 5319
3419 1 5320 5321
3420 1 5320 5322
3421 1 5323 5324
3422 1 5323 5325
3423 1 5326 5327
3424 1 5326 5328
3425 1 5329 5330
3426 1 5329 5331
3427 1 5332 5333
3428 1 5332 5334
3429 1 5335 5336
3430 1 5335 5337
3431 1 5338 5339
3432 1 5338 5340
3433 1 5341 5342
3434 1 5341 5343
3435 1 5344 5345
3436 1 5344 5346
3437 1 5347 5348
3438 1 5347 5349
3439 1 5350 5351
3440 1 5350 5352
3441 1 5353 5354
3442 1 5353 5355
3443 1 5356 5357
3444 1 5356 5358
3445 1 5359 5360
3446 1 5359 5361
3447 1 5362 5363
3448 1 5362 5364
3449 1 5365 5366
3450 1 5365 5367
3451 1 5368 5369
3452 1 5368 5370
3453 1 5371 5372
3454 1 5371 5373
3455 1 5374 5375
3456 1 5374 5376
3457 1 5377 5378
3458 1 5377 5379
3459 1 5380 5381
3460 1 5380 5382
3461 1 5383 5384
3462 1 5383 5385
3463 1 5386 5387
3464 1 5386 5388
3465 1 5389 5390
3466 1 5389 5391
3467 1 5392 5393
3468 1 5392 5394
3469 1 5395 5396
3470 1 5395 5397
3471 1 5398 5399
3472 1 5398 5400
3473 1 5401 5402
3474 1 5401 5403
3475 1 5404 5405
3476 1 5404 5406
3477 1 5407 5408
3478 1 5407 5409
3479 1 5410 5411
3480 1 5410 5412
3481 1 5413 5414
3482 1 5413 5415
3483 1 5416 5417
3484 1 5416 5418
3485 1 5419 5420
3486 1 5419 5421
3487 1 5422 5423
3488 1 5422 5424
3489 1 5425 5426
3490 1 5425 5427
3491 1 5428 5429
3492 1 5428 5430
3493 1 5431 5432
3494 1 5431 5433
3495 1 5434 5435
3496 1 5434 5436
3497 1 5437 5438
3498 1 5437 5439
3499 1 5440 5441
3500 1 5440 5442
3501 1 5443 5444
3502 1 5443 5445
3503 1 5446 5447
3504 1 5446 5448
3505 1 5449 5450
3506 1 5449 5451
3507 1 5452 5453
3508 1 5452 5454
3509 1 5455 5456
3510 1 5455 5457
3511 1 5458 5459
3512 1 5458 5460
3513 1 5461 5462
3514 1 5461 5463
3515 1 5464 5465
3516 1 5464 5466
3517 1 5467 5468
3518 1 5467 5469
3519 1 5470 5471
3520 1 5470 5472
3521 1 5473 5474
3522 1 5473 5475
3523 1 5476 5477
3524 1 5476 5478
3525 1 5479 5480
3526 1 5479 5481
3527 1 5482 5483
3528 1 5482 5484
3529 1 5485 5486
3530 1 5485 5487
3531 1 5488 5489
3532 1 5488 5490
3533 1 5491 5492
3534 1 5491 5493
3535 1 5494 5495
3536 1 5494 5496
3537 1 5497 5498
3538 1 5497 5499
3539 1 5500 5501
3540 1 5500 5502
3541 1 5503 5504
3542 1 5503 5505
3543 1 5506 5507
3544 1 5506 5508
3545 1 5509 5510
3546 1 5509 5511
3547 1 5512 5513
3548 1 5512 5514
3549 1 5515 5516
3550 1 5515 5517
3551 1 5518 5519
3552 1 5518 5520
3553 1 5521 5522
3554 1 5521 5523
3555 1 5524 5525
3556 1 5524 5526
3557 1 5527 5528
3558 1 5527 5529
3559 1 5530 5531
3560 1 5530 5532
3561 1 5533 5534
3562 1 5533 5535
3563 1 5536 5537
3564 1 5536 5538
3565 1 5539 5540
3566 1 5539 5541
3567 1 5542 5543
3568 1 5542 5544
3569 1 5545 5546
3570 1 5545 5547
3571 1 5548 5549
3572 1 5548 5550
3573 1 5551 5552
3574 1 5551 5553
3575 1 5554 5555
3576 1 5554 5556
3577 1 5557 5558
3578 1 5557 5559
3579 1 5560 5561
3580 1 5560 5562
3581 1 5563 5564
3582 1 5563 5565
3583 1 5566 5567
3584 1 5566 5568
3585 1 5569 5570
3586 1 5569 5571
3587 1 5572 5573
3588 1 5572 5574
3589 1 5575 5576
3590 1 5575 5577
3591 1 5578 5579
3592 1 5578 5580
3593 1 5581 5582
3594 1 5581 5583
3595 1 5584 5585
3596 1 5584 5586
3597 1 5587 5588
3598 1 5587 5589
3599 1 5590 5591
3600 1 5590 5592
3601 1 5593 5594
3602 1 5593 5595
3603 1 5596 5597
3604 1 5596 5598
3605 1 5599 5600
3606 1 5599 5601
3607 1 5602 5603
3608 1 5602 5604
3609 1 5605 5606
3610 1 5605 5607
3611 1 5608 5609
3612 1 5608 5610
3613 1 5611 5612
3614 1 5611 5613
3615 1 5614 5615
3616 1 5614 5616
3617 1 5617 5618
3618 1 5617 5619
3619 1 5620 5621
3620 1 5620 5622
3621 1 5623 5624
3622 1 5623 5625
3623 1 5626 5627
3624 1 5626 5628
3625 1 5629 5630
3626 1 5629 5631
3627 1 5632 5633
3628 1 5632 5634
3629 1 5635 5636
3630 1 5635 5637
3631 1 5638 5639
3632 1 5638 5640
3633 1 5641 5642
3634 1 5641 5643
3635 1 5644 5645
3636 1 5644 5646
3637 1 5647 5648
3638 1 5647 5649
3639 1 5650 5651
3640 1 5650 5652
3641 1 5653 5654
3642 1 5653 5655
3643 1 5656 5657
3644 1 5656 5658
3645 1 5659 5660
3646 1 5659 5661
3647 1 5662 5663
3648 1 5662 5664
3649 1 5665 5666
3650 1 5665 5667
3651 1 5668 5669
3652 1 5668 5670
3653 1 5671 5672
3654 1 5671 5673
3655 1 5674 5675
3656 1 5674 5676
3657 1 5677 5678
3658 1 5677 5679
3659 1 5680 5681
3660 1 5680 5682
3661 1 5683 5684
3662 1 5683 5685
3663 1 5686 5687
3664 1 5686 5688
3665 1 5689 5690
3666 1 5689 5691
3667 1 5692 5693
3668 1 5692 5694
3669 1 5695 5696
3670 1 5695 5697
3671 1 5698 5699
3672 1 5698 5700
3673 1 5701 5702
3674 1 5701 5703
3675 1 5704 5705
3676 1 5704 5706
3677 1 5707 5708
3678 1 5707 5709
3679 1 5710 5711
3680 1 5710 5712
3681 1 5713 5714
3682 1 5713 5715
3683 1 5716 5717
3684 1 5716 5718
3685 1 5719 5720
3686 1 5719 5721
3687 1 5722 5723
3688 1 5722 5724
3689 1 5725 5726
3690 1 5725 5727
3691 1 5728 5729
3692 1 5728 5730
3693 1 5731 5732
3694 1 5731 5733
3695 1 5734 5735
3696 1 5734 5736
3697 1 5737 5738
3698 1 5737 5739
3699 1 5740 5741
3700 1 5740 5742
3701 1 5743 5744
3702 1 5743 5745
3703 1 5746 5747
3704 1 5746 5748
3705 1 5749 5750
3706 1 5749 5751
3707 1 5752 5753
3708 1 5752 5754
3709 1 5755 5756
3710 1 5755 5757
3711 1 5758 5759
3712 1 5758 5760
3713 1 5761 5762
3714 1 5761 5763
3715 1 5764 5765
3716 1 5764 5766
3717 1 5767 5768
3718 1 5767 5769
3719 1 5770 5771
3720 1 5770 5772
3721 1 5773 5774
3722 1 5773 5775
3723 1 5776 5777
3724 1 5776 5778
3725 1 5779 5780
3726 1 5779 5781
3727 1 5782 5783
3728 1 5782 5784
3729 1 5785 5786
3730 1 5785 5787
3731 1 5788 5789
3732 1 5788 5790
3733 1 5791 5792
3734 1 5791 5793
3735 1 5794 5795
3736 1 5794 5796
3737 1 5797 5798
3738 1 5797 5799
3739 1 5800 5801
3740 1 5800 5802
3741 1 5803 5804
3742 1 5803 5805
3743 1 5806 5807
3744 1 5806 5808
3745 1 5809 5810
3746 1 5809 5811
3747 1 5812 5813
3748 1 5812 5814
3749 1 5815 5816
3750 1 5815 5817
3751 1 5818 5819
3752 1 5818 5820
3753 1 5821 5822
3754 1 5821 5823
3755 1 5824 5825
3756 1 5824 5826
3757 1 5827 5828
3758 1 5827 5829
3759 1 5830 5831
3760 1 5830 5832
3761 1 5833 5834
3762 1 5833 5835
3763 1 5836 5837
3764 1 5836 5838
3765 1 5839 5840
3766 1 5839 5841
3767 1 5842 5843
3768 1 5842 5844
3769 1 5845 5846
3770 1 5845 5847
3771 1 5848 5849
3772 1 5848 5850
3773 1 5851 5852
3774 1 5851 5853
3775 1 5854 5855
3776 1 5854 5856
3777 1 5857 5858
3778 1 5857 5859
3779 1 5860 5861
3780 1 5860 5862
3781 1 5863 5864
3782 1 5863 5865
3783 1 5866 5867
3784 1 5866 5868
3785 1 5869 5870
3786 1 5869 5871
3787 1 5872 5873
3788 1 5872 5874
3789 1 5875 5876
3790 1 5875 5877
3791 1 5878 5879
3792 1 5878 5880
3793 1 5881 5882
3794 1 5881 5883
3795 1 5884 5885
3796 1 5884 5886
3797 1 5887 5888
3798 1 5887 5889
3799 1 5890 5891
3800 1 5890 5892
3801 1 5893 5894
3802 1 5893 5895
3803 1 5896 5897
3804 1 5896 5898
3805 1 5899 5900
3806 1 5899 5901
3807 1 5902 5903
3808 1 5902 5904
3809 1 5905 5906
3810 1 5905 5907
3811 1 5908 5909
3812 1 5908 5910
3813 1 5911 5912
3814 1 5911 5913
3815 1 5914 5915
3816 1 5914 5916
3817 1 5917 5918
3818 1 5917 5919
3819 1 5920 5921
3820 1 5920 5922
3821 1 5923 5924
3822 1 5923 5925
3823 1 5926 5927
3824 1 5926 5928
3825 1 5929 5930
3826 1 5929 5931
3827 1 5932 5933
3828 1 5932 5934
3829 1 5935 5936
3830 1 5935 5937
3831 1 5938 5939
3832 1 5938 5940
3833 1 5941 5942
3834 1 5941 5943
3835 1 5944 5945
3836 1 5944 5946
3837 1 5947 5948
3838 1 5947 5949
3839 1 5950 5951
3840 1 5950 5952
3841 1 5953 5954
3842 1 5953 5955
3843 1 5956 5957
3844 1 5956 5958
3845 1 5959 5960
3846 1 5959 5961
3847 1 5962 5963
3848 1 5962 5964
3849 1 5965 5966
3850 1 5965 5967
3851 1 5968 5969
3852 1 5968 5970
3853 1 5971 5972
3854 1 5971 5973
3855 1 5974 5975
3856 1 5974 5976
3857 1 5977 5978
3858 1 5977 5979
3859 1 5980 5981
3860 1 5980 5982
3861 1 5983 5984
3862 1 5983 5985
3863 1 5986 5987
3864 1 5986 5988
3865 1 5989 5990
3866 1 5989 5991
3867 1 5992 5993
3868 1 5992 5994
3869 1 5995 5996
3870 1 5995 5997
3871 1 5998 5999
3872 1 5998 6000
3873 1 6001 6002
3874 1 6001 6003
3875 1 6004 6005
3876 1 6004 6006
3877 1 6007 6008
3878 1 6007 6009
3879 1 6010 6011
3880 1 6010 6012
3881 1 6013 6014
3882 1 6013 6015
3883 1 6016 6017
3884 1 6016 6018
3885 1 6019 6020
3886 1 6019 6021
3887 1 6022 6023
3888 1 6022 6024
3889 1 6025 6026
3890 1 6025 6027
3891 1 6028 6029
3892 1 6028 6030
3893 1 6031 6032
3894 1 6031 6033
3895 1 6034 6035
3896 1 6034 6036
3897 1 6037 6038
3898 1 6037 6039
3899 1 6040 6041
3900 1 6040 6042
3901 1 6043 6044
3902 1 6043 6045
3903 1 6046 6047
3904 1 6046 6048
3905 1 6049 6050
3906 1 6049 6051
3907 1 6052 6053
3908 1 6052 6054
3909 1 6055 6056
3910 1 6055 6057
3911 1 6058 6059
3912 1 6058 6060
3913 1 6061 6062
3914 1 6061 6063
3915 1 6064 6065
3916 1 6064 6066
3917 1 6067 6068
3918 1 6067 6069
3919 1 6070 6071
3920 1 6070 6072
3921 1 6073 6074
3922 1 6073 6075
3923 1 6076 6077
3924 1 6076 6078
3925 1 6079 6080
3926 1 6079 6081
3927 1 6082 6083
3928 1 6082 6084
3929 1 6085 6086
3930 1 6085 6087
3931 1 6088 6089
3932 1 6088 6090
3933 1 6091 6092
3934 1 6091 6093
3935 1 6094 6095
3936 1 6094 6096
3937 1 6097 6098
3938 1 6097 6099
3939 1 6100 6101
3940 1 6100 6102
3941 1 6103 6104
3942 1 6103 6105
3943 1 6106 6107
3944 1 6106 6108
3945 1 6109 6110
3946 1 6109 6111
3947 1 6112 6113
3948 1 6112 6114
3949 1 6115 6116
3950 1 6115 6117
3951 1 6118 6119
3952 1 6118 6120
3953 1 6121 6122
3954 1 6121 6123
3955 1 6124 6125
3956 1 6124 6126
3957 1 6127 6128
3958 1 6127 6129
3959 1 6130 6131
3960 1 6130 6132
3961 1 6133 6134
3962 1 6133 6135
3963 1 6136 6137
3964 1 6136 6138
3965 1 6139 6140
3966 1 6139 6141
3967 1 6142 6143
3968 1 6142 6144
3969 1 6145 6146
3970 1 6145 6147
3971 1 6148 6149
3972 1 6148 6150
3973 1 6151 6152
3974 1 6151 6153
3975 1 6154 6155
3976 1 6154 6156
3977 1 6157 6158
3978 1 6157 6159
3979 1 6160 6161
3980 1 6160 6162
3981 1 6163 6164
3982 1 6163 6165
3983 1 6166 6167
3984 1 6166 6168
3985 1 6169 6170
3986 1 6169 6171
3987 1 6172 6173
3988 1 6172 6174
3989 1 6175 6176
3990 1 6175 6177
3991 1 6178 6179
3992 1 6178 6180
3993 1 6181 6182
3994 1 6181 6183
3995 1 6184 6185
3996 1 6184 6186
3997 1 6187 6188
3998 1 6187 6189
3999 1 6190 6191
4000 1 6190 6192
4001 1 6193 6194
4002 1 6193 6195
4003 1 6196 6197
4004 1 6196 6198
4005 1 6199 6200
4006 1 6199 6201
4007 1 6202 6203
4008 1 6202 6204
4009 1 6205 6206
4010 1 6205 6207
4011 1 6208 6209
4012 1 6208 6210
4013 1 6211 6212
4014 1 6211 6213
4015 1 6214 6215
4016 1 6214 6216
4017 1 6217 6218
4018 1 6217 6219
4019 1 6220 6221
4020 1 6220 6222
4021 1 6223 6224
4022 1 6223 6225
4023 1 6226 6227
4024 1 6226 6228
4025 1 6229 6230
4026 1 6229 6231
4027 1 6232 6233
4028 1 6232 6234
4029 1 6235 6236
4030 1 6235 6237
4031 1 6238 6239
4032 1 6238 6240
4033 1 6241 6242
4034 1 6241 6243
4035 1 6244 6245
4036 1 6244 6246
4037 1 6247 6248
4038 1 6247 6249
4039 1 6250 6251
4040 1 6250 6252
4041 1 6253 6254
4042 1 6253 6255
4043 1 6256 6257
4044 1 6256 6258
4045 1 6259 6260
4046 1 6259 6261
4047 1 6262 6263
4048 1 6262 6264
4049 1 6265 6266
4050 1 6265 6267
4051 1 6268 6269
4052 1 6268 6270
4053 1 6271 6272
4054 1 6271 6273
4055 1 6274 6275
4056 1 6274 6276
4057 1 6277 6278
4058 1 6277 6279
4059 1 6280 6281
4060 1 6280 6282
4061 1 6283 6284
4062 1 6283 6285
4063 1 6286 6287
4064 1 6286 6288
4065 1 6289 6290
4066 1 6289 6291
4067 1 6292 6293
4068 1 6292 6294
4069 1 6295 6296
4070 1 6295 6297
4071 1 6298 6299
4072 1 6298 6300
4073 1 6301 6302
4074 1 6301 6303
4075 1 6304 6305
4076 1 6304 6306
4077 1 6307 6308
4078 1 6307 6309
4079 1 6310 6311
4080 1 6310 6312
4081 1 6313 6314
4082 1 6313 6315
4083 1 6316 6317
4084 1 6316 6318
4085 1 6319 6320
4086 1 6319 6321
4087 1 6322 6323
4088 1 6322 6324
4089 1 6325 6326
4090 1 6325 6327
4091 1 6328 6329
4092 1 6328 6330
4093 1 6331 6332
4094 1 6331 6333
4095 1 6334 6335
4096 1 6334 6336
4097 1 6337 6338
4098 1 6337 6339
4099 1 6340 6341
4100 1 6340 6342
4101 1 6343 6344
4102 1 6343 6345
4103 1 6346 6347
4104 1 6346 6348
4105 1 6349 6350
4106 1 6349 6351
4107 1 6352 6353
4108 1 6352 6354
4109 1 6355 6356
4110 1 6355 6357
4111 1 6358 6359
4112 1 6358 6360
4113 1 6361 6362
4114 1 6361 6363
4115 1 6364 6365
4116 1 6364 6366
4117 1 6367 6368
4118 1 6367 6369
4119 1 6370 6371
4120 1 6370 6372
4121 1 6373 6374
4122 1 6373 6375
4123 1 6376 6377
4124 1 6376 6378
4125 1 6379 6380
4126 1 6379 6381
4127 1 6382 6383
4128 1 6382 6384
4129 1 6385 6386
4130 1 6385 6387
4131 1 6388 6389
4132 1 6388 6390
4133 1 6391 6392
4134 1 6391 6393
4135 1 6394 6395
4136 1 6394 6396
4137 1 6397 6398
4138 1 6397 6399
4139 1 6400 6401
4140 1 6400 6402
4141 1 6403 6404
4142 1 6403 6405
4143 1 6406 6407
4144 1 6406 6408
4145 1 6409 6410
4146 1 6409 6411
4147 1 6412 6413
4148 1 6412 6414
4149 1 6415 6416
4150 1 6415 6417
4151 1 6418 6419
4152 1 6418 6420
4153 1 6421 6422
4154 1 6421 6423
4155 1 6424 6425
4156 1 6424 6426
4157 1 6427 6428
4158 1 6427 6429
4159 1 6430 6431
4160 1 6430 6432
4161 1 6433 6434
4162 1 6433 6435
4163 1 6436 6437
4164 1 6436 6438
4165 1 6439 6440
4166 1 6439 6441
4167 1 6442 6443
4168 1 6442 6444
4169 1 6445 6446
4170 1 6445 6447
4171 1 6448 6449
4172 1 6448 6450
4173 1 6451 6452
4174 1 6451 6453
4175 1 6454 6455
4176 1 6454 6456
4177 1 6457 6458
4178 1 6457 6459
4179 1 6460 6461
4180 1 6460 6462
4181 1 6463 6464
4182 1 6463 6465
4183 1 6466 6467
4184 1 6466 6468
4185 1 6469 6470
4186 1 6469 6471
4187 1 6472 6473
4188 1 6472 6474
4189 1 6475 6476
4190 1 6475 6477
4191 1 6478 6479
4192 1 6478 6480
4193 1 6481 6482
4194 1 6481 6483
4195 1 6484 6485
4196 1 6484 6486
4197 1 6487 6488
4198 1 6487 6489
4199 1 6490 6491
4200 1 6490 6492
4201 1 6493 6494
4202 1 6493 6495
4203 1 6496 6497
4204 1 6496 6498
4205 1 6499 6500
4206 1 6499 6501
4207 1 6502 6503
4208 1 6502 6504
4209 1 6505 6506
4210 1 6505 6507
4211 1 6508 6509
4212 1 6508 6510
4213 1 6511 6512
4214 1 6511 6513
4215 1 6514 6515
4216 1 6514 6516
4217 1 6517 6518
4218 1 6517 6519
4219 1 6520 6521
4220 1 6520 6522
4221 1 6523 6524
4222 1 6523 6525
4223 1 6526 6527
4224 1 6526 6528
4225 1 6529 6530
4226 1 6529 6531
4227 1 6532 6533
4228 1 6532 6534
4229 1 6535 6536
4230 1 6535 6537
4231 1 6538 6539
4232 1 6538 6540
4233 1 6541 6542
4234 1 6541 6543
4235 1 6544 6545
4236 1 6544 6546
4237 1 6547 6548
4238 1 6547 6549
4239 1 6550 6551
4240 1 6550 6552
4241 1 6553 6554
4242 1 6553 6555
4243 1 6556 6557
4244 1 6556 6558
4245 1 6559 6560
4246 1 6559 6561
4247 1 6562 6563
4248 1 6562 6564
4249 1 6565 6566
4250 1 6565 6567
4251 1 6568 6569
4252 1 6568 6570
4253 1 6571 6572
4254 1 6571 6573
4255 1 6574 6575
4256 1 6574 6576
4257 1 6577 6578
4258 1 6577 6579
4259 1 6580 6581
4260 1 6580 6582
4261 1 6583 6584
4262 1 6583 6585
4263 1 6586 6587
4264 1 6586 6588
4265 1 6589 6590
4266 1 6589 6591
4267 1 6592 6593
4268 1 6592 6594
4269 1 6595 6596
4270 1 6595 6597
4271 1 6598 6599
4272 1 6598 6600
4273 1 6601 6602
4274 1 6601 6603
4275 1 6604 6605
4276 1 6604 6606
4277 1 6607 6608
4278 1 6607 6609
4279 1 6610 6611
4280 1 6610 6612
4281 1 6613 6614
4282 1 6613 6615
4283 1 6616 6617
4284 1 6616 6618
4285 1 6619 6620
4286 1 6619 6621
4287 1 6622 6623
4288 1 6622 6624
4289 1 6625 6626
4290 1 6625 6627
4291 1 6628 6629
4292 1 6628 6630
4293 1 6631 6632
4294 1 6631 6633
4295 1 6634 6635
4296 1 6634 6636
4297 1 6637 6638
4298 1 6637 6639
4299 1 6640 6641
4300 1 6640 6642
4301 1 6643 6644
4302 1 6643 6645
4303 1 6646 6647
4304 1 6646 6648
4305 1 6649 6650
4306 1 6649 6651
4307 1 6652 6653
4308 1 6652 6654
4309 1 6655 6656
4310 1 6655 6657
4311 1 6658 6659
4312 1 6658 6660
4313 1 6661 6662
4314 1 6661 6663
4315 1 6664 6665
4316 1 6664 6666
4317 1 6667 6668
4318 1 6667 6669
4319 1 6670 6671
4320 1 6670 6672
4321 1 6673 6674
4322 1 6673 6675
4323 1 6676 6677
4324 1 6676 6678
4325 1 6679 6680
4326 1 6679 6681
4327 1 6682 6683
4328 1 6682 6684
4329 1 6685 6686
4330 1 6685 6687
4331 1 6688 6689
4332 1 6688 6690
4333 1 6691 6692
4334 1 6691 6693
4335 1 6694 6695
4336 1 6694 6696
4337 1 6697 6698
4338 1 6697 6699
4339 1 6700 6701
4340 1 6700 6702
4341 1 6703 6704
4342 1 6703 6705
4343 1 6706 6707
4344 1 6706 6708
4345 1 6709 6710
4346 1 6709 6711
4347 1 6712 6713
4348 1 6712 6714
4349 1 6715 6716
4350 1 6715 6717
4351 1 6718 6719
4352 1 6718 6720
4353 1 6721 6722
4354 1 6721 6723
4355 1 6724 6725
4356 1 6724 6726
4357 1 6727 6728
4358 1 6727 6729
4359 1 6730 6731
4360 1 6730 6732
4361 1 6733 6734
4362 1 6733 6735
4363 1 6736 6737
4364 1 6736 6738
4365 1 6739 6740
4366 1 6739 6741
4367 1 6742 6743
4368 1 6742 6744
4369 1 6745 6746
4370 1 6745 6747
4371 1 6748 6749
4372 1 6748 6750
4373 1 6751 6752
4374 1 6751 6753
4375 1 6754 6755
4376 1 6754 6756
4377 1 6757 6758
4378 1 6757 6759
4379 1 6760 6761
4380 1 6760 6762
4381 1 6763 6764
4382 1 6763 6765
4383 1 6766 6767
4384 1 6766 6768
4385 1 6769 6770
4386 1 6769 6771
4387 1 6772 6773
4388 1 6772 6774
4389 1 6775 6776
4390 1 6775 6777
4391 1 6778 6779
4392 1 6778 6780
4393 1 6781 6782
4394 1 6781 6783
4395 1 6784 6785
4396 1 6784 6786
4397 1 6787 6788
4398 1 6787 6789
4399 1 6790 6791
4400 1 6790 6792
4401 1 6793 6794
4402 1 6793 6795
4403 1 6796 6797
4404 1 6796 6798
4405 1 6799 6800
4406 1 6799 6801
4407 1 6802 6803
4408 1 6802 6804
4409 1 6805 6806
4410 1 6805 6807
4411 1 6808 6809
4412 1 6808 6810
4413 1 6811 6812
4414 1 6811 6813
4415 1 6814 6815
4416 1 6814 6816
4417 1 6817 6818
4418 1 6817 6819
4419 1 6820 6821
4420 1 6820 6822
4421 1 6823 6824
4422 1 6823 6825
4423 1 6826 6827
4424 1 6826 6828
4425 1 6829 6830
4426 1 6829 6831
4427 1 6832 6833
4428 1 6832 6834
4429 1 6835 6836
4430 1 6835 6837
4431 1 6838 6839
4432 1 6838 6840
4433 1 6841 6842
4434 1 6841 6843
4435 1 6844 6845
4436 1 6844 6846
4437 1 6847 6848
4438 1 6847 6849
4439 1 6850 6851
4440 1 6850 6852
4441 1 6853 6854
4442 1 6853 6855
4443 1 6856 6857
4444 1 6856 6858
4445 1 6859 6860
4446 1 6859 6861
4447 1 6862 6863
4448 1 6862 6864
4449 1 6865 6866
4450 1 6865 6867
4451 1 6868 6869
4452 1 6868 6870
4453 1 6871 6872
4454 1 6871 6873
4455 1 6874 6875
4456 1 6874 6876
4457 1 6877 6878
4458 1 6877 6879
4459 1 6880 6881
4460 1 6880 6882
4461 1 6883 6884
4462 1 6883 6885
4463 1 6886 6887
4464 1 6886 6888
4465 1 6889 6890
4466 1 6889 6891
4467 1 6892 6893
4468 1 6892 6894
4469 1 6895 6896
4470 1 6895 6897
4471 1 6898 6899
4472 1 6898 6900
4473 1 6901 6902
4474 1 6901 6903
4475 1 6904 6905
4476 1 6904 6906
4477 1 6907 6908
4478 1 6907 6909
4479 1 6910 6911
4480 1 6910 6912
4481 1 6913 6914
4482 1 6913 6915
4483 1 6916 6917
4484 1 6916 6918
4485 1 6919 6920
4486 1 6919 6921
4487 1 6922 6923
4488 1 6922 6924
4489 1 6925 6926
4490 1 6925 6927
4491 1 6928 6929
4492 1 6928 6930
4493 1 6931 6932
4494 1 6931 6933
4495 1 6934 6935
4496 1 6934 6936
4497 1 6937 6938
4498 1 6937 6939
4499 1 6940 6941
4500 1 6940 6942
4501 1 6943 6944
4502 1 6943 6945
4503 1 6946 6947
4504 1 6946 6948
4505 1 6949 6950
4506 1 6949 6951
4507 1 6952 6953
4508 1 6952 6954
4509 2 7203 7208
4510 3 7204 7205
4511 3 7204 7206
4512 3 7204 7207
4513 4 7203 7204
4514 2 7209 7214
4515 3 7210 7211
4516 3 7210 7212
4517 3 7210 7213
4518 4 7209 7210
4519 2 7215 7220
4520 3 7216 7217
4521 3 7216 7218
4522 3 7216 7219
4523 4 7215 7216
4524 2 7221 7226
4525 3 7222 7223
4526 3 7222 7224
4527 3 7222 7225
4528 4 7221 7222
4529 2 7227 7232
4530 3 7228 7229
4531 3 7228 7230
4532 3 7228 7231
4533 4 7227 7228
4534 2 7233 7238
4535 3 7234 7235
4536 3 7234 7236
4537 3 7234 7237
4538 4 7233 7234
4539 2 7239 7244
4540 3 7240 7241
4541 3 7240 7242
4542 3 7240 7243
4543 4 7239 7240
4544 2 7245 7250
4545 3 7246 7247
4546 3 7246 7248
4547 3 7246 7249
4548 4 7245 7246
4549 2 7251 7256
4550 3 7252 7253
4551 3 7252 7254
4552 3 7252 7255
4553 4 7251 7252
4554 2 7257 7262
4555 3 7258 7259
4556 3 7258 7260
4557 3 7258 7261
4558 4 7257 7258
4559 2 7263 7268
4560 3 7264 7265
4561 3 7264 7266
4562 3 7264 7267
4563 4 7263 7264
4564 2 7269 7274
4565 3 7270 7271
4566 3 7270 7272
4567 3 7270 7273
4568 4 7269 7270
4569 2 7275 7280
4570 3 7276 7277
4571 3 7276 7278
4572 3 7276 7279
4573 4 7275 7276
4574 2 7281 7286
4575 3 7282 7283
4576 3 7282 7284
4577 3 7282 7285
4578 4 7281 7282
4579 2 7287 7292
4580 3 7288 7289
4581 3 7288 7290
4582 3 7288 7291
4583 4 7287 7288
4584 2 7293 7298
4585 3 7294 7295
4586 3 7294 7296
4587 3 7294 7297
4588 4 7293 7294
4589 2 7299 7304
4590 3 7300 7301
4591 3 7300 7302
4592 3 7300 7303
4593 4 7299 7300
4594 2 7305 7310
4595 3 7306 7307
4596 3 7306 7308
4597 3 7306 7309
4598 4 7305 7306
4599 2 7311 7316
4600 3 7312 7313
4601 3 7312 7314
4602 3 7312 7315
4603 4 7311 7312
4604 2 7317 7322
4605 3 7318 7319
4606 3 7318 7320
4607 3 7318 7321
4608 4 7317 7318
4609 2 7323 7328
4610 3 7324 7325
4611 3 7324 7326
4612 3 7324 7327
4613 4 7323 7324
4614 2 7329 7334
4615 3 7330 7331
4616 3 7330 7332
4617 3 7330 7333
4618 4 7329 7330
4619 2 7335 7340
4620 3 7336 7337
4621 3 7336 7338
4622 3 7336 7339
4623 4 7335 7336
4624 2 7341 7346
4625 3 7342 7343
4626 3 7342 7344
4627 3 7342 7345
4628 4 7341 7342
4629 2 7347 7352
4630 3 7348 7349
4631 3 7348 7350
4632 3 7348 7351
4633 4 7347 7348
4634 2 7353 7358
4635 3 7354 7355
4636 3 7354 7356
4637 3 7354 7357
4638 4 7353 7354
4639 2 7359 7364
4640 3 7360 7361
4641 3 7360 7362
4642 3 7360 7363
4643 4 7359 7360
4644 2 7365 7370
4645 3 7366 7367
4646 3 7366 7368
4647 3 7366 7369
4648 4 7365 7366
4649 2 7371 7376
4650 3 7372 7373
4651 3 7372 7374
4652 3 7372 7375
4653 4 7371 7372
4654 2 7377 7382
4655 3 7378 7379
4656 3 7378 7380
4657 3 7378 7381
4658 4 7377 7378
4659 2 7383 7388
4660 3 7384 7385
4661 3 7384 7386
4662 3 7384 7387
4663 4 7383 7384
4664 2 7389 7394
4665 3 7390 7391
4666 3 7390 7392
4667 3 7390 7393
4668 4 7389 7390
4669 2 7395 7400
4670 3 7396 7397
4671 3 7396 7398
4672 3 7396 7399
4673 4 7395 7396
4674 2 7401 7406
4675 3 7402 7403
4676 3 7402 7404
4677 3 7402 7405
4678 4 7401 7402
4679 2 7407 7412
4680 3 7408 7409
4681 3 7408 7410
4682 3 7408 7411
4683 4 7407 7408
4684 2 7413 7418
4685 3 7414 7415
4686 3 7414 7416
4687 3 7414 7417
4688 4 7413 7414
4689 2 7419 7424
4690 3 7420 7421
4691 3 7420 7422
4692 3 7420 7423
4693 4 7419 7420
4694 2 7425 7430
4695 3 7426 7427
4696 3 7426 7428
4697 3 7426 7429
4698 4 7425 7426
4699 2 7431 7436
4700 3 7432 7433
4701 3 7432 7434
4702 3 7432 7435
4703 4 7431 7432
4704 2 7437 7442
4705 3 7438 7439
4706 3 7438 7440
4707 3 7438 7441
4708 4 7437 7438
4709 2 7443 7448
4710 3 7444 7445
4711 3 7444 7446
4712 3 7444 7447
4713 4 7443 7444
4714 2 7449 7454
4715 3 7450 7451
4716 3 7450 7452
4717 3 7450 7453
4718 4 7449 7450
4719 2 7455 7460
4720 3 7456 7457
4721 3 7456 7458
4722 3 7456 7459
4723 4 7455 7456
4724 2 7461 7466
4725 3 7462 7463
4726 3 7462 7464
4727 3 7462 7465
4728 4 7461 7462
4729 2 7467 7472
4730 3 7468 7469
4731 3 7468 7470
4732 3 7468 7471
4733 4 7467 7468
4734 2 7473 7478
4735 3 7474 7475
4736 3 7474 7476
4737 3 7474 7477
4738 4 7473 7474
4739 2 7479 7484
4740 3 7480 7481
4741 3 7480 7482
4742 3 7480 7483
4743 4 7479 7480
4744 2 7485 7490
4745 3 7486 7487
4746 3 7486 7488
4747 3 7486 7489
4748 4 7485 7486
4749 5 7491 7492
4750 6 7492 7493
4751 7 7493 7494
4752 8 7494 7495
4753 9 7495 7496
4754 10 7493 7497
4755 11 7496 7498
4756 12 7492 7499
4757 13 7491 7500
4758 14 7491 7501
4759 15 7491 7502
4760 16 7492 7503
4761 17 7494 7504
4762 18 7495 7505
4763 19 7497 7506
4764 20 7498 7507
4765 21 7498 7508
4766 22 7498 7509
4767 23 7499 7510
4768 24 7496 7497
4769 5 7511 7512
4770 6 7512 7513
4771 7 7513 7514
4772 8 7514 7515
4773 9 7515 7516
4774 10 7513 7517
4775 11 7516 7518
4776 12 7512 7519
4777 13 7511 7520
4778 14 7511 7521
4779 15 7511 7522
4780 16 7512 7523
4781 17 7514 7524
4782 18 7515 7525
4783 19 7517 7526
4784 20 7518 7527
4785 21 7518 7528
4786 22 7518 7529
4787 23 7519 7530
4788 24 7516 7517
4789 5 7531 7532
4790 6 7532 7533
4791 7 7533 7534
4792 8 7534 7535
4793 9 7535 7536
4794 10 7533 7537
4795 11 7536 7538
4796 12 7532 7539
4797 13 7531 7540
4798 14 7531 7541
4799 15 7531 7542
4800 16 7532 7543
4801 17 7534 7544
4802 18 7535 7545
4803 19 7537 7546
4804 20 7538 7547
4805 21 7538 7548
4806 22 7538 7549
4807 23 7539 7550
4808 24 7536 7537
4809 5 7551 7552
4810 6 7552 7553
4811 7 7553 7554
4812 8 7554 7555
4813 9 7555 7556
4814 10 7553 7557
4815 11 7556 7558
4816 12 7552 7559
4817 13 7551 7560
4818 14 7551 7561
4819 15 7551 7562
4820 16 7552 7563
4821 17 7554 7564
4822 18 7555 7565
4823 19 7557 7566
4824 20 7558 7567
4825 21 7558 7568
4826 22 7558 7569
4827 23 7559 7570
4828 24 7556 7557
4829 5 7571 7572
4830 6 7572 7573
4831 7 7573 7574
4832 8 7574 7575
4833 9 7575 7576
4834 10 7573 7577
4835 11 7576 7578
4836 12 7572 7579
4837 13 7571 7580
4838 14 7571 7581
4839 15 7571 7582
4840 16 7572 7583
4841 17 7574 7584
4842 18 7575 7585
4843 19 7577 7586
4844 20 7578 7587
4845 21 7578 7588
4846 22 7578 7589
4847 23 7579 7590
4848 24 7576 7577
4849 25 7596 7597
4850 26 7597 7598
4851 27 7598 7599
4852 28 7598 7600
4853 29 7597 7601
4854 30 7596 7602
4855 31 7596 7603
4856 32 7596 7604
4857 33 7597 7605
4858 34 7600 7606
4859 35 7601 7607
4860 36 7601 7608
4861 37 7602 7609

Angles

1 1 2 1 3
2 1 5 4 6
4 1 8 7 9
6 1 11 10 12
8 1 14 13 15
10 1 17 16 18
12 1 20 19 21
14 1 23 22 24
16 1 26 25 27
18 1 29 28 30
19 1 32 31 33
3 1 35 34 36
5 1 38 37 39
7 1 41 40 42
9 1 44 43 45
11 1 47 46 48
13 1 50 49 51
15 1 53 52 54
17 1 56 55 57
20 1 59 58 60
21 1 62 61 63
22 1 65 64 66
23 1 68 67 69
24 1 71 70 72
25 1 74 73 75
26 1 77 76 78
27 1 80 79 81
28 1 83 82 84
29 1 86 85 87
30 1 89 88 90
31 1 92 91 93
32 1 95 94 96
33 1 98 97 99
34 1 101 100 102
35 1 104 103 105
36 1 107 106 108
37 1 110 109 111
38 1 113 112 114
39 1 116 115 117
40 1 119 118 120
41 1 122 121 123
42 1 125 124 126
43 1 128 127 129
44 1 131 130 132
45 1 134 133 135
46 1 137 136 138
47 1 148 147 149
48 1 151 150 152
50 1 154 153 155
52 1 157 156 158
54 1 160 159 161
56 1 163 162 164
58 1 166 165 167
60 1 169 168 170
62 1 172 171 173
64 1 175 174 176
65 1 178 177 179
49 1 181 180 182
51 1 184 183 185
53 1 187 186 188
55 1 190 189 191
57 1 193 192 194
59 1 196 195 197
61 1 199 198 200
63 1 202 201 203
66 1 205 204 206
67 1 208 207 209
68 1 211 210 212
69 1 214 213 215
70 1 217 216 218
71 1 220 219 221
72 1 223 222 224
73 1 226 225 227
74 1 229 228 230
75 1 232 231 233
76 1 235 234 236
77 1 238 237 239
78 1 241 240 242
79 1 244 243 245
80 1 247 246 248
81 1 250 249 251
82 1 253 252 254
83 1 256 255 257
84 1 259 258 260
85 1 262 261 263
86 1 265 264 266
87 1 268 267 269
88 1 271 270 272
89 1 274 273 275
90 1 277 276 278
91 1 280 279 281
92 1 283 282 284
93 1 294 293 295
94 1 297 296 298
96 1 300 299 301
98 1 303 302 304
100 1 306 305 307
102 1 309 308 310
104 1 312 311 313
106 1 315 314 316
108 1 318 317 319
110 1 321 320 322
111 1 324 323 325
95 1 327 326 328
97 1 330 329 331
99 1 333 332 334
101 1 336 335 337
103 1 339 338 340
105 1 342 341 343
107 1 345 344 346
109 1 348 347 349
112 1 351 350 352
113 1 354 353 355
114 1 357 356 358
115 1 360 359 361
116 1 363 362 364
117 1 366 365 367
118 1 369 368 370
119 1 372 371 373
120 1 375 374 376
121 1 378 377 379
122 1 381 380 382
123 1 384 383 385
124 1 387 386 388
125 1 390 389 391
126 1 393 392 394
127 1 396 395 397
128 1 399 398 400
129 1 402 401 403
130 1 405 404 406
131 1 408 407 409
132 1 411 410 412
133 1 414 413 415
134 1 417 416 418
135 1 420 419 421
136 1 423 422 424
137 1 426 425 427
138 1 429 428 430
139 1 440 439 441
140 1 443 442 444
142 1 446 445 447
144 1 449 448 450
146 1 452 451 453
148 1 455 454 456
150 1 458 457 459
152 1 461 460 462
154 1 464 463 465
156 1 467 466 468
157 1 470 469 471
141 1 473 472 474
143 1 476 475 477
145 1 479 478 480
147 1 482 481 483
149 1 485 484 486
151 1 488 487 489
153 1 491 490 492
155 1 494 493 495
158 1 497 496 498
159 1 500 499 501
160 1 503 502 504
161 1 506 505 507
162 1 509 508 510
163 1 512 511 513
164 1 515 514 516
165 1 518 517 519
166 1 521 520 522
167 1 524 523 525
168 1 527 526 528
169 1 530 529 531
170 1 533 532 534
171 1 536 535 537
172 1 539 538 540
173 1 542 541 543
174 1 545 544 546
175 1 548 547 549
176 1 551 550 552
177 1 554 553 555
178 1 557 556 558
179 1 560 559 561
180 1 563 562 564
181 1 566 565 567
182 1 569 568 570
183 1 572 571 573
184 1 575 574 576
185 1 586 585 587
186 1 589 588 590
188 1 592 591 593
190 1 595 594 596
192 1 598 597 599
194 1 601 600 602
196 1 604 603 605
198 1 607 606 608
200 1 610 609 611
202 1 613 612 614
203 1 616 615 617
187 1 619 618 620
189 1 622 621 623
191 1 625 624 626
193 1 628 627 629
195 1 631 630 632
197 1 634 633 635
199 1 637 636 638
201 1 640 639 641
204 1 643 642 644
205 1 646 645 647
206 1 649 648 650
207 1 652 651 653
208 1 655 654 656
209 1 658 657 659
210 1 661 660 662
211 1 664 663 665
212 1 667 666 668
213 1 670 669 671
214 1 673 672 674
215 1 676 675 677
216 1 679 678 680
217 1 682 681 683
218 1 685 684 686
219 1 688 687 689
220 1 691 690 692
221 1 694 693 695
222 1 697 696 698
223 1 700 699 701
224 1 703 702 704
225 1 706 705 707
226 1 709 708 710
227 1 712 711 713
228 1 715 714 716
229 1 718 717 719
230 1 721 720 722
231 1 732 731 733
232 1 735 734 736
234 1 738 737 739
236 1 741 740 742
238 1 744 743 745
240 1 747 746 748
242 1 750 749 751
244 1 753 752 754
246 1 756 755 757
248 1 759 758 760
249 1 762 761 763
233 1 765 764 766
235 1 768 767 769
237 1 771 770 772
239 1 774 773 775
241 1 777 776 778
243 1 780 779 781
245 1 783 782 784
247 1 786 785 787
250 1 789 788 790
251 1 792 791 793
252 1 795 794 796
253 1 798 797 799
254 1 801 800 802
255 1 804 803 805
256 1 807 806 808
257 1 810 809 811
258 1 813 812 814
259 1 816 815 817
260 1 819 818 820
261 1 822 821 823
262 1 825 824 826
263 1 828 827 829
264 1 831 830 832
265 1 834 833 835
266 1 837 836 838
267 1 840 839 841
268 1 843 842 844
269 1 846 845 847
270 1 849 848 850
271 1 852 851 853
272 1 855 854 856
273 1 858 857 859
274 1 861 860 862
275 1 864 863 865
276 1 867 866 868
277 1 878 877 879
278 1 881 880 882
280 1 884 883 885
282 1 887 886 888
284 1 890 889 891
286 1 893 892 894
288 1 896 895 897
290 1 899 898 900
292 1 902 901 903
294 1 905 904 906
295 1 908 907 909
279 1 911 910 912
281 1 914 913 915
283 1 917 916 918
285 1 920 919 921
287 1 923 922 924
289 1 926 925 927
291 1 929 928 930
293 1 932 931 933
296 1 935 934 936
297 1 938 937 939
298 1 941 940 942
299 1 944 943 945
300 1 947 946 948
301 1 950 949 951
302 1 953 952 954
303 1 956 955 957
304 1 959 958 960
305 1 962 961 963
306 1 965 964 966
307 1 968 967 969
308 1 971 970 972
309 1 974 973 975
310 1 977 976 978
311 1 980 979 981
312 1 983 982 984
313 1 986 985 987
314 1 989 988 990
315 1 992 991 993
316 1 995 994 996
317 1 998 997 999
318 1 1001 1000 1002
319 1 1004 1003 1005
320 1 1007 1006 1008
321 1 1010 1009 1011
322 1 1013 1012 1014
323 1 1024 1023 1025
324 1 1027 1026 1028
326 1 1030 1029 1031
328 1 1033 1032 1034
330 1 1036 1035 1037
332 1 1039 1038 1040
334 1 1042 1041 1043
336 1 1045 1044 1046
338 1 1048 1047 1049
340 1 1051 1050 1052
341 1 1054 1053 1055
325 1 1057 1056 1058
327 1 1060 1059 1061
329 1 1063 1062 1064
331 1 1066 1065 1067
333 1 1069 1068 1070
335 1 1072 1071 1073
337 1 1075 1074 1076
339 1 1078 1077 1079
342 1 1081 1080 1082
343 1 1084 1083 1085
344 1 1087 1086 1088
345 1 1090 1089 1091
346 1 1093 1092 1094
347 1 1096 1095 1097
348 1 1099 1098 1100
349 1 1102 1101 1103
350 1 1105 1104 1106
351 1 1108 1107 1109
352 1 1111 1110 1112
353 1 1114 1113 1115
354 1 1117 1116 1118
355 1 1120 1119 1121
356 1 1123 1122 1124
357 1 1126 1125 1127
358 1 1129 1128 1130
359 1 1132 1131 1133
360 1 1135 1134 1136
361 1 1138 1137 1139
362 1 1141 1140 1142
363 1 1144 1143 1145
364 1 1147 1146 1148
365 1 1150 1149 1151
366 1 1153 1152 1154
367 1 1156 1155 1157
368 1 1159 1158 1160
369 1 1170 1169 1171
370 1 1173 1172 1174
372 1 1176 1175 1177
374 1 1179 1178 1180
376 1 1182 1181 1183
378 1 1185 1184 1186
380 1 1188 1187 1189
382 1 1191 1190 1192
384 1 1194 1193 1195
386 1 1197 1196 1198
387 1 1200 1199 1201
371 1 1203 1202 1204
373 1 1206 1205 1207
375 1 1209 1208 1210
377 1 1212 1211 1213
379 1 1215 1214 1216
381 1 1218 1217 1219
383 1 1221 1220 1222
385 1 1224 1223 1225
388 1 1227 1226 1228
389 1 1230 1229 1231
390 1 1233 1232 1234
391 1 1236 1235 1237
392 1 1239 1238 1240
393 1 1242 1241 1243
394 1 1245 1244 1246
395 1 1248 1247 1249
396 1 1251 1250 1252
397 1 1254 1253 1255
398 1 1257 1256 1258
399 1 1260 1259 1261
400 1 1263 1262 1264
401 1 1266 1265 1267
402 1 1269 1268 1270
403 1 1272 1271 1273
404 1 1275 1274 1276
405 1 1278 1277 1279
406 1 1281 1280 1282
407 1 1284 1283 1285
408 1 1287 1286 1288
409 1 1290 1289 1291
410 1 1293 1292 1294
411 1 1296 1295 1297
412 1 1299 1298 1300
413 1 1302 1301 1303
414 1 1305 1304 1306
415 1 1316 1315 1317
416 1 1319 1318 1320
418 1 1322 1321 1323
420 1 1325 1324 1326
422 1 1328 1327 1329
424 1 1331 1330 1332
426 1 1334 1333 1335
428 1 1337 1336 1338
430 1 1340 1339 1341
432 1 1343 1342 1344
433 1 1346 1345 1347
417 1 1349 1348 1350
419 1 1352 1351 1353
421 1 1355 1354 1356
423 1 1358 1357 1359
425 1 1361 1360 1362
427 1 1364 1363 1365
429 1 1367 1366 1368
431 1 1370 1369 1371
434 1 1373 1372 1374
435 1 1376 1375 1377
436 1 1379 1378 1380
437 1 1382 1381 1383
438 1 1385 1384 1386
439 1 1388 1387 1389
440 1 1391 1390 1392
441 1 1394 1393 1395
442 1 1397 1396 1398
443 1 1400 1399 1401
444 1 1403 1402 1404
445 1 1406 1405 1407
446 1 1409 1408 1410
447 1 1412 1411 1413
448 1 1415 1414 1416
449 1 1418 1417 1419
450 1 1421 1420 1422
451 1 1424 1423 1425
452 1 1427 1426 1428
453 1 1430 1429 1431
454 1 1433 1432 1434
455 1 1436 1435 1437
456 1 1439 1438 1440
457 1 1442 1441 1443
458 1 1445 1444 1446
459 1 1448 1447 1449
460 1 1451 1450 1452
461 1 1462 1461 1463
462 1 1465 1464 1466
464 1 1468 1467 1469
466 1 1471 1470 1472
468 1 1474 1473 1475
470 1 1477 1476 1478
472 1 1480 1479 1481
474 1 1483 1482 1484
476 1 1486 1485 1487
478 1 1489 1488 1490
479 1 1492 1491 1493
463 1 1495 1494 1496
465 1 1498 1497 1499
467 1 1501 1500 1502
469 1 1504 1503 1505
471 1 1507 1506 1508
473 1 1510 1509 1511
475 1 1513 1512 1514
477 1 1516 1515 1517
480 1 1519 1518 1520
481 1 1522 1521 1523
482 1 1525 1524 1526
483 1 1528 1527 1529
484 1 1531 1530 1532
485 1 1534 1533 1535
486 1 1537 1536 1538
487 1 1540 1539 1541
488 1 1543 1542 1544
489 1 1546 1545 1547
490 1 1549 1548 1550
491 1 1552 1551 1553
492 1 1555 1554 1556
493 1 1558 1557 1559
494 1 1561 1560 1562
495 1 1564 1563 1565
496 1 1567 1566 1568
497 1 1570 1569 1571
498 1 1573 1572 1574
499 1 1576 1575 1577
500 1 1579 1578 1580
501 1 1582 1581 1583
502 1 1585 1584 1586
503 1 1588 1587 1589
504 1 1591 1590 1592
505 1 1594 1593 1595
506 1 1597 1596 1598
507 1 1608 1607 1609
508 1 1611 1610 1612
510 1 1614 1613 1615
512 1 1617 1616 1618
514 1 1620 1619 1621
516 1 1623 1622 1624
518 1 1626 1625 1627
520 1 1629 1628 1630
522 1 1632 1631 1633
524 1 1635 1634 1636
525 1 1638 1637 1639
509 1 1641 1640 1642
511 1 1644 1643 1645
513 1 1647 1646 1648
515 1 1650 1649 1651
517 1 1653 1652 1654
519 1 1656 1655 1657
521 1 1659 1658 1660
523 1 1662 1661 1663
526 1 1665 1664 1666
527 1 1668 1667 1669
528 1 1671 1670 1672
529 1 1674 1673 1675
530 1 1677 1676 1678
531 1 1680 1679 1681
532 1 1683 1682 1684
533 1 1686 1685 1687
534 1 1689 1688 1690
535 1 1692 1691 1693
536 1 1695 1694 1696
537 1 1698 1697 1699
538 1 1701 1700 1702
539 1 1704 1703 1705
540 1 1707 1706 1708
541 1 1710 1709 1711
542 1 1713 1712 1714
543 1 1716 1715 1717
544 1 1719 1718 1720
545 1 1722 1721 1723
546 1 1725 1724 1726
547 1 1728 1727 1729
548 1 1731 1730 1732
549 1 1734 1733 1735
550 1 1737 1736 1738
551 1 1740 1739 1741
552 1 1743 1742 1744
553 1 1754 1753 1755
554 1 1757 1756 1758
556 1 1760 1759 1761
558 1 1763 1762 1764
560 1 1766 1765 1767
562 1 1769 1768 1770
564 1 1772 1771 1773
566 1 1775 1774 1776
568 1 1778 1777 1779
570 1 1781 1780 1782
571 1 1784 1783 1785
555 1 1787 1786 1788
557 1 1790 1789 1791
559 1 1793 1792 1794
561 1 1796 1795 1797
563 1 1799 1798 1800
565 1 1802 1801 1803
567 1 1805 1804 1806
569 1 1808 1807 1809
572 1 1811 1810 1812
573 1 1814 1813 1815
574 1 1817 1816 1818
575 1 1820 1819 1821
576 1 1823 1822 1824
577 1 1826 1825 1827
578 1 1829 1828 1830
579 1 1832 1831 1833
580 1 1835 1834 1836
581 1 1838 1837 1839
582 1 1841 1840 1842
583 1 1844 1843 1845
584 1 1847 1846 1848
585 1 1850 1849 1851
586 1 1853 1852 1854
587 1 1856 1855 1857
588 1 1859 1858 1860
589 1 1862 1861 1863
590 1 1865 1864 1866
591 1 1868 1867 1869
592 1 1871 1870 1872
593 1 1874 1873 1875
594 1 1877 1876 1878
595 1 1880 1879 1881
596 1 1883 1882 1884
597 1 1886 1885 1887
598 1 1889 1888 1890
599 1 1900 1899 1901
600 1 1903 1902 1904
602 1 1906 1905 1907
604 1 1909 1908 1910
606 1 1912 1911 1913
608 1 1915 1914 1916
610 1 1918 1917 1919
612 1 1921 1920 1922
614 1 1924 1923 1925
616 1 1927 1926 1928
617 1 1930 1929 1931
601 1 1933 1932 1934
603 1 1936 1935 1937
605 1 1939 1938 1940
607 1 1942 1941 1943
609 1 1945 1944 1946
611 1 1948 1947 1949
613 1 1951 1950 1952
615 1 1954 1953 1955
618 1 1957 1956 1958
619 1 1960 1959 1961
620 1 1963 1962 1964
621 1 1966 1965 1967
622 1 1969 1968 1970
623 1 1972 1971 1973
624 1 1975 1974 1976
625 1 1978 1977 1979
626 1 1981 1980 1982
627 1 1984 1983 1985
628 1 1987 1986 1988
629 1 1990 1989 1991
630 1 1993 1992 1994
631 1 1996 1995 1997
632 1 1999 1998 2000
633 1 2002 2001 2003
634 1 2005 2004 2006
635 1 2008 2007 2009
636 1 2011 2010 2012
637 1 2014 2013 2015
638 1 2017 2016 2018
639 1 2020 2019 2021
640 1 2023 2022 2024
641 1 2026 2025 2027
642 1 2029 2028 2030
643 1 2032 2031 2033
644 1 2035 2034 2036
645 1 2046 2045 2047
646 1 2049 2048 2050
648 1 2052 2051 2053
650 1 2055 2054 2056
652 1 2058 2057 2059
654 1 2061 2060 2062
656 1 2064 2063 2065
658 1 2067 2066 2068
660 1 2070 2069 2071
662 1 2073 2072 2074
663 1 2076 2075 2077
647 1 2079 2078 2080
649 1 2082 2081 2083
651 1 2085 2084 2086
653 1 2088 2087 2089
655 1 2091 2090 2092
657 1 2094 2093 2095
659 1 2097 2096 2098
661 1 2100 2099 2101
664 1 2103 2102 2104
665 1 2106 2105 2107
666 1 2109 2108 2110
667 1 2112 2111 2113
668 1 2115 2114 2116
669 1 2118 2117 2119
670 1 2121 2120 2122
671 1 2124 2123 2125
672 1 2127 2126 2128
673 1 2130 2129 2131
674 1 2133 2132 2134
675 1 2136 2135 2137
676 1 2139 2138 2140
677 1 2142 2141 2143
678 1 2145 2144 2146
679 1 2148 2147 2149
680 1 2151 2150 2152
681 1 2154 2153 2155
682 1 2157 2156 2158
683 1 2160 2159 2161
684 1 2163 2162 2164
685 1 2166 2165 2167
686 1 2169 2168 2170
687 1 2172 2171 2173
688 1 2175 2174 2176
689 1 2178 2177 2179
690 1 2181 2180 2182
691 1 2192 2191 2193
692 1 2195 2194 2196
694 1 2198 2197 2199
696 1 2201 2200 2202
698 1 2204 2203 2205
700 1 2207 2206 2208
702 1 2210 2209 2211
704 1 2213 2212 2214
706 1 2216 2215 2217
708 1 2219 2218 2220
709 1 2222 2221 2223
693 1 2225 2224 2226
695 1 2228 2227 2229
697 1 2231 2230 2232
699 1 2234 2233 2235
701 1 2237 2236 2238
703 1 2240 2239 2241
705 1 2243 2242 2244
707 1 2246 2245 2247
710 1 2249 2248 2250
711 1 2252 2251 2253
712 1 2255 2254 2256
713 1 2258 2257 2259
714 1 2261 2260 2262
715 1 2264 2263 2265
716 1 2267 2266 2268
717 1 2270 2269 2271
718 1 2273 2272 2274
719 1 2276 2275 2277
720 1 2279 2278 2280
721 1 2282 2281 2283
722 1 2285 2284 2286
723 1 2288 2287 2289
724 1 2291 2290 2292
725 1 2294 2293 2295
726 1 2297 2296 2298
727 1 2300 2299 2301
728 1 2303 2302 2304
729 1 2306 2305 2307
730 1 2309 2308 2310
731 1 2312 2311 2313
732 1 2315 2314 2316
733 1 2318 2317 2319
734 1 2321 2320 2322
735 1 2324 2323 2325
736 1 2327 2326 2328
737 1 2338 2337 2339
738 1 2341 2340 2342
740 1 2344 2343 2345
742 1 2347 2346 2348
744 1 2350 2349 2351
746 1 2353 2352 2354
748 1 2356 2355 2357
750 1 2359 2358 2360
752 1 2362 2361 2363
754 1 2365 2364 2366
755 1 2368 2367 2369
739 1 2371 2370 2372
741 1 2374 2373 2375
743 1 2377 2376 2378
745 1 2380 2379 2381
747 1 2383 2382 2384
749 1 2386 2385 2387
751 1 2389 2388 2390
753 1 2392 2391 2393
756 1 2395 2394 2396
757 1 2398 2397 2399
758 1 2401 2400 2402
759 1 2404 2403 2405
760 1 2407 2406 2408
761 1 2410 2409 2411
762 1 2413 2412 2414
763 1 2416 2415 2417
764 1 2419 2418 2420
765 1 2422 2421 2423
766 1 2425 2424 2426
767 1 2428 2427 2429
768 1 2431 2430 2432
769 1 2434 2433 2435
770 1 2437 2436 2438
771 1 2440 2439 2441
772 1 2443 2442 2444
773 1 2446 2445 2447
774 1 2449 2448 2450
775 1 2452 2451 2453
776 1 2455 2454 2456
777 1 2458 2457 2459
778 1 2461 2460 2462
779 1 2464 2463 2465
780 1 2467 2466 2468
781 1 2470 2469 2471
782 1 2473 2472 2474
783 1 2484 2483 2485
784 1 2487 2486 2488
786 1 2490 2489 2491
788 1 2493 2492 2494
790 1 2496 2495 2497
792 1 2499 2498 2500
794 1 2502 2501 2503
796 1 2505 2504 2506
798 1 2508 2507 2509
800 1 2511 2510 2512
801 1 2514 2513 2515
785 1 2517 2516 2518
787 1 2520 2519 2521
789 1 2523 2522 2524
791 1 2526 2525 2527
793 1 2529 2528 2530
795 1 2532 2531 2533
797 1 2535 2534 2536
799 1 2538 2537 2539
802 1 2541 2540 2542
803 1 2544 2543 2545
804 1 2547 2546 2548
805 1 2550 2549 2551
806 1 2553 2552 2554
807 1 2556 2555 2557
808 1 2559 2558 2560
809 1 2562 2561 2563
810 1 2565 2564 2566
811 1 2568 2567 2569
812 1 2571 2570 2572
813 1 2574 2573 2575
814 1 2577 2576 2578
815 1 2580 2579 2581
816 1 2583 2582 2584
817 1 2586 2585 2587
818 1 2589 2588 2590
819 1 2592 2591 2593
820 1 2595 2594 2596
821 1 2598 2597 2599
822 1 2601 2600 2602
823 1 2604 2603 2605
824 1 2607 2606 2608
825 1 2610 2609 2611
826 1 2613 2612 2614
827 1 2616 2615 2617
828 1 2619 2618 2620
829 1 2630 2629 2631
830 1 2633 2632 2634
832 1 2636 2635 2637
834 1 2639 2638 2640
836 1 2642 2641 2643
838 1 2645 2644 2646
840 1 2648 2647 2649
842 1 2651 2650 2652
844 1 2654 2653 2655
846 1 2657 2656 2658
847 1 2660 2659 2661
831 1 2663 2662 2664
833 1 2666 2665 2667
835 1 2669 2668 2670
837 1 2672 2671 2673
839 1 2675 2674 2676
841 1 2678 2677 2679
843 1 2681 2680 2682
845 1 2684 2683 2685
848 1 2687 2686 2688
849 1 2690 2689 2691
850 1 2693 2692 2694
851 1 2696 2695 2697
852 1 2699 2698 2700
853 1 2702 2701 2703
854 1 2705 2704 2706
855 1 2708 2707 2709
856 1 2711 2710 2712
857 1 2714 2713 2715
858 1 2717 2716 2718
859 1 2720 2719 2721
860 1 2723 2722 2724
861 1 2726 2725 2727
862 1 2729 2728 2730
863 1 2732 2731 2733
864 1 2735 2734 2736
865 1 2738 2737 2739
866 1 2741 2740 2742
867 1 2744 2743 2745
868 1 2747 2746 2748
869 1 2750 2749 2751
870 1 2753 2752 2754
871 1 2756 2755 2757
872 1 2759 2758 2760
873 1 2762 2761 2763
874 1 2765 2764 2766
875 1 2776 2775 2777
876 1 2779 2778 2780
878 1 2782 2781 2783
880 1 2785 2784 2786
882 1 2788 2787 2789
884 1 2791 2790 2792
886 1 2794 2793 2795
888 1 2797 2796 2798
890 1 2800 2799 2801
892 1 2803 2802 2804
893 1 2806 2805 2807
877 1 2809 2808 2810
879 1 2812 2811 2813
881 1 2815 2814 2816
883 1 2818 2817 2819
885 1 2821 2820 2822
887 1 2824 2823 2825
889 1 2827 2826 2828
891 1 2830 2829 2831
894 1 2833 2832 2834
895 1 2836 2835 2837
896 1 2839 2838 2840
897 1 2842 2841 2843
898 1 2845 2844 2846
899 1 2848 2847 2849
900 1 2851 2850 2852
901 1 2854 2853 2855
902 1 2857 2856 2858
903 1 2860 2859 2861
904 1 2863 2862 2864
905 1 2866 2865 2867
906 1 2869 2868 2870
907 1 2872 2871 2873
908 1 2875 2874 2876
909 1 2878 2877 2879
910 1 2881 2880 2882
911 1 2884 2883 2885
912 1 2887 2886 2888
913 1 2890 2889 2891
914 1 2893 2892 2894
915 1 2896 2895 2897
916 1 2899 2898 2900
917 1 2902 2901 2903
918 1 2905 2904 2906
919 1 2908 2907 2909
920 1 2911 2910 2912
921 1 2922 2921 2923
922 1 2925 2924 2926
924 1 2928 2927 2929
926 1 2931 2930 2932
928 1 2934 2933 2935
930 1 2937 2936 2938
932 1 2940 2939 2941
934 1 2943 2942 2944
936 1 2946 2945 2947
938 1 2949 2948 2950
939 1 2952 2951 2953
923 1 2955 2954 2956
925 1 2958 2957 2959
927 1 2961 2960 2962
929 1 2964 2963 2965
931 1 2967 2966 2968
933 1 2970 2969 2971
935 1 2973 2972 2974
937 1 2976 2975 2977
940 1 2979 2978 2980
941 1 2982 2981 2983
942 1 2985 2984 2986
943 1 2988 2987 2989
944 1 2991 2990 2992
945 1 2994 2993 2995
946 1 2997 2996 2998
947 1 3000 2999 3001
948 1 3003 3002 3004
949 1 3006 3005 3007
950 1 3009 3008 3010
951 1 3012 3011 3013
952 1 3015 3014 3016
953 1 3018 3017 3019
954 1 3021 3020 3022
955 1 3024 3023 3025
956 1 3027 3026 3028
957 1 3030 3029 3031
958 1 3033 3032 3034
959 1 3036 3035 3037
960 1 3039 3038 3040
961 1 3042 3041 3043
962 1 3045 3044 3046
963 1 3048 3047 3049
964 1 3051 3050 3052
965 1 3054 3053 3055
966 1 3057 3056 3058
967 1 3068 3067 3069
968 1 3071 3070 3072
970 1 3074 3073 3075
972 1 3077 3076 3078
974 1 3080 3079 3081
976 1 3083 3082 3084
978 1 3086 3085 3087
980 1 3089 3088 3090
982 1 3092 3091 3093
984 1 3095 3094 3096
985 1 3098 3097 3099
969 1 3101 3100 3102
971 1 3104 3103 3105
973 1 3107 3106 3108
975 1 3110 3109 3111
977 1 3113 3112 3114
979 1 3116 3115 3117
981 1 3119 3118 3120
983 1 3122 3121 3123
986 1 3125 3124 3126
987 1 3128 3127 3129
988 1 3131 3130 3132
989 1 3134 3133 3135
990 1 3137 3136 3138
991 1 3140 3139 3141
992 1 3143 3142 3144
993 1 3146 3145 3147
994 1 3149 3148 3150
995 1 3152 3151 3153
996 1 3155 3154 3156
997 1 3158 3157 3159
998 1 3161 3160 3162
999 1 3164 3163 3165
1000 1 3167 3166 3168
1001 1 3170 3169 3171
1002 1 3173 3172 3174
1003 1 3176 3175 3177
1004 1 3179 3178 3180
1005 1 3182 3181 3183
1006 1 3185 3184 3186
1007 1 3188 3187 3189
1008 1 3191 3190 3192
1009 1 3194 3193 3195
1010 1 3197 3196 3198
1011 1 3200 3199 3201
1012 1 3203 3202 3204
1013 1 3214 3213 3215
1014 1 3217 3216 3218
1016 1 3220 3219 3221
1018 1 3223 3222 3224
1020 1 3226 3225 3227
1022 1 3229 3228 3230
1024 1 3232 3231 3233
1026 1 3235 3234 3236
1028 1 3238 3237 3239
1030 1 3241 3240 3242
1031 1 3244 3243 3245
1015 1 3247 3246 3248
1017 1 3250 3249 3251
1019 1 3253 3252 3254
1021 1 3256 3255 3257
1023 1 3259 3258 3260
1025 1 3262 3261 3263
1027 1 3265 3264 3266
1029 1 3268 3267 3269
1032 1 3271 3270 3272
1033 1 3274 3273 3275
1034 1 3277 3276 3278
1035 1 3280 3279 3281
1036 1 3283 3282 3284
1037 1 3286 3285 3287
1038 1 3289 3288 3290
1039 1 3292 3291 3293
1040 1 3295 3294 3296
1041 1 3298 3297 3299
1042 1 3301 3300 3302
1043 1 3304 3303 3305
1044 1 3307 3306 3308
1045 1 3310 3309 3311
1046 1 3313 3312 3314
1047 1 3316 3315 3317
1048 1 3319 3318 3320
1049 1 3322 3321 3323
1050 1 3325 3324 3326
1051 1 3328 3327 3329
1052 1 3331 3330 3332
1053 1 3334 3333 3335
1054 1 3337 3336 3338
1055 1 3340 3339 3341
1056 1 3343 3342 3344
1057 1 3346 3345 3347
1058 1 3349 3348 3350
1059 1 3360 3359 3361
1060 1 3363 3362 3364
1062 1 3366 3365 3367
1064 1 3369 3368 3370
1066 1 3372 3371 3373
1068 1 3375 3374 3376
1070 1 3378 3377 3379
1072 1 3381 3380 3382
1074 1 3384 3383 3385
1076 1 3387 3386 3388
1077 1 3390 3389 3391
1061 1 3393 3392 3394
1063 1 3396 3395 3397
1065 1 3399 3398 3400
1067 1 3402 3401 3403
1069 1 3405 3404 3406
1071 1 3408 3407 3409
1073 1 3411 3410 3412
1075 1 3414 3413 3415
1078 1 3417 3416 3418
1079 1 3420 3419 3421
1080 1 3423 3422 3424
1081 1 3426 3425 3427
1082 1 3429 3428 3430
1083 1 3432 3431 3433
1084 1 3435 3434 3436
1085 1 3438 3437 3439
1086 1 3441 3440 3442
1087 1 3444 3443 3445
1088 1 3447 3446 3448
1089 1 3450 3449 3451
1090 1 3453 3452 3454
1091 1 3456 3455 3457
1092 1 3459 3458 3460
1093 1 3462 3461 3463
1094 1 3465 3464 3466
1095 1 3468 3467 3469
1096 1 3471 3470 3472
1097 1 3474 3473 3475
1098 1 3477 3476 3478
1099 1 3480 3479 3481
1100 1 3483 3482 3484
1101 1 3486 3485 3487
1102 1 3489 3488 3490
1103 1 3492 3491 3493
1104 1 3495 3494 3496
1105 1 3506 3505 3507
1106 1 3509 3508 3510
1107 1 3512 3511 3513
1108 1 3515 3514 3516
1109 1 3518 3517 3519
1110 1 3521 3520 3522
1111 1 3524 3523 3525
1112 1 3527 3526 3528
1113 1 3530 3529 3531
1114 1 3533 3532 3534
1115 1 3536 3535 3537
1116 1 3539 3538 3540
1117 1 3542 3541 3543
1118 1 3545 3544 3546
1119 1 3548 3547 3549
1120 1 3551 3550 3552
1121 1 3554 3553 3555
1122 1 3557 3556 3558
1123 1 3560 3559 3561
1124 1 3563 3562 3564
1125 1 3566 3565 3567
1126 1 3569 3568 3570
1127 1 3572 3571 3573
1128 1 3575 3574 3576
1129 1 3578 3577 3579
1130 1 3581 3580 3582
1131 1 3584 3583 3585
1132 1 3587 3586 3588
1133 1 3590 3589 3591
1134 1 3593 3592 3594
1135 1 3596 3595 3597
1136 1 3599 3598 3600
1137 1 3602 3601 3603
1138 1 3605 3604 3606
1139 1 3608 3607 3609
1140 1 3611 3610 3612
1141 1 3614 3613 3615
1142 1 3617 3616 3618
1143 1 3620 3619 3621
1144 1 3623 3622 3624
1145 1 3626 3625 3627
1146 1 3629 3628 3630
1147 1 3632 3631 3633
1148 1 3635 3634 3636
1149 1 3638 3637 3639
1150 1 3641 3640 3642
1151 1 3644 3643 3645
1152 1 3647 3646 3648
1153 1 3650 3649 3651
1154 1 3653 3652 3654
1155 1 3656 3655 3657
1156 1 3659 3658 3660
1157 1 3662 3661 3663
1158 1 3665 3664 3666
1159 1 3668 3667 3669
1160 1 3671 3670 3672
1161 1 3674 3673 3675
1162 1 3677 3676 3678
1163 1 3680 3679 3681
1164 1 3683 3682 3684
1165 1 3686 3685 3687
1166 1 3689 3688 3690
1167 1 3692 3691 3693
1168 1 3695 3694 3696
1169 1 3698 3697 3699
1170 1 3701 3700 3702
1171 1 3704 3703 3705
1172 1 3707 3706 3708
1173 1 3710 3709 3711
1174 1 3713 3712 3714
1175 1 3716 3715 3717
1176 1 3719 3718 3720
1177 1 3722 3721 3723
1178 1 3725 3724 3726
1179 1 3728 3727 3729
1180 1 3731 3730 3732
1181 1 3734 3733 3735
1182 1 3737 3736 3738
1183 1 3740 3739 3741
1184 1 3743 3742 3744
1185 1 3746 3745 3747
1186 1 3749 3748 3750
1187 1 3752 3751 3753
1188 1 3755 3754 3756
1189 1 3758 3757 3759
1190 1 3761 3760 3762
1191 1 3764 3763 3765
1192 1 3767 3766 3768
1193 1 3770 3769 3771
1194 1 3773 3772 3774
1195 1 3776 3775 3777
1196 1 3779 3778 3780
1197 1 3782 3781 3783
1198 1 3785 3784 3786
1199 1 3788 3787 3789
1200 1 3791 3790 3792
1201 1 3794 3793 3795
1202 1 3797 3796 3798
1203 1 3800 3799 3801
1204 1 3803 3802 3804
1205 1 3806 3805 3807
1206 1 3809 3808 3810
1207 1 3812 3811 3813
1208 1 3815 3814 3816
1209 1 3818 3817 3819
1210 1 3821 3820 3822
1211 1 3824 3823 3825
1212 1 3827 3826 3828
1213 1 3830 3829 3831
1214 1 3833 3832 3834
1215 1 3836 3835 3837
1216 1 3839 3838 3840
1217 1 3842 3841 3843
1218 1 3845 3844 3846
1219 1 3848 3847 3849
1220 1 3851 3850 3852
1221 1 3854 3853 3855
1222 1 3857 3856 3858
1223 1 3860 3859 3861
1224 1 3863 3862 3864
1225 1 3866 3865 3867
1226 1 3869 3868 3870
1227 1 3872 3871 3873
1228 1 3875 3874 3876
1229 1 3878 3877 3879
1230 1 3881 3880 3882
1231 1 3884 3883 3885
1232 1 3887 3886 3888
1233 1 3890 3889 3891
1234 1 3893 3892 3894
1235 1 3896 3895 3897
1236 1 3899 3898 3900
1237 1 3902 3901 3903
1238 1 3905 3904 3906
1239 1 3908 3907 3909
1240 1 3911 3910 3912
1241 1 3914 3913 3915
1242 1 3917 3916 3918
1243 1 3920 3919 3921
1244 1 3923 3922 3924
1245 1 3926 3925 3927
1246 1 3929 3928 3930
1247 1 3932 3931 3933
1248 1 3935 3934 3936
1249 1 3938 3937 3939
1250 1 3941 3940 3942
1251 1 3944 3943 3945
1252 1 3947 3946 3948
1253 1 3950 3949 3951
1254 1 3953 3952 3954
1255 1 3956 3955 3957
1256 1 3959 3958 3960
1257 1 3962 3961 3963
1258 1 3965 3964 3966
1259 1 3968 3967 3969
1260 1 3971 3970 3972
1261 1 3974 3973 3975
1262 1 3977 3976 3978
1263 1 3980 3979 3981
1264 1 3983 3982 3984
1265 1 3986 3985 3987
1266 1 3989 3988 3990
1267 1 3992 3991 3993
1268 1 3995 3994 3996
1269 1 3998 3997 3999
1270 1 4001 4000 4002
1271 1 4004 4003 4005
1272 1 4007 4006 4008
1273 1 4010 4009 4011
1274 1 4013 4012 4014
1275 1 4016 4015 4017
1276 1 4019 4018 4020
1277 1 4022 4021 4023
1278 1 4025 4024 4026
1279 1 4028 4027 4029
1280 1 4031 4030 4032
1281 1 4034 4033 4035
1282 1 4037 4036 4038
1283 1 4040 4039 4041
1284 1 4043 4042 4044
1285 1 4046 4045 4047
1286 1 4049 4048 4050
1287 1 4052 4051 4053
1288 1 4055 4054 4056
1289 1 4058 4057 4059
1290 1 4061 4060 4062
1291 1 4064 4063 4065
1292 1 4067 4066 4068
1293 1 4070 4069 4071
1294 1 4073 4072 4074
1295 1 4076 4075 4077
1296 1 4079 4078 4080
1297 1 4082 4081 4083
1298 1 4085 4084 4086
1299 1 4088 4087 4089
1300 1 4091 4090 4092
1301 1 4094 4093 4095
1302 1 4097 4096 4098
1303 1 4100 4099 4101
1304 1 4103 4102 4104
1305 1 4106 4105 4107
1306 1 4109 4108 4110
1307 1 4112 4111 4113
1308 1 4115 4114 4116
1309 1 4118 4117 4119
1310 1 4121 4120 4122
1311 1 4124 4123 4125
1312 1 4127 4126 4128
1313 1 4130 4129 4131
1314 1 4133 4132 4134
1315 1 4136 4135 4137
1316 1 4139 4138 4140
1317 1 4142 4141 4143
1318 1 4145 4144 4146
1319 1 4148 4147 4149
1320 1 4151 4150 4152
1321 1 4154 4153 4155
1322 1 4157 4156 4158
1323 1 4160 4159 4161
1324 1 4163 4162 4164
1325 1 4166 4165 4167
1326 1 4169 4168 4170
1327 1 4172 4171 4173
1328 1 4175 4174 4176
1329 1 4178 4177 4179
1330 1 4181 4180 4182
1331 1 4184 4183 4185
1332 1 4187 4186 4188
1333 1 4190 4189 4191
1334 1 4193 4192 4194
1335 1 4196 4195 4197
1336 1 4199 4198 4200
1337 1 4202 4201 4203
1338 1 4205 4204 4206
1339 1 4208 4207 4209
1340 1 4211 4210 4212
1341 1 4214 4213 4215
1342 1 4217 4216 4218
1343 1 4220 4219 4221
1344 1 4223 4222 4224
1345 1 4226 4225 4227
1346 1 4229 4228 4230
1347 1 4232 4231 4233
1348 1 4235 4234 4236
1349 1 4238 4237 4239
1350 1 4241 4240 4242
1351 1 4244 4243 4245
1352 1 4247 4246 4248
1353 1 4250 4249 4251
1354 1 4253 4252 4254
1355 1 4256 4255 4257
1356 1 4259 4258 4260
1357 1 4262 4261 4263
1358 1 4265 4264 4266
1359 1 4268 4267 4269
1360 1 4271 4270 4272
1361 1 4274 4273 4275
1362 1 4277 4276 4278
1363 1 4280 4279 4281
1364 1 4283 4282 4284
1365 1 4286 4285 4287
1366 1 4289 4288 4290
1367 1 4292 4291 4293
1368 1 4295 4294 4296
1369 1 4298 4297 4299
1370 1 4301 4300 4302
1371 1 4304 4303 4305
1372 1 4307 4306 4308
1373 1 4310 4309 4311
1374 1 4313 4312 4314
1375 1 4316 4315 4317
1376 1 4319 4318 4320
1377 1 4322 4321 4323
1378 1 4325 4324 4326
1379 1 4328 4327 4329
1380 1 4331 4330 4332
1381 1 4334 4333 4335
1382 1 4337 4336 4338
1383 1 4340 4339 4341
1384 1 4343 4342 4344
1385 1 4346 4345 4347
1386 1 4349 4348 4350
1387 1 4352 4351 4353
1388 1 4355 4354 4356
1389 1 4358 4357 4359
1390 1 4361 4360 4362
1391 1 4364 4363 4365
1392 1 4367 4366 4368
1393 1 4370 4369 4371
1394 1 4373 4372 4374
1395 1 4376 4375 4377
1396 1 4379 4378 4380
1397 1 4382 4381 4383
1398 1 4385 4384 4386
1399 1 4388 4387 4389
1400 1 4391 4390 4392
1401 1 4394 4393 4395
1402 1 4397 4396 4398
1403 1 4400 4399 4401
1404 1 4403 4402 4404
1405 1 4406 4405 4407
1406 1 4409 4408 4410
1407 1 4412 4411 4413
1408 1 4415 4414 4416
1409 1 4418 4417 4419
1410 1 4421 4420 4422
1411 1 4424 4423 4425
1412 1 4427 4426 4428
1413 1 4430 4429 4431
1414 1 4433 4432 4434
1415 1 4436 4435 4437
1416 1 4439 4438 4440
1417 1 4442 4441 4443
1418 1 4445 4444 4446
1419 1 4448 4447 4449
1420 1 4451 4450 4452
1421 1 4454 4453 4455
1422 1 4457 4456 4458
1423 1 4460 4459 4461
1424 1 4463 4462 4464
1425 1 4466 4465 4467
1426 1 4469 4468 4470
1427 1 4472 4471 4473
1428 1 4475 4474 4476
1429 1 4478 4477 4479
1430 1 4481 4480 4482
1431 1 4484 4483 4485
1432 1 4487 4486 4488
1433 1 4490 4489 4491
1434 1 4493 4492 4494
1435 1 4496 4495 4497
1436 1 4499 4498 4500
1437 1 4502 4501 4503
1438 1 4505 4504 4506
1439 1 4508 4507 4509
1440 1 4511 4510 4512
1441 1 4514 4513 4515
1442 1 4517 4516 4518
1443 1 4520 4519 4521
1444 1 4523 4522 4524
1445 1 4526 4525 4527
1446 1 4529 4528 4530
1447 1 4532 4531 4533
1448 1 4535 4534 4536
1449 1 4538 4537 4539
1450 1 4541 4540 4542
1451 1 4544 4543 4545
1452 1 4547 4546 4548
1453 1 4550 4549 4551
1454 1 4553 4552 4554
1455 1 4556 4555 4557
1456 1 4559 4558 4560
1457 1 4562 4561 4563
1458 1 4565 4564 4566
1459 1 4568 4567 4569
1460 1 4571 4570 4572
1461 1 4574 4573 4575
1462 1 4577 4576 4578
1463 1 4580 4579 4581
1464 1 4583 4582 4584
1465 1 4586 4585 4587
1466 1 4589 4588 4590
1467 1 4592 4591 4593
1468 1 4595 4594 4596
1469 1 4598 4597 4599
1470 1 4601 4600 4602
1471 1 4604 4603 4605
1472 1 4607 4606 4608
1473 1 4610 4609 4611
1474 1 4613 4612 4614
1475 1 4616 4615 4617
1476 1 4619 4618 4620
1477 1 4622 4621 4623
1478 1 4625 4624 4626
1479 1 4628 4627 4629
1480 1 4631 4630 4632
1481 1 4634 4633 4635
1482 1 4637 4636 4638
1483 1 4640 4639 4641
1484 1 4643 4642 4644
1485 1 4646 4645 4647
1486 1 4649 4648 4650
1487 1 4652 4651 4653
1488 1 4655 4654 4656
1489 1 4658 4657 4659
1490 1 4661 4660 4662
1491 1 4664 4663 4665
1492 1 4667 4666 4668
1493 1 4670 4669 4671
1494 1 4673 4672 4674
1495 1 4676 4675 4677
1496 1 4679 4678 4680
1497 1 4682 4681 4683
1498 1 4685 4684 4686
1499 1 4688 4687 4689
1500 1 4691 4690 4692
1501 1 4694 4693 4695
1502 1 4697 4696 4698
1503 1 4700 4699 4701
1504 1 4703 4702 4704
1505 1 4706 4705 4707
1506 1 4709 4708 4710
1507 1 4712 4711 4713
1508 1 4715 4714 4716
1509 1 4718 4717 4719
1510 1 4721 4720 4722
1511 1 4724 4723 4725
1512 1 4727 4726 4728
1513 1 4730 4729 4731
1514 1 4733 4732 4734
1515 1 4736 4735 4737
1516 1 4739 4738 4740
1517 1 4742 4741 4743
1518 1 4745 4744 4746
1519 1 4748 4747 4749
1520 1 4751 4750 4752
1521 1 4754 4753 4755
1522 1 4757 4756 4758
1523 1 4760 4759 4761
1524 1 4763 4762 4764
1525 1 4766 4765 4767
1526 1 4769 4768 4770
1527 1 4772 4771 4773
1528 1 4775 4774 4776
1529 1 4778 4777 4779
1530 1 4781 4780 4782
1531 1 4784 4783 4785
1532 1 4787 4786 4788
1533 1 4790 4789 4791
1534 1 4793 4792 4794
1535 1 4796 4795 4797
1536 1 4799 4798 4800
1537 1 4802 4801 4803
1538 1 4805 4804 4806
1539 1 4808 4807 4809
1540 1 4811 4810 4812
1541 1 4814 4813 4815
1542 1 4817 4816 4818
1543 1 4820 4819 4821
1544 1 4823 4822 4824
1545 1 4826 4825 4827
1546 1 4829 4828 4830
1547 1 4832 4831 4833
1548 1 4835 4834 4836
1549 1 4838 4837 4839
1550 1 4841 4840 4842
1551 1 4844 4843 4845
1552 1 4847 4846 4848
1553 1 4850 4849 4851
1554 1 4853 4852 4854
1555 1 4856 4855 4857
1556 1 4859 4858 4860
1557 1 4862 4861 4863
1558 1 4865 4864 4866
1559 1 4868 4867 4869
1560 1 4871 4870 4872
1561 1 4874 4873 4875
1562 1 4877 4876 4878
1563 1 4880 4879 4881
1564 1 4883 4882 4884
1565 1 4886 4885 4887
1566 1 4889 4888 4890
1567 1 4892 4891 4893
1568 1 4895 4894 4896
1569 1 4898 4897 4899
1570 1 4901 4900 4902
1571 1 4904 4903 4905
1572 1 4907 4906 4908
1573 1 4910 4909 4911
1574 1 4913 4912 4914
1575 1 4916 4915 4917
1576 1 4919 4918 4920
1577 1 4922 4921 4923
1578 1 4925 4924 4926
1579 1 4928 4927 4929
1580 1 4931 4930 4932
1581 1 4934 4933 4935
1582 1 4937 4936 4938
1583 1 4940 4939 4941
1584 1 4943 4942 4944
1585 1 4946 4945 4947
1586 1 4949 4948 4950
1587 1 4952 4951 4953
1588 1 4955 4954 4956
1589 1 4958 4957 4959
1590 1 4961 4960 4962
1591 1 4964 4963 4965
1592 1 4967 4966 4968
1593 1 4970 4969 4971
1594 1 4973 4972 4974
1595 1 4976 4975 4977
1596 1 4979 4978 4980
1597 1 4982 4981 4983
1598 1 4985 4984 4986
1599 1 4988 4987 4989
1600 1 4991 4990 4992
1601 1 4994 4993 4995
1602 1 4997 4996 4998
1603 1 5000 4999 5001
1604 1 5003 5002 5004
1605 1 5006 5005 5007
1606 1 5009 5008 5010
1607 1 5012 5011 5013
1608 1 5015 5014 5016
1609 1 5018 5017 5019
1610 1 5021 5020 5022
1611 1 5024 5023 5025
1612 1 5027 5026 5028
1613 1 5030 5029 5031
1614 1 5033 5032 5034
1615 1 5036 5035 5037
1616 1 5039 5038 5040
1617 1 5042 5041 5043
1618 1 5045 5044 5046
1619 1 5048 5047 5049
1620 1 5051 5050 5052
1621 1 5054 5053 5055
1622 1 5057 5056 5058
1623 1 5060 5059 5061
1624 1 5063 5062 5064
1625 1 5066 5065 5067
1626 1 5069 5068 5070
1627 1 5072 5071 5073
1628 1 5075 5074 5076
1629 1 5078 5077 5079
1630 1 5081 5080 5082
1631 1 5084 5083 5085
1632 1 5087 5086 5088
1633 1 5090 5089 5091
1634 1 5093 5092 5094
1635 1 5096 5095 5097
1636 1 5099 5098 5100
1637 1 5102 5101 5103
1638 1 5105 5104 5106
1639 1 5108 5107 5109
1640 1 5111 5110 5112
1641 1 5114 5113 5115
1642 1 5117 5116 5118
1643 1 5120 5119 5121
1644 1 5123 5122 5124
1645 1 5126 5125 5127
1646 1 5129 5128 5130
1647 1 5132 5131 5133
1648 1 5135 5134 5136
1649 1 5138 5137 5139
1650 1 5141 5140 5142
1651 1 5144 5143 5145
1652 1 5147 5146 5148
1653 1 5150 5149 5151
1654 1 5153 5152 5154
1655 1 5156 5155 5157
1656 1 5159 5158 5160
1657 1 5162 5161 5163
1658 1 5165 5164 5166
1659 1 5168 5167 5169
1660 1 5171 5170 5172
1661 1 5174 5173 5175
1662 1 5177 5176 5178
1663 1 5180 5179 5181
1664 1 5183 5182 5184
1665 1 5186 5185 5187
1666 1 5189 5188 5190
1667 1 5192 5191 5193
1668 1 5195 5194 5196
1669 1 5198 5197 5199
1670 1 5201 5200 5202
1671 1 5204 5203 5205
1672 1 5207 5206 5208
1673 1 5210 5209 5211
1674 1 5213 5212 5214
1675 1 5216 5215 5217
1676 1 5219 5218 5220
1677 1 5222 5221 5223
1678 1 5225 5224 5226
1679 1 5228 5227 5229
1680 1 5231 5230 5232
1681 1 5234 5233 5235
1682 1 5237 5236 5238
1683 1 5240 5239 5241
1684 1 5243 5242 5244
1685 1 5246 5245 5247
1686 1 5249 5248 5250
1687 1 5252 5251 5253
1688 1 5255 5254 5256
1689 1 5258 5257 5259
1690 1 5261 5260 5262
1691 1 5264 5263 5265
1692 1 5267 5266 5268
1693 1 5270 5269 5271
1694 1 5273 5272 5274
1695 1 5276 5275 5277
1696 1 5279 5278 5280
1697 1 5282 5281 5283
1698 1 5285 5284 5286
1699 1 5288 5287 5289
1700 1 5291 5290 5292
1701 1 5294 5293 5295
1702 1 5297 5296 5298
1703 1 5300 5299 5301
1704 1 5303 5302 5304
1705 1 5306 5305 5307
1706 1 5309 5308 5310
1707 1 5312 5311 5313
1708 1 5315 5314 5316
1709 1 5318 5317 5319
1710 1 5321 5320 5322
1711 1 5324 5323 5325
1712 1 5327 5326 5328
1713 1 5330 5329 5331
1714 1 5333 5332 5334
1715 1 5336 5335 5337
1716 1 5339 5338 5340
1717 1 5342 5341 5343
1718 1 5345 5344 5346
1719 1 5348 5347 5349
1720 1 5351 5350 5352
1721 1 5354 5353 5355
1722 1 5357 5356 5358
1723 1 5360 5359 5361
1724 1 5363 5362 5364
1725 1 5366 5365 5367
1726 1 5369 5368 5370
1727 1 5372 5371 5373
1728 1 5375 5374 5376
1729 1 5378 5377 5379
1730 1 5381 5380 5382
1731 1 5384 5383 5385
1732 1 5387 5386 5388
1733 1 5390 5389 5391
1734 1 5393 5392 5394
1735 1 5396 5395 5397
1736 1 5399 5398 5400
1737 1 5402 5401 5403
1738 1 5405 5404 5406
1739 1 5408 5407 5409
1740 1 5411 5410 5412
1741 1 5414 5413 5415
1742 1 5417 5416 5418
1743 1 5420 5419 5421
1744 1 5423 5422 5424
1745 1 5426 5425 5427
1746 1 5429 5428 5430
1747 1 5432 5431 5433
1748 1 5435 5434 5436
1749 1 5438 5437 5439
1750 1 5441 5440 5442
1751 1 5444 5443 5445
1752 1 5447 5446 5448
1753 1 5450 5449 5451
1754 1 5453 5452 5454
1755 1 5456 5455 5457
1756 1 5459 5458 5460
1757 1 5462 5461 5463
1758 1 5465 5464 5466
1759 1 5468 5467 5469
1760 1 5471 5470 5472
1761 1 5474 5473 5475
1762 1 5477 5476 5478
1763 1 5480 5479 5481
1764 1 5483 5482 5484
1765 1 5486 5485 5487
1766 1 5489 5488 5490
1767 1 5492 5491 5493
1768 1 5495 5494 5496
1769 1 5498 5497 5499
1770 1 5501 5500 5502
1771 1 5504 5503 5505
1772 1 5507 5506 5508
1773 1 5510 5509 5511
1774 1 5513 5512 5514
1775 1 5516 5515 5517
1776 1 5519 5518 5520
1777 1 5522 5521 5523
1778 1 5525 5524 5526
1779 1 5528 5527 5529
1780 1 5531 5530 5532
1781 1 5534 5533 5535
1782 1 5537 5536 5538
1783 1 5540 5539 5541
1784 1 5543 5542 5544
1785 1 5546 5545 5547
1786 1 5549 5548 5550
1787 1 5552 5551 5553
1788 1 5555 5554 5556
1789 1 5558 5557 5559
1790 1 5561 5560 5562
1791 1 5564 5563 5565
1792 1 5567 5566 5568
1793 1 5570 5569 5571
1794 1 5573 5572 5574
1795 1 5576 5575 5577
1796 1 5579 5578 5580
1797 1 5582 5581 5583
1798 1 5585 5584 5586
1799 1 5588 5587 5589
1800 1 5591 5590 5592
1801 1 5594 5593 5595
1802 1 5597 5596 5598
1803 1 5600 5599 5601
1804 1 5603 5602 5604
1805 1 5606 5605 5607
1806 1 5609 5608 5610
1807 1 5612 5611 5613
1808 1 5615 5614 5616
1809 1 5618 5617 5619
1810 1 5621 5620 5622
1811 1 5624 5623 5625
1812 1 5627 5626 5628
1813 1 5630 5629 5631
1814 1 5633 5632 5634
1815 1 5636 5635 5637
1816 1 5639 5638 5640
1817 1 5642 5641 5643
1818 1 5645 5644 5646
1819 1 5648 5647 5649
1820 1 5651 5650 5652
1821 1 5654 5653 5655
1822 1 5657 5656 5658
1823 1 5660 5659 5661
1824 1 5663 5662 5664
1825 1 5666 5665 5667
1826 1 5669 5668 5670
1827 1 5672 5671 5673
1828 1 5675 5674 5676
1829 1 5678 5677 5679
1830 1 5681 5680 5682
1831 1 5684 5683 5685
1832 1 5687 5686 5688
1833 1 5690 5689 5691
1834 1 5693 5692 5694
1835 1 5696 5695 5697
1836 1 5699 5698 5700
1837 1 5702 5701 5703
1838 1 5705 5704 5706
1839 1 5708 5707 5709
1840 1 5711 5710 5712
1841 1 5714 5713 5715
1842 1 5717 5716 5718
1843 1 5720 5719 5721
1844 1 5723 5722 5724
1845 1 5726 5725 5727
1846 1 5729 5728 5730
1847 1 5732 5731 5733
1848 1 5735 5734 5736
1849 1 5738 5737 5739
1850 1 5741 5740 5742
1851 1 5744 5743 5745
1852 1 5747 5746 5748
1853 1 5750 5749 5751
1854 1 5753 5752 5754
1855 1 5756 5755 5757
1856 1 5759 5758 5760
1857 1 5762 5761 5763
1858 1 5765 5764 5766
1859 1 5768 5767 5769
1860 1 5771 5770 5772
1861 1 5774 5773 5775
1862 1 5777 5776 5778
1863 1 5780 5779 5781
1864 1 5783 5782 5784
1865 1 5786 5785 5787
1866 1 5789 5788 5790
1867 1 5792 5791 5793
1868 1 5795 5794 5796
1869 1 5798 5797 5799
1870 1 5801 5800 5802
1871 1 5804 5803 5805
1872 1 5807 5806 5808
1873 1 5810 5809 5811
1874 1 5813 5812 5814
1875 1 5816 5815 5817
1876 1 5819 5818 5820
1877 1 5822 5821 5823
1878 1 5825 5824 5826
1879 1 5828 5827 5829
1880 1 5831 5830 5832
1881 1 5834 5833 5835
1882 1 5837 5836 5838
1883 1 5840 5839 5841
1884 1 5843 5842 5844
1885 1 5846 5845 5847
1886 1 5849 5848 5850
1887 1 5852 5851 5853
1888 1 5855 5854 5856
1889 1 5858 5857 5859
1890 1 5861 5860 5862
1891 1 5864 5863 5865
1892 1 5867 5866 5868
1893 1 5870 5869 5871
1894 1 5873 5872 5874
1895 1 5876 5875 5877
1896 1 5879 5878 5880
1897 1 5882 5881 5883
1898 1 5885 5884 5886
1899 1 5888 5887 5889
1900 1 5891 5890 5892
1901 1 5894 5893 5895
1902 1 5897 5896 5898
1903 1 5900 5899 5901
1904 1 5903 5902 5904
1905 1 5906 5905 5907
1906 1 5909 5908 5910
1907 1 5912 5911 5913
1908 1 5915 5914 5916
1909 1 5918 5917 5919
1910 1 5921 5920 5922
1911 1 5924 5923 5925
1912 1 5927 5926 5928
1913 1 5930 5929 5931
1914 1 5933 5932 5934
1915 1 5936 5935 5937
1916 1 5939 5938 5940
1917 1 5942 5941 5943
1918 1 5945 5944 5946
1919 1 5948 5947 5949
1920 1 5951 5950 5952
1921 1 5954 5953 5955
1922 1 5957 5956 5958
1923 1 5960 5959 5961
1924 1 5963 5962 5964
1925 1 5966 5965 5967
1926 1 5969 5968 5970
1927 1 5972 5971 5973
1928 1 5975 5974 5976
1929 1 5978 5977 5979
1930 1 5981 5980 5982
1931 1 5984 5983 5985
1932 1 5987 5986 5988
1933 1 5990 5989 5991
1934 1 5993 5992 5994
1935 1 5996 5995 5997
1936 1 5999 5998 6000
1937 1 6002 6001 6003
1938 1 6005 6004 6006
1939 1 6008 6007 6009
1940 1 6011 6010 6012
1941 1 6014 6013 6015
1942 1 6017 6016 6018
1943 1 6020 6019 6021
1944 1 6023 6022 6024
1945 1 6026 6025 6027
1946 1 6029 6028 6030
1947 1 6032 6031 6033
1948 1 6035 6034 6036
1949 1 6038 6037 6039
1950 1 6041 6040 6042
1951 1 6044 6043 6045
1952 1 6047 6046 6048
1953 1 6050 6049 6051
1954 1 6053 6052 6054
1955 1 6056 6055 6057
1956 1 6059 6058 6060
1957 1 6062 6061 6063
1958 1 6065 6064 6066
1959 1 6068 6067 6069
1960 1 6071 6070 6072
1961 1 6074 6073 6075
1962 1 6077 6076 6078
1963 1 6080 6079 6081
1964 1 6083 6082 6084
1965 1 6086 6085 6087
1966 1 6089 6088 6090
1967 1 6092 6091 6093
1968 1 6095 6094 6096
1969 1 6098 6097 6099
1970 1 6101 6100 6102
1971 1 6104 6103 6105
1972 1 6107 6106 6108
1973 1 6110 6109 6111
1974 1 6113 6112 6114
1975 1 6116 6115 6117
1976 1 6119 6118 6120
1977 1 6122 6121 6123
1978 1 6125 6124 6126
1979 1 6128 6127 6129
1980 1 6131 6130 6132
1981 1 6134 6133 6135
1982 1 6137 6136 6138
1983 1 6140 6139 6141
1984 1 6143 6142 6144
1985 1 6146 6145 6147
1986 1 6149 6148 6150
1987 1 6152 6151 6153
1988 1 6155 6154 6156
1989 1 6158 6157 6159
1990 1 6161 6160 6162
1991 1 6164 6163 6165
1992 1 6167 6166 6168
1993 1 6170 6169 6171
1994 1 6173 6172 6174
1995 1 6176 6175 6177
1996 1 6179 6178 6180
1997 1 6182 6181 6183
1998 1 6185 6184 6186
1999 1 6188 6187 6189
2000 1 6191 6190 6192
2001 1 6194 6193 6195
2002 1 6197 6196 6198
2003 1 6200 6199 6201
2004 1 6203 6202 6204
2005 1 6206 6205 6207
2006 1 6209 6208 6210
2007 1 6212 6211 6213
2008 1 6215 6214 6216
2009 1 6218 6217 6219
2010 1 6221 6220 6222
2011 1 6224 6223 6225
2012 1 6227 6226 6228
2013 1 6230 6229 6231
2014 1 6233 6232 6234
2015 1 6236 6235 6237
2016 1 6239 6238 6240
2017 1 6242 6241 6243
2018 1 6245 6244 6246
2019 1 6248 6247 6249
2020 1 6251 6250 6252
2021 1 6254 6253 6255
2022 1 6257 6256 6258
2023 1 6260 6259 6261
2024 1 6263 6262 6264
2025 1 6266 6265 6267
2026 1 6269 6268 6270
2027 1 6272 6271 6273
2028 1 6275 6274 6276
2029 1 6278 6277 6279
2030 1 6281 6280 6282
2031 1 6284 6283 6285
2032 1 6287 6286 6288
2033 1 6290 6289 6291
2034 1 6293 6292 6294
2035 1 6296 6295 6297
2036 1 6299 6298 6300
2037 1 6302 6301 6303
2038 1 6305 6304 6306
2039 1 6308 6307 6309
2040 1 6311 6310 6312
2041 1 6314 6313 6315
2042 1 6317 6316 6318
2043 1 6320 6319 6321
2044 1 6323 6322 6324
2045 1 6326 6325 6327
2046 1 6329 6328 6330
2047 1 6332 6331 6333
2048 1 6335 6334 6336
2049 1 6338 6337 6339
2050 1 6341 6340 6342
2051 1 6344 6343 6345
2052 1 6347 6346 6348
2053 1 6350 6349 6351
2054 1 6353 6352 6354
2055 1 6356 6355 6357
2056 1 6359 6358 6360
2057 1 6362 6361 6363
2058 1 6365 6364 6366
2059 1 6368 6367 6369
2060 1 6371 6370 6372
2061 1 6374 6373 6375
2062 1 6377 6376 6378
2063 1 6380 6379 6381
2064 1 6383 6382 6384
2065 1 6386 6385 6387
2066 1 6389 6388 6390
2067 1 6392 6391 6393
2068 1 6395 6394 6396
2069 1 6398 6397 6399
2070 1 6401 6400 6402
2071 1 6404 6403 6405
2072 1 6407 6406 6408
2073 1 6410 6409 6411
2074 1 6413 6412 6414
2075 1 6416 6415 6417
2076 1 6419 6418 6420
2077 1 6422 6421 6423
2078 1 6425 6424 6426
2079 1 6428 6427 6429
2080 1 6431 6430 6432
2081 1 6434 6433 6435
2082 1 6437 6436 6438
2083 1 6440 6439 6441
2084 1 6443 6442 6444
2085 1 6446 6445 6447
2086 1 6449 6448 6450
2087 1 6452 6451 6453
2088 1 6455 6454 6456
2089 1 6458 6457 6459
2090 1 6461 6460 6462
2091 1 6464 6463 6465
2092 1 6467 6466 6468
2093 1 6470 6469 6471
2094 1 6473 6472 6474
2095 1 6476 6475 6477
2096 1 6479 6478 6480
2097 1 6482 6481 6483
2098 1 6485 6484 6486
2099 1 6488 6487 6489
2100 1 6491 6490 6492
2101 1 6494 6493 6495
2102 1 6497 6496 6498
2103 1 6500 6499 6501
2104 1 6503 6502 6504
2105 1 6506 6505 6507
2106 1 6509 6508 6510
2107 1 6512 6511 6513
2108 1 6515 6514 6516
2109 1 6518 6517 6519
2110 1 6521 6520 6522
2111 1 6524 6523 6525
2112 1 6527 6526 6528
2113 1 6530 6529 6531
2114 1 6533 6532 6534
2115 1 6536 6535 6537
2116 1 6539 6538 6540
2117 1 6542 6541 6543
2118 1 6545 6544 6546
2119 1 6548 6547 6549
2120 1 6551 6550 6552
2121 1 6554 6553 6555
2122 1 6557 6556 6558
2123 1 6560 6559 6561
2124 1 6563 6562 6564
2125 1 6566 6565 6567
2126 1 6569 6568 6570
2127 1 6572 6571 6573
2128 1 6575 6574 6576
2129 1 6578 6577 6579
2130 1 6581 6580 6582
2131 1 6584 6583 6585
2132 1 6587 6586 6588
2133 1 6590 6589 6591
2134 1 6593 6592 6594
2135 1 6596 6595 6597
2136 1 6599 6598 6600
2137 1 6602 6601 6603
2138 1 6605 6604 6606
2139 1 6608 6607 6609
2140 1 6611 6610 6612
2141 1 6614 6613 6615
2142 1 6617 6616 6618
2143 1 6620 6619 6621
2144 1 6623 6622 6624
2145 1 6626 6625 6627
2146 1 6629 6628 6630
2147 1 6632 6631 6633
2148 1 6635 6634 6636
2149 1 6638 6637 6639
2150 1 6641 6640 6642
2151 1 6644 6643 6645
2152 1 6647 6646 6648
2153 1 6650 6649 6651
2154 1 6653 6652 6654
2155 1 6656 6655 6657
2156 1 6659 6658 6660
2157 1 6662 6661 6663
2158 1 6665 6664 6666
2159 1 6668 6667 6669
2160 1 6671 6670 6672
2161 1 6674 6673 6675
2162 1 6677 6676 6678
2163 1 6680 6679 6681
2164 1 6683 6682 6684
2165 1 6686 6685 6687
2166 1 6689 6688 6690
2167 1 6692 6691 6693
2168 1 6695 6694 6696
2169 1 6698 6697 6699
2170 1 6701 6700 6702
2171 1 6704 6703 6705
2172 1 6707 6706 6708
2173 1 6710 6709 6711
2174 1 6713 6712 6714
2175 1 6716 6715 6717
2176 1 6719 6718 6720
2177 1 6722 6721 6723
2178 1 6725 6724 6726
2179 1 6728 6727 6729
2180 1 6731 6730 6732
2181 1 6734 6733 6735
2182 1 6737 6736 6738
2183 1 6740 6739 6741
2184 1 6743 6742 6744
2185 1 6746 6745 6747
2186 1 6749 6748 6750
2187 1 6752 6751 6753
2188 1 6755 6754 6756
2189 1 6758 6757 6759
2190 1 6761 6760 6762
2191 1 6764 6763 6765
2192 1 6767 6766 6768
2193 1 6770 6769 6771
2194 1 6773 6772 6774
2195 1 6776 6775 6777
2196 1 6779 6778 6780
2197 1 6782 6781 6783
2198 1 6785 6784 6786
2199 1 6788 6787 6789
2200 1 6791 6790 6792
2201 1 6794 6793 6795
2202 1 6797 6796 6798
2203 1 6800 6799 6801
2204 1 6803 6802 6804
2205 1 6806 6805 6807
2206 1 6809 6808 6810
2207 1 6812 6811 6813
2208 1 6815 6814 6816
2209 1 6818 6817 6819
2210 1 6821 6820 6822
2211 1 6824 6823 6825
2212 1 6827 6826 6828
2213 1 6830 6829 6831
2214 1 6833 6832 6834
2215 1 6836 6835 6837
2216 1 6839 6838 6840
2217 1 6842 6841 6843
2218 1 6845 6844 6846
2219 1 6848 6847 6849
2220 1 6851 6850 6852
2221 1 6854 6853 6855
2222 1 6857 6856 6858
2223 1 6860 6859 6861
2224 1 6863 6862 6864
2225 1 6866 6865 6867
2226 1 6869 6868 6870
2227 1 6872 6871 6873
2228 1 6875 6874 6876
2229 1 6878 6877 6879
2230 1 6881 6880 6882
2231 1 6884 6883 6885
2232 1 6887 6886 6888
2233 1 6890 6889 6891
2234 1 6893 6892 6894
2235 1 6896 6895 6897
2236 1 6899 6898 6900
2237 1 6902 6901 6903
2238 1 6905 6904 6906
2239 1 6908 6907 6909
2240 1 6911 6910 6912
2241 1 6914 6913 6915
2242 1 6917 6916 6918
2243 1 6920 6919 6921
2244 1 6923 6922 6924
2245 1 6926 6925 6927
2246 1 6929 6928 6930
2247 1 6932 6931 6933
2248 1 6935 6934 6936
2249 1 6938 6937 6939
2250 1 6941 6940 6942
2251 1 6944 6943 6945
2252 1 6947 6946 6948
2253 1 6950 6949 6951
2254 1 6953 6952 6954
2255 2 7204 7203 7208
2256 4 7203 7204 7205
2257 4 7203 7204 7206
2258 4 7203 7204 7207
2259 3 7205 7204 7206
2260 3 7205 7204 7207
2261 3 7206 7204 7207
2262 2 7210 7209 7214
2263 4 7209 7210 7211
2264 4 7209 7210 7212
2265 4 7209 7210 7213
2266 3 7211 7210 7212
2267 3 7211 7210 7213
2268 3 7212 7210 7213
2269 2 7216 7215 7220
2270 4 7215 7216 7217
2271 4 7215 7216 7218
2272 4 7215 7216 7219
2273 3 7217 7216 7218
2274 3 7217 7216 7219
2275 3 7218 7216 7219
2276 2 7222 7221 7226
2277 4 7221 7222 7223
2278 4 7221 7222 7224
2279 4 7221 7222 7225
2280 3 7223 7222 7224
2281 3 7223 7222 7225
2282 3 7224 7222 7225
2283 2 7228 7227 7232
2284 4 7227 7228 7229
2285 4 7227 7228 7230
2286 4 7227 7228 7231
2287 3 7229 7228 7230
2288 3 7229 7228 7231
2289 3 7230 7228 7231
2290 2 7234 7233 7238
2291 4 7233 7234 7235
2292 4 7233 7234 7236
2293 4 7233 7234 7237
2294 3 7235 7234 7236
2295 3 7235 7234 7237
2296 3 7236 7234 7237
2297 2 7240 7239 7244
2298 4 7239 7240 7241
2299 4 7239 7240 7242
2300 4 7239 7240 7243
2301 3 7241 7240 7242
2302 3 7241 7240 7243
2303 3 7242 7240 7243
2304 2 7246 7245 7250
2305 4 7245 7246 7247
2306 4 7245 7246 7248
2307 4 7245 7246 7249
2308 3 7247 7246 7248
2309 3 7247 7246 7249
2310 3 7248 7246 7249
2311 2 7252 7251 7256
2312 4 7251 7252 7253
2313 4 7251 7252 7254
2314 4 7251 7252 7255
2315 3 7253 7252 7254
2316 3 7253 7252 7255
2317 3 7254 7252 7255
2318 2 7258 7257 7262
2319 4 7257 7258 7259
2320 4 7257 7258 7260
2321 4 7257 7258 7261
2322 3 7259 7258 7260
2323 3 7259 7258 7261
2324 3 7260 7258 7261
2325 2 7264 7263 7268
2326 4 7263 7264 7265
2327 4 7263 7264 7266
2328 4 7263 7264 7267
2329 3 7265 7264 7266
2330 3 7265 7264 7267
2331 3 7266 7264 7267
2332 2 7270 7269 7274
2333 4 7269 7270 7271
2334 4 7269 7270 7272
2335 4 7269 7270 7273
2336 3 7271 7270 7272
2337 3 7271 7270 7273
2338 3 7272 7270 7273
2339 2 7276 7275 7280
2340 4 7275 7276 7277
2341 4 7275 7276 7278
2342 4 7275 7276 7279
2343 3 7277 7276 7278
2344 3 7277 7276 7279
2345 3 7278 7276 7279
2346 2 7282 7281 7286
2347 4 7281 7282 7283
2348 4 7281 7282 7284
2349 4 7281 7282 7285
2350 3 7283 7282 7284
2351 3 7283 7282 7285
2352 3 7284 7282 7285
2353 2 7288 7287 7292
2354 4 7287 7288 7289
2355 4 7287 7288 7290
2356 4 7287 7288 7291
2357 3 7289 7288 7290
2358 3 7289 7288 7291
2359 3 7290 7288 7291
2360 2 7294 7293 7298
2361 4 7293 7294 7295
2362 4 7293 7294 7296
2363 4 7293 7294 7297
2364 3 7295 7294 7296
2365 3 7295 7294 7297
2366 3 7296 7294 7297
2367 2 7300 7299 7304
2368 4 7299 7300 7301
2369 4 7299 7300 7302
2370 4 7299 7300 7303
2371 3 7301 7300 7302
2372 3 7301 7300 7303
2373 3 7302 7300 7303
2374 2 7306 7305 7310
2375 4 7305 7306 7307
2376 4 7305 7306 7308
2377 4 7305 7306 7309
2378 3 7307 7306 7308
2379 3 7307 7306 7309
2380 3 7308 7306 7309
2381 2 7312 7311 7316
2382 4 7311 7312 7313
2383 4 7311 7312 7314
2384 4 7311 7312 7315
2385 3 7313 7312 7314
2386 3 7313 7312 7315
2387 3 7314 7312 7315
2388 2 7318 7317 7322
2389 4 7317 7318 7319
2390 4 7317 7318 7320
2391 4 7317 7318 7321
2392 3 7319 7318 7320
2393 3 7319 7318 7321
2394 3 7320 7318 7321
2395 2 7324 7323 7328
2396 4 7323 7324 7325
2397 4 7323 7324 7326
2398 4 7323 7324 7327
2399 3 7325 7324 7326
2400 3 7325 7324 7327
2401 3 7326 7324 7327
2402 2 7330 7329 7334
2403 4 7329 7330 7331
2404 4 7329 7330 7332
2405 4 7329 7330 7333
2406 3 7331 7330 7332
2407 3 7331 7330 7333
2408 3 7332 7330 7333
2409 2 7336 7335 7340
2410 4 7335 7336 7337
2411 4 7335 7336 7338
2412 4 7335 7336 7339
2413 3 7337 7336 7338
2414 3 7337 7336 7339
2415 3 7338 7336 7339
2416 2 7342 7341 7346
2417 4 7341 7342 7343
2418 4 7341 7342 7344
2419 4 7341 7342 7345
2420 3 7343 7342 7344
2421 3 7343 7342 7345
2422 3 7344 7342 7345
2423 2 7348 7347 7352
2424 4 7347 7348 7349
2425 4 7347 7348 7350
2426 4 7347 7348 7351
2427 3 7349 7348 7350
2428 3 7349 7348 7351
2429 3 7350 7348 7351
2430 2 7354 7353 7358
2431 4 7353 7354 7355
2432 4 7353 7354 7356
2433 4 7353 7354 7357
2434 3 7355 7354 7356
2435 3 7355 7354 7357
2436 3 7356 7354 7357
2437 2 7360 7359 7364
2438 4 7359 7360 7361
2439 4 7359 7360 7362
2440 4 7359 7360 7363
2441 3 7361 7360 7362
2442 3 7361 7360 7363
2443 3 7362 7360 7363
2444 2 7366 7365 7370
2445 4 7365 7366 7367
2446 4 7365 7366 7368
2447 4 7365 7366 7369
2448 3 7367 7366 7368
2449 3 7367 7366 7369
2450 3 7368 7366 7369
2451 2 7372 7371 7376
2452 4 7371 7372 7373
2453 4 7371 7372 7374
2454 4 7371 7372 7375
2455 3 7373 7372 7374
2456 3 7373 7372 7375
2457 3 7374 7372 7375
2458 2 7378 7377 7382
2459 4 7377 7378 7379
2460 4 7377 7378 7380
2461 4 7377 7378 7381
2462 3 7379 7378 7380
2463 3 7379 7378 7381
2464 3 7380 7378 7381
2465 2 7384 7383 7388
2466 4 7383 7384 7385
2467 4 7383 7384 7386
2468 4 7383 7384 7387
2469 3 7385 7384 7386
2470 3 7385 7384 7387
2471 3 7386 7384 7387
2472 2 7390 7389 7394
2473 4 7389 7390 7391
2474 4 7389 7390 7392
2475 4 7389 7390 7393
2476 3 7391 7390 7392
2477 3 7391 7390 7393
2478 3 7392 7390 7393
2479 2 7396 7395 7400
2480 4 7395 7396 7397
2481 4 7395 7396 7398
2482 4 7395 7396 7399
2483 3 7397 7396 7398
2484 3 7397 7396 7399
2485 3 7398 7396 7399
2486 2 7402 7401 7406
2487 4 7401 7402 7403
2488 4 7401 7402 7404
2489 4 7401 7402 7405
2490 3 7403 7402 7404
2491 3 7403 7402 7405
2492 3 7404 7402 7405
2493 2 7408 7407 7412
2494 4 7407 7408 7409
2495 4 7407 7408 7410
2496 4 7407 7408 7411
2497 3 7409 7408 7410
2498 3 7409 7408 7411
2499 3 7410 7408 7411
2500 2 7414 7413 7418
2501 4 7413 7414 7415
2502 4 7413 7414 7416
2503 4 7413 7414 7417
2504 3 7415 7414 7416
2505 3 7415 7414 7417
2506 3 7416 7414 7417
2507 2 7420 7419 7424
2508 4 7419 7420 7421
2509 4 7419 7420 7422
2510 4 7419 7420 7423
2511 3 7421 7420 7422
2512 3 7421 7420 7423
2513 3 7422 7420 7423
2514 2 7426 7425 7430
2515 4 7425 7426 7427
2516 4 7425 7426 7428
2517 4 7425 7426 7429
2518 3 7427 7426 7428
2519 3 7427 7426 7429
2520 3 7428 7426 7429
2521 2 7432 7431 7436
2522 4 7431 7432 7433
2523 4 7431 7432 7434
2524 4 7431 7432 7435
2525 3 7433 7432 7434
2526 3 7433 7432 7435
2527 3 7434 7432 7435
2528 2 7438 7437 7442
2529 4 7437 7438 7439
2530 4 7437 7438 7440
2531 4 7437 7438 7441
2532 3 7439 7438 7440
2533 3 7439 7438 7441
2534 3 7440 7438 7441
2535 2 7444 7443 7448
2536 4 7443 7444 7445
2537 4 7443 7444 7446
2538 4 7443 7444 7447
2539 3 7445 7444 7446
2540 3 7445 7444 7447
2541 3 7446 7444 7447
2542 2 7450 7449 7454
2543 4 7449 7450 7451
2544 4 7449 7450 7452
2545 4 7449 7450 7453
2546 3 7451 7450 7452
2547 3 7451 7450 7453
2548 3 7452 7450 7453
2549 2 7456 7455 7460
2550 4 7455 7456 7457
2551 4 7455 7456 7458
2552 4 7455 7456 7459
2553 3 7457 7456 7458
2554 3 7457 7456 7459
2555 3 7458 7456 7459
2556 2 7462 7461 7466
2557 4 7461 7462 7463
2558 4 7461 7462 7464
2559 4 7461 7462 7465
2560 3 7463 7462 7464
2561 3 7463 7462 7465
2562 3 7464 7462 7465
2563 2 7468 7467 7472
2564 4 7467 7468 7469
2565 4 7467 7468 7470
2566 4 7467 7468 7471
2567 3 7469 7468 7470
2568 3 7469 7468 7471
2569 3 7470 7468 7471
2570 2 7474 7473 7478
2571 4 7473 7474 7475
2572 4 7473 7474 7476
2573 4 7473 7474 7477
2574 3 7475 7474 7476
2575 3 7475 7474 7477
2576 3 7476 7474 7477
2577 2 7480 7479 7484
2578 4 7479 7480 7481
2579 4 7479 7480 7482
2580 4 7479 7480 7483
2581 3 7481 7480 7482
2582 3 7481 7480 7483
2583 3 7482 7480 7483
2584 2 7486 7485 7490
2585 4 7485 7486 7487
2586 4 7485 7486 7488
2587 4 7485 7486 7489
2588 3 7487 7486 7488
2589 3 7487 7486 7489
2590 3 7488 7486 7489
2591 5 7491 7492 7493
2592 6 7492 7493 7494
2593 7 7493 7494 7495
2594 8 7494 7495 7496
2595 9 7492 7493 7497
2596 10 7495 7496 7498
2597 11 7491 7492 7499
2598 12 7492 7491 7500
2599 13 7492 7491 7501
2600 14 7492 7491 7502
2601 15 7491 7492 7503
2602 16 7493 7494 7504
2603 17 7494 7495 7505
2604 18 7493 7497 7506
2605 19 7496 7498 7507
2606 20 7496 7498 7508
2607 21 7496 7498 7509
2608 22 7492 7499 7510
2609 23 7495 7494 7504
2610 24 7495 7496 7497
2611 25 7507 7498 7508
2612 26 7494 7493 7497
2613 27 7493 7497 7496
2614 28 7496 7495 7505
2615 29 7501 7491 7502
2616 30 7497 7496 7498
2617 31 7507 7498 7509
2618 32 7500 7491 7502
2619 33 7500 7491 7501
2620 34 7493 7492 7503
2621 35 7493 7492 7499
2622 36 7499 7492 7503
2623 37 7496 7497 7506
2624 38 7508 7498 7509
2625 5 7511 7512 7513
2626 6 7512 7513 7514
2627 7 7513 7514 7515
2628 8 7514 7515 7516
2629 9 7512 7513 7517
2630 10 7515 7516 7518
2631 11 7511 7512 7519
2632 12 7512 7511 7520
2633 13 7512 7511 7521
2634 14 7512 7511 7522
2635 15 7511 7512 7523
2636 16 7513 7514 7524
2637 17 7514 7515 7525
2638 18 7513 7517 7526
2639 19 7516 7518 7527
2640 20 7516 7518 7528
2641 21 7516 7518 7529
2642 22 7512 7519 7530
2643 23 7515 7514 7524
2644 24 7515 7516 7517
2645 25 7527 7518 7528
2646 26 7514 7513 7517
2647 27 7513 7517 7516
2648 28 7516 7515 7525
2649 29 7521 7511 7522
2650 30 7517 7516 7518
2651 31 7527 7518 7529
2652 32 7520 7511 7522
2653 33 7520 7511 7521
2654 34 7513 7512 7523
2655 35 7513 7512 7519
2656 36 7519 7512 7523
2657 37 7516 7517 7526
2658 38 7528 7518 7529
2659 5 7531 7532 7533
2660 6 7532 7533 7534
2661 7 7533 7534 7535
2662 8 7534 7535 7536
2663 9 7532 7533 7537
2664 10 7535 7536 7538
2665 11 7531 7532 7539
2666 12 7532 7531 7540
2667 13 7532 7531 7541
2668 14 7532 7531 7542
2669 15 7531 7532 7543
2670 16 7533 7534 7544
2671 17 7534 7535 7545
2672 18 7533 7537 7546
2673 19 7536 7538 7547
2674 20 7536 7538 7548
2675 21 7536 7538 7549
2676 22 7532 7539 7550
2677 23 7535 7534 7544
2678 24 7535 7536 7537
2679 25 7547 7538 7548
2680 26 7534 7533 7537
2681 27 7533 7537 7536
2682 28 7536 7535 7545
2683 29 7541 7531 7542
2684 30 7537 7536 7538
2685 31 7547 7538 7549
2686 32 7540 7531 7542
2687 33 7540 7531 7541
2688 34 7533 7532 7543
2689 35 7533 7532 7539
2690 36 7539 7532 7543
2691 37 7536 7537 7546
2692 38 7548 7538 7549
2693 5 7551 7552 7553
2694 6 7552 7553 7554
2695 7 7553 7554 7555
2696 8 7554 7555 7556
2697 9 7552 7553 7557
2698 10 7555 7556 7558
2699 11 7551 7552 7559
2700 12 7552 7551 7560
2701 13 7552 7551 7561
2702 14 7552 7551 7562
2703 15 7551 7552 7563
2704 16 7553 7554 7564
2705 17 7554 7555 7565
2706 18 7553 7557 7566
2707 19 7556 7558 7567
2708 20 7556 7558 7568
2709 21 7556 7558 7569
2710 22 7552 7559 7570
2711 23 7555 7554 7564
2712 24 7555 7556 7557
2713 25 7567 7558 7568
2714 26 7554 7553 7557
2715 27 7553 7557 7556
2716 28 7556 7555 7565
2717 29 7561 7551 7562
2718 30 7557 7556 7558
2719 31 7567 7558 7569
2720 32 7560 7551 7562
2721 33 7560 7551 7561
2722 34 7553 7552 7563
2723 35 7553 7552 7559
2724 36 7559 7552 7563
2725 37 7556 7557 7566
2726 38 7568 7558 7569
2727 5 7571 7572 7573
2728 6 7572 7573 7574
2729 7 7573 7574 7575
2730 8 7574 7575 7576
2731 9 7572 7573 7577
2732 10 7575 7576 7578
2733 11 7571 7572 7579
2734 12 7572 7571 7580
2735 13 7572 7571 7581
2736 14 7572 7571 7582
2737 15 7571 7572 7583
2738 16 7573 7574 7584
2739 17 7574 7575 7585
2740 18 7573 7577 7586
2741 19 7576 7578 7587
2742 20 7576 7578 7588
2743 21 7576 7578 7589
2744 22 7572 7579 7590
2745 23 7575 7574 7584
2746 24 7575 7576 7577
2747 25 7587 7578 7588
2748 26 7574 7573 7577
2749 27 7573 7577 7576
2750 28 7576 7575 7585
2751 29 7581 7571 7582
2752 30 7577 7576 7578
2753 31 7587 7578 7589
2754 32 7580 7571 7582
2755 33 7580 7571 7581
2756 34 7573 7572 7583
2757 35 7573 7572 7579
2758 36 7579 7572 7583
2759 37 7576 7577 7586
2760 38 7588 7578 7589
2761 39 7596 7597 7598
2762 40 7597 7598 7599
2763 41 7597 7598 7600
2764 42 7596 7597 7601
2765 43 7597 7596 7602
2766 44 7597 7596 7603
2767 45 7597 7596 7604
2768 46 7596 7597 7605
2769 47 7598 7600 7606
2770 48 7597 7601 7607
2771 49 7597 7601 7608
2772 50 7596 7602 7609
2773 51 7601 7597 7605
2774 52 7603 7596 7604
2775 53 7602 7596 7603
2776 54 7598 7597 7605
2777 55 7607 7601 7608
2778 56 7599 7598 7600
2779 57 7598 7597 7601
2780 58 7602 7596 7604

Dihedrals

1 1 7205 7204 7203 7208
2 1 7206 7204 7203 7208
3 1 7207 7204 7203 7208
4 1 7211 7210 7209 7214
5 1 7212 7210 7209 7214
6 1 7213 7210 7209 7214
7 1 7217 7216 7215 7220
8 1 7218 7216 7215 7220
9 1 7219 7216 7215 7220
10 1 7223 7222 7221 7226
11 1 7224 7222 7221 7226
12 1 7225 7222 7221 7226
13 1 7229 7228 7227 7232
14 1 7230 7228 7227 7232
15 1 7231 7228 7227 7232
16 1 7235 7234 7233 7238
17 1 7236 7234 7233 7238
18 1 7237 7234 7233 7238
19 1 7241 7240 7239 7244
20 1 7242 7240 7239 7244
21 1 7243 7240 7239 7244
22 1 7247 7246 7245 7250
23 1 7248 7246 7245 7250
24 1 7249 7246 7245 7250
25 1 7253 7252 7251 7256
26 1 7254 7252 7251 7256
27 1 7255 7252 7251 7256
28 1 7259 7258 7257 7262
29 1 7260 7258 7257 7262
30 1 7261 7258 7257 7262
31 1 7265 7264 7263 7268
32 1 7266 7264 7263 7268
33 1 7267 7264 7263 7268
34 1 7271 7270 7269 7274
35 1 7272 7270 7269 7274
36 1 7273 7270 7269 7274
37 1 7277 7276 7275 7280
38 1 7278 7276 7275 7280
39 1 7279 7276 7275 7280
40 1 7283 7282 7281 7286
41 1 7284 7282 7281 7286
42 1 7285 7282 7281 7286
43 1 7289 7288 7287 7292
44 1 7290 7288 7287 7292
45 1 7291 7288 7287 7292
46 1 7295 7294 7293 7298
47 1 7296 7294 7293 7298
48 1 7297 7294 7293 7298
49 1 7301 7300 7299 7304
50 1 7302 7300 7299 7304
51 1 7303 7300 7299 7304
52 1 7307 7306 7305 7310
53 1 7308 7306 7305 7310
54 1 7309 7306 7305 7310
55 1 7313 7312 7311 7316
56 1 7314 7312 7311 7316
57 1 7315 7312 7311 7316
58 1 7319 7318 7317 7322
59 1 7320 7318 7317 7322
60 1 7321 7318 7317 7322
61 1 7325 7324 7323 7328
62 1 7326 7324 7323 7328
63 1 7327 7324 7323 7328
64 1 7331 7330 7329 7334
65 1 7332 7330 7329 7334
66 1 7333 7330 7329 7334
67 1 7337 7336 7335 7340
68 1 7338 7336 7335 7340
69 1 7339 7336 7335 7340
70 1 7343 7342 7341 7346
71 1 7344 7342 7341 7346
72 1 7345 7342 7341 7346
73 1 7349 7348 7347 7352
74 1 7350 7348 7347 7352
75 1 7351 7348 7347 7352
76 1 7355 7354 7353 7358
77 1 7356 7354 7353 7358
78 1 7357 7354 7353 7358
79 1 7361 7360 7359 7364
80 1 7362 7360 7359 7364
81 1 7363 7360 7359 7364
82 1 7367 7366 7365 7370
83 1 7368 7366 7365 7370
84 1 7369 7366 7365 7370
85 1 7373 7372 7371 7376
86 1 7374 7372 7371 7376
87 1 7375 7372 7371 7376
88 1 7379 7378 7377 7382
89 1 7380 7378 7377 7382
90 1 7381 7378 7377 7382
91 1 7385 7384 7383 7388
92 1 7386 7384 7383 7388
93 1 7387 7384 7383 7388
94 1 7391 7390 7389 7394
95 1 7392 7390 7389 7394
96 1 7393 7390 7389 7394
97 1 7397 7396 7395 7400
98 1 7398 7396 7395 7400
99 1 7399 7396 7395 7400
100 1 7403 7402 7401 7406
101 1 7404 7402 7401 7406
102 1 7405 7402 7401 7406
103 1 7409 7408 7407 7412
104 1 7410 7408 7407 7412
105 1 7411 7408 7407 7412
106 1 7415 7414 7413 7418
107 1 7416 7414 7413 7418
108 1 7417 7414 7413 7418
109 1 7421 7420 7419 7424
110 1 7422 7420 7419 7424
111 1 7423 7420 7419 7424
112 1 7427 7426 7425 7430
113 1 7428 7426 7425 7430
114 1 7429 7426 7425 7430
115 1 7433 7432 7431 7436
116 1 7434 7432 7431 7436
117 1 7435 7432 7431 7436
118 1 7439 7438 7437 7442
119 1 7440 7438 7437 7442
120 1 7441 7438 7437 7442
121 1 7445 7444 7443 7448
122 1 7446 7444 7443 7448
123 1 7447 7444 7443 7448
124 1 7451 7450 7449 7454
125 1 7452 7450 7449 7454
126 1 7453 7450 7449 7454
127 1 7457 7456 7455 7460
128 1 7458 7456 7455 7460
129 1 7459 7456 7455 7460
130 1 7463 7462 7461 7466
131 1 7464 7462 7461 7466
132 1 7465 7462 7461 7466
133 1 7469 7468 7467 7472
134 1 7470 7468 7467 7472
135 1 7471 7468 7467 7472
136 1 7475 7474 7473 7478
137 1 7476 7474 7473 7478
138 1 7477 7474 7473 7478
139 1 7481 7480 7479 7484
140 1 7482 7480 7479 7484
141 1 7483 7480 7479 7484
142 1 7487 7486 7485 7490
143 1 7488 7486 7485 7490
144 1 7489 7486 7485 7490
145 2 7491 7492 7493 7494
146 3 7492 7493 7494 7495
147 4 7493 7494 7495 7496
148 5 7493 7492 7491 7500
149 6 7495 7496 7498 7507
150 7 7491 7492 7499 7510
151 8 7498 7496 7495 7505
152 9 7495 7494 7493 7497
153 10 7497 7493 7492 7503
154 11 7492 7493 7494 7504
155 12 7493 7497 7496 7495
156 13 7497 7496 7498 7507
157 14 7504 7494 7495 7505
158 15 7493 7492 7491 7501
159 16 7494 7493 7497 7496
160 17 7495 7496 7498 7509
161 18 7492 7493 7497 7496
162 19 7497 7496 7498 7509
163 20 7495 7496 7498 7508
164 21 7491 7492 7493 7497
165 22 7494 7493 7497 7506
166 23 7502 7491 7492 7503
167 24 7493 7492 7491 7502
168 25 7497 7493 7492 7499
169 26 7493 7492 7499 7510
170 27 7494 7495 7496 7498
171 28 7494 7493 7492 7499
172 29 7497 7496 7498 7508
173 30 7497 7496 7495 7505
174 31 7494 7493 7492 7503
175 32 7493 7497 7496 7498
176 33 7493 7494 7495 7505
177 34 7501 7491 7492 7503
178 35 7498 7496 7497 7506
179 36 7494 7495 7496 7497
180 37 7499 7492 7491 7500
181 38 7500 7491 7492 7503
182 39 7495 7496 7497 7506
183 40 7503 7492 7499 7510
184 41 7492 7493 7497 7506
185 42 7497 7493 7494 7504
186 43 7499 7492 7491 7501
187 44 7496 7495 7494 7504
188 45 7499 7492 7491 7502
189 2 7511 7512 7513 7514
190 3 7512 7513 7514 7515
191 4 7513 7514 7515 7516
192 5 7513 7512 7511 7520
193 6 7515 7516 7518 7527
194 7 7511 7512 7519 7530
195 8 7518 7516 7515 7525
196 9 7515 7514 7513 7517
197 10 7517 7513 7512 7523
198 11 7512 7513 7514 7524
199 12 7513 7517 7516 7515
200 13 7517 7516 7518 7527
201 14 7524 7514 7515 7525
202 15 7513 7512 7511 7521
203 16 7514 7513 7517 7516
204 17 7515 7516 7518 7529
205 18 7512 7513 7517 7516
206 19 7517 7516 7518 7529
207 20 7515 7516 7518 7528
208 21 7511 7512 7513 7517
209 22 7514 7513 7517 7526
210 23 7522 7511 7512 7523
211 24 7513 7512 7511 7522
212 25 7517 7513 7512 7519
213 26 7513 7512 7519 7530
214 27 7514 7515 7516 7518
215 28 7514 7513 7512 7519
216 29 7517 7516 7518 7528
217 30 7517 7516 7515 7525
218 31 7514 7513 7512 7523
219 32 7513 7517 7516 7518
220 33 7513 7514 7515 7525
221 34 7521 7511 7512 7523
222 35 7518 7516 7517 7526
223 36 7514 7515 7516 7517
224 37 7519 7512 7511 7520
225 38 7520 7511 7512 7523
226 39 7515 7516 7517 7526
227 40 7523 7512 7519 7530
228 41 7512 7513 7517 7526
229 42 7517 7513 7514 7524
230 43 7519 7512 7511 7521
231 44 7516 7515 7514 7524
232 45 7519 7512 7511 7522
233 2 7531 7532 7533 7534
234 3 7532 7533 7534 7535
235 4 7533 7534 7535 7536
236 5 7533 7532 7531 7540
237 6 7535 7536 7538 7547
238 7 7531 7532 7539 7550
239 8 7538 7536 7535 7545
240 9 7535 7534 7533 7537
241 10 7537 7533 7532 7543
242 11 7532 7533 7534 7544
243 12 7533 7537 7536 7535
244 13 7537 7536 7538 7547
245 14 7544 7534 7535 7545
246 15 7533 7532 7531 7541
247 16 7534 7533 7537 7536
248 17 7535 7536 7538 7549
249 18 7532 7533 7537 7536
250 19 7537 7536 7538 7549
251 20 7535 7536 7538 7548
252 21 7531 7532 7533 7537
253 22 7534 7533 7537 7546
254 23 7542 7531 7532 7543
255 24 7533 7532 7531 7542
256 25 7537 7533 7532 7539
257 26 7533 7532 7539 7550
258 27 7534 7535 7536 7538
259 28 7534 7533 7532 7539
260 29 7537 7536 7538 7548
261 30 7537 7536 7535 7545
262 31 7534 7533 7532 7543
263 32 7533 7537 7536 7538
264 33 7533 7534 7535 7545
265 34 7541 7531 7532 7543
266 35 7538 7536 7537 7546
267 36 7534 7535 7536 7537
268 37 7539 7532 7531 7540
269 38 7540 7531 7532 7543
270 39 7535 7536 7537 7546
271 40 7543 7532 7539 7550
272 41 7532 7533 7537 7546
273 42 7537 7533 7534 7544
274 43 7539 7532 7531 7541
275 44 7536 7535 7534 7544
276 45 7539 7532 7531 7542
277 2 7551 7552 7553 7554
278 3 7552 7553 7554 7555
279 4 7553 7554 7555 7556
280 5 7553 7552 7551 7560
281 6 7555 7556 7558 7567
282 7 7551 7552 7559 7570
283 8 7558 7556 7555 7565
284 9 7555 7554 7553 7557
285 10 7557 7553 7552 7563
286 11 7552 7553 7554 7564
287 12 7553 7557 7556 7555
288 13 7557 7556 7558 7567
289 14 7564 7554 7555 7565
290 15 7553 7552 7551 7561
291 16 7554 7553 7557 7556
292 17 7555 7556 7558 7569
293 18 7552 7553 7557 7556
294 19 7557 7556 7558 7569
295 20 7555 7556 7558 7568
296 21 7551 7552 7553 7557
297 22 7554 7553 7557 7566
298 23 7562 7551 7552 7563
299 24 7553 7552 7551 7562
300 25 7557 7553 7552 7559
301 26 7553 7552 7559 7570
302 27 7554 7555 7556 7558
303 28 7554 7553 7552 7559
304 29 7557 7556 7558 7568
305 30 7557 7556 7555 7565
306 31 7554 7553 7552 7563
307 32 7553 7557 7556 7558
308 33 7553 7554 7555 7565
309 34 7561 7551 7552 7563
310 35 7558 7556 7557 7566
311 36 7554 7555 7556 7557
312 37 7559 7552 7551 7560
313 38 7560 7551 7552 7563
314 39 7555 7556 7557 7566
315 40 7563 7552 7559 7570
316 41 7552 7553 7557 7566
317 42 7557 7553 7554 7564
318 43 7559 7552 7551 7561
319 44 7556 7555 7554 7564
320 45 7559 7552 7551 7562
321 2 7571 7572 7573 7574
322 3 7572 7573 7574 7575
323 4 7573 7574 7575 7576
324 5 7573 7572 7571 7580
325 6 7575 7576 7578 7587
326 7 7571 7572 7579 7590
327 8 7578 7576 7575 7585
328 9 7575 7574 7573 7577
329 10 7577 7573 7572 7583
330 11 7572 7573 7574 7584
331 12 7573 7577 7576 7575
332 13 7577 7576 7578 7587
333 14 7584 7574 7575 7585
334 15 7573 7572 7571 7581
335 16 7574 7573 7577 7576
336 17 7575 7576 7578 7589
337 18 7572 7573 7577 7576
338 19 7577 7576 7578 7589
339 20 7575 7576 7578 7588
340 21 7571 7572 7573 7577
341 22 7574 7573 7577 7586
342 23 7582 7571 7572 7583
343 24 7573 7572 7571 7582
344 25 7577 7573 7572 7579
345 26 7573 7572 7579 7590
346 27 7574 7575 7576 7578
347 28 7574 7573 7572 7579
348 29 7577 7576 7578 7588
349 30 7577 7576 7575 7585
350 31 7574 7573 7572 7583
351 32 7573 7577 7576 7578
352 33 7573 7574 7575 7585
353 34 7581 7571 7572 7583
354 35 7578 7576 7577 7586
355 36 7574 7575 7576 7577
356 37 7579 7572 7571 7580
357 38 7580 7571 7572 7583
358 39 7575 7576 7577 7586
359 40 7583 7572 7579 7590
360 41 7572 7573 7577 7586
361 42 7577 7573 7574 7584
362 43 7579 7572 7571 7581
363 44 7576 7575 7574 7584
364 45 7579 7572 7571 7582
365 46 7596 7597 7598 7599
366 47 7598 7597 7596 7602
367 48 7597 7598 7600 7606
368 49 7596 7597 7601 7607
369 50 7597 7596 7602 7609
370 51 7598 7597 7601 7608
371 52 7596 7597 7598 7600
372 53 7598 7597 7596 7604
373 54 7601 7597 7596 7603
374 55 7599 7598 7597 7601
375 56 7599 7598 7600 7606
376 57 7603 7596 7602 7609
377 58 7598 7597 7601 7607
378 59 7605 7597 7601 7608
379 60 7604 7596 7597 7605
380 61 7596 7597 7601 7608
381 62 7602 7596 7597 7605
382 63 7598 7597 7596 7603
383 64 7601 7597 7596 7604
384 65 7605 7597 7601 7607
385 66 7604 7596 7602 7609
386 67 7601 7597 7596 7602
387 68 7603 7596 7597 7605
388 69 7600 7598 7597 7601
389 70 7600 7598 7597 7605
390 71 7599 7598 7597 7605

Impropers

1 1 7493 7492 7494 7497
2 2 7496 7495 7497 7498
3 3 7492 7493 7499 7491
4 4 7491 7492 7501 7500
5 5 7491 7492 7502 7500
6 6 7492 7491 7493 7503
7 7 7494 7493 7495 7504
8 8 7495 7494 7496 7505
9 9 7497 7493 7496 7506
10 10 7498 7507 7508 7496
11 11 7498 7507 7509 7496
12 1 7513 7512 7514 7517
13 2 7516 7515 7517 7518
14 3 7512 7513 7519 7511
15 4 7511 7512 7521 7520
16 5 7511 7512 7522 7520
17 6 7512 7511 7513 7523
18 7 7514 7513 7515 7524
19 8 7515 7514 7516 7525
20 9 7517 7513 7516 7526
21 10 7518 7527 7528 7516
22 11 7518 7527 7529 7516
23 1 7533 7532 7534 7537
24 2 7536 7535 7537 7538
25 3 7532 7533 7539 7531
26 4 7531 7532 7541 7540
27 5 7531 7532 7542 7540
28 6 7532 7531 7533 7543
29 7 7534 7533 7535 7544
30 8 7535 7534 7536 7545
31 9 7537 7533 7536 7546
32 10 7538 7547 7548 7536
33 11 7538 7547 7549 7536
34 1 7553 7552 7554 7557
35 2 7556 7555 7557 7558
36 3 7552 7553 7559 7551
37 4 7551 7552 7561 7560
38 5 7551 7552 7562 7560
39 6 7552 7551 7553 7563
40 7 7554 7553 7555 7564
41 8 7555 7554 7556 7565
42 9 7557 7553 7556 7566
43 10 7558 7567 7568 7556
44 11 7558 7567 7569 7556
45 1 7573 7572 7574 7577
46 2 7576 7575 7577 7578
47 3 7572 7573 7579 7571
48 4 7571 7572 7581 7580
49 5 7571 7572 7582 7580
50 6 7572 7571 7573 7583
51 7 7574 7573 7575 7584
52 8 7575 7574 7576 7585
53 9 7577 7573 7576 7586
54 10 7578 7587 7588 7576
55 11 7578 7587 7589 7576
56 12 7598 7597 7599 7600
57 13 7597 7596 7598 7601
58 14 7596 7597 7602 7603
59 15 7596 7602 7604 7597
60 16 7597 7596 7605 7598
61 17 7601 7597 7607 7608

