LAMMPS Description

7769  atoms
5022  bonds
3057  angles
866  dihedrals
231  impropers

34  atom types
29  bond types
48  angle types
56  dihedral types
15  improper types

0.0 23.7750 xlo xhi
0.0 100 ylo yhi
0.0 35.6625 zlo zhi

Masses

1 15.999400  # O
2 1.007970  # H
3 16.043030  # CT
4 40.08  # Ca
5 35.453  # Cl
6 12.011  # C
7 12.011  # C
8 15.999  # O
9 15.999  # O
10 1.008  # H
11 1.008  # H
12 1.008  # H
13 1.008  # H
14 1.008  # H
15 1.008  # H
16 12.011  # C
17 12.011  # C
18 14.007  # N
19 12.011  # C
20 12.011  # C
21 14.007  # N
22 12.011  # C
23 12.011  # C
24 1.008  # H
25 1.008  # H
26 1.008  # H
27 1.008  # H
28 1.008  # H
29 1.008  # H
30 1.008  # H
31 1.008  # H
32 1.008  # H
33 1.008  # H
34 1.008  # H

Atoms

1 1 1 -1.1794 0.000000 5.943750 2.971875
2 1 2 0.5897 0.009656 6.746382 2.401692
3 1 2 0.5897 0.819206 6.078805 3.500477
4 1 1 -1.1794 0.000000 5.943750 8.915625
5 1 2 0.5897 0.281067 6.808436 9.277971
6 1 2 0.5897 0.723234 5.812773 8.254920
7 1 1 -1.1794 2.971875 0.000000 5.943750
8 1 2 0.5897 2.409366 0.112795 6.741859
9 1 2 0.5897 3.506404 0.826096 5.955505
10 1 1 -1.1794 8.915625 0.000000 5.943750
11 1 2 0.5897 8.353117 0.798110 6.056546
12 1 2 0.5897 9.450153 0.011753 6.769848
13 1 1 -1.1794 5.943750 2.971875 0.000000
14 1 2 0.5897 6.224823 3.334227 0.864683
15 1 2 0.5897 6.666985 2.311172 -0.130979
16 1 1 -1.1794 5.943750 8.915625 0.000000
17 1 2 0.5897 5.953409 8.345441 0.802632
18 1 2 0.5897 6.762955 9.444227 0.135054
19 1 1 -1.1794 2.195740 2.195740 2.195740
20 1 2 0.5897 1.930743 1.402781 2.721735
21 1 2 0.5897 2.708046 2.708072 2.862811
22 1 1 -1.1794 9.691760 9.691760 2.195740
23 1 2 0.5897 9.978388 10.516781 2.648501
24 1 2 0.5897 9.116718 10.043814 1.480933
25 1 1 -1.1794 9.691760 2.195740 9.691760
26 1 2 0.5897 9.154281 2.782308 9.104938
27 1 2 0.5897 10.452871 2.782332 9.905926
28 1 1 -1.1794 2.195740 9.691760 9.691760
29 1 2 0.5897 1.433515 9.188865 10.050449
30 1 2 0.5897 2.654073 9.949780 10.533970
31 1 1 -1.1794 8.139490 8.139490 3.748010
32 1 2 0.5897 8.055452 8.606915 4.601005
33 1 2 0.5897 8.845452 8.644310 3.294149
34 1 1 -1.1794 3.748010 3.748010 3.748010
35 1 2 0.5897 4.002365 3.184788 4.519697
36 1 2 0.5897 4.639981 3.970836 3.410372
37 1 1 -1.1794 8.139490 3.748010 8.139490
38 1 2 0.5897 7.353136 4.110945 8.609681
39 1 2 0.5897 8.567214 4.572992 7.810198
40 1 1 -1.1794 3.748010 8.139490 8.139490
41 1 2 0.5897 3.235613 8.731546 8.742287
42 1 2 0.5897 4.491456 7.869471 8.725499
43 1 1 -1.1794 9.691760 9.691760 9.691760
44 1 2 0.5897 9.946137 10.463442 9.128541
45 1 2 0.5897 10.583721 9.354096 9.914592
46 1 1 -1.1794 2.195740 2.195740 9.691760
47 1 2 0.5897 1.409385 2.665929 10.054694
48 1 2 0.5897 2.623464 1.866447 10.516742
49 1 1 -1.1794 2.195740 9.691760 2.195740
50 1 2 0.5897 2.111703 10.544755 2.663166
51 1 2 0.5897 2.901702 9.237898 2.700560
52 1 1 -1.1794 9.691760 2.195740 2.195740
53 1 2 0.5897 9.179361 2.798535 2.787796
54 1 2 0.5897 10.435205 2.781750 1.925722
55 1 1 -1.1794 3.748010 3.748010 8.139490
56 1 2 0.5897 3.210531 3.161188 8.726058
57 1 2 0.5897 4.509120 3.962177 8.726082
58 1 1 -1.1794 8.139490 8.139490 8.139490
59 1 2 0.5897 7.874494 8.665484 7.346530
60 1 2 0.5897 8.651795 8.806563 8.651821
61 1 1 -1.1794 3.748010 8.139490 3.748010
62 1 2 0.5897 4.034637 8.592251 4.573031
63 1 2 0.5897 3.172969 7.424681 4.100063
64 1 1 -1.1794 8.139490 3.748010 3.748010
65 1 2 0.5897 7.377269 4.106705 3.245111
66 1 2 0.5897 8.597826 4.590218 4.006031
67 1 1 -1.1794 0.000000 3.679775 1.385607
68 1 2 0.5897 0.035498 4.459067 1.989457
69 1 2 0.5897 0.798485 3.179090 1.671756
70 1 1 -1.1794 0.000000 8.207725 1.385607
71 1 2 0.5897 -0.758631 8.731842 1.737352
72 1 2 0.5897 0.759372 8.779826 1.670376
73 1 1 -1.1794 0.000000 3.679775 10.501893
74 1 2 0.5897 -0.044368 3.851890 11.469464
75 1 2 0.5897 -0.018559 4.578141 10.109946
76 1 1 -1.1794 0.000000 8.207725 10.501893
77 1 2 0.5897 0.205529 8.274438 11.469986
78 1 2 0.5897 -0.779451 7.629397 10.587942
79 1 1 -1.1794 1.385607 0.000000 3.679775
80 1 2 0.5897 0.417726 -0.094659 3.821134
81 1 2 0.5897 1.754570 -0.099428 4.581968
82 1 1 -1.1794 1.385607 0.000000 8.207725
83 1 2 0.5897 1.716836 0.746754 8.758036
84 1 2 0.5897 1.714706 -0.771043 8.726950
85 1 1 -1.1794 10.501893 0.000000 3.679775
86 1 2 0.5897 9.916808 0.006667 4.472479
87 1 2 0.5897 10.184338 0.799264 3.201735
88 1 1 -1.1794 10.501893 0.000000 8.207725
89 1 2 0.5897 10.305638 0.798873 8.749125
90 1 2 0.5897 11.480928 0.066494 8.116678
91 1 1 -1.1794 3.679775 1.385607 0.000000
92 1 2 0.5897 3.181486 1.660080 0.803227
93 1 2 0.5897 4.465410 1.972311 0.037997
94 1 1 -1.1794 8.207725 1.385607 0.000000
95 1 2 0.5897 8.780854 1.614855 0.769515
96 1 2 0.5897 8.792041 1.653488 -0.747865
97 1 1 -1.1794 3.679775 10.501893 0.000000
98 1 2 0.5897 3.869586 11.452377 0.104347
99 1 2 0.5897 4.546334 10.068458 0.112136
100 1 1 -1.1794 8.207725 10.501893 0.000000
101 1 2 0.5897 8.122284 11.478258 -0.083426
102 1 2 0.5897 8.687717 10.276857 -0.827363
103 1 1 -1.1794 9.623525 5.943750 4.558143
104 1 2 0.5897 9.813335 6.048098 5.508627
105 1 2 0.5897 10.490084 6.055885 4.124708
106 1 1 -1.1794 2.263975 5.943750 4.558143
107 1 2 0.5897 2.178531 5.860324 5.534508
108 1 2 0.5897 2.743967 5.116387 4.333108
109 1 1 -1.1794 9.623525 5.943750 7.329357
110 1 2 0.5897 9.125238 6.746978 7.603833
111 1 2 0.5897 10.409160 5.981743 7.916061
112 1 1 -1.1794 2.263975 5.943750 7.329357
113 1 2 0.5897 2.837102 6.713267 7.558605
114 1 2 0.5897 2.848293 5.195886 7.597239
115 1 1 -1.1794 5.943750 7.329357 2.263975
116 1 2 0.5897 5.185122 7.681106 2.788093
117 1 2 0.5897 6.703124 7.614122 2.836075
118 1 1 -1.1794 5.943750 7.329357 9.623525
119 1 2 0.5897 5.979250 7.933206 10.402818
120 1 2 0.5897 6.742237 7.615502 9.122842
121 1 1 -1.1794 5.943750 4.558143 2.263975
122 1 2 0.5897 6.149264 5.526242 2.330661
123 1 2 0.5897 5.164278 4.644161 1.685681
124 1 1 -1.1794 5.943750 4.558143 9.623525
125 1 2 0.5897 5.899383 5.525713 9.795644
126 1 2 0.5897 5.925192 4.166192 10.521889
127 1 1 -1.1794 7.329357 9.623525 5.943750
128 1 2 0.5897 6.361476 9.764884 5.849090
129 1 2 0.5897 7.698320 10.525718 5.844322
130 1 1 -1.1794 7.329357 2.263975 5.943750
131 1 2 0.5897 7.660588 2.814285 6.690503
132 1 2 0.5897 7.658458 2.783199 5.172706
133 1 1 -1.1794 4.558143 9.623525 5.943750
134 1 2 0.5897 3.973056 10.416229 5.950416
135 1 2 0.5897 4.240588 9.145485 6.743014
136 1 1 -1.1794 4.558143 2.263975 5.943750
137 1 2 0.5897 4.361890 2.805372 6.742625
138 1 2 0.5897 5.537178 2.172928 6.010242
139 1 3 0.0 0.000000 0.000000 0.000000
140 1 3 0.0 5.943750 5.943750 5.943750
141 1 3 0.0 0.000000 2.971875 5.943750
142 1 3 0.0 0.000000 8.915625 5.943750
143 1 3 0.0 5.943750 0.000000 2.971875
144 1 3 0.0 5.943750 0.000000 8.915625
145 1 3 0.0 2.971875 5.943750 0.000000
146 1 3 0.0 8.915625 5.943750 0.000000
147 2 1 -1.1794 0.000000 5.943750 14.859375
148 2 2 0.5897 0.009656 6.746382 14.289192
149 2 2 0.5897 0.819206 6.078805 15.387977
150 2 1 -1.1794 0.000000 5.943750 20.803125
151 2 2 0.5897 0.281067 6.808436 21.165471
152 2 2 0.5897 0.723234 5.812773 20.142420
153 2 1 -1.1794 2.971875 0.000000 17.831250
154 2 2 0.5897 2.409366 0.112795 18.629359
155 2 2 0.5897 3.506404 0.826096 17.843005
156 2 1 -1.1794 8.915625 0.000000 17.831250
157 2 2 0.5897 8.353117 0.798110 17.944046
158 2 2 0.5897 9.450153 0.011753 18.657348
159 2 1 -1.1794 5.943750 2.971875 11.887500
160 2 2 0.5897 6.224823 3.334227 12.752183
161 2 2 0.5897 6.666985 2.311172 11.756521
162 2 1 -1.1794 5.943750 8.915625 11.887500
163 2 2 0.5897 5.953409 8.345441 12.690132
164 2 2 0.5897 6.762955 9.444227 12.022554
165 2 1 -1.1794 2.195740 2.195740 14.083240
166 2 2 0.5897 1.930743 1.402781 14.609235
167 2 2 0.5897 2.708046 2.708072 14.750311
168 2 1 -1.1794 9.691760 9.691760 14.083240
169 2 2 0.5897 9.978388 10.516781 14.536001
170 2 2 0.5897 9.116718 10.043814 13.368433
171 2 1 -1.1794 9.691760 2.195740 21.579260
172 2 2 0.5897 9.154281 2.782308 20.992438
173 2 2 0.5897 10.452871 2.782332 21.793426
174 2 1 -1.1794 2.195740 9.691760 21.579260
175 2 2 0.5897 1.433515 9.188865 21.937949
176 2 2 0.5897 2.654073 9.949780 22.421470
177 2 1 -1.1794 8.139490 8.139490 15.635510
178 2 2 0.5897 8.055452 8.606915 16.488505
179 2 2 0.5897 8.845452 8.644310 15.181649
180 2 1 -1.1794 3.748010 3.748010 15.635510
181 2 2 0.5897 4.002365 3.184788 16.407197
182 2 2 0.5897 4.639981 3.970836 15.297872
183 2 1 -1.1794 8.139490 3.748010 20.026990
184 2 2 0.5897 7.353136 4.110945 20.497181
185 2 2 0.5897 8.567214 4.572992 19.697698
186 2 1 -1.1794 3.748010 8.139490 20.026990
187 2 2 0.5897 3.235613 8.731546 20.629787
188 2 2 0.5897 4.491456 7.869471 20.612999
189 2 1 -1.1794 9.691760 9.691760 21.579260
190 2 2 0.5897 9.946137 10.463442 21.016041
191 2 2 0.5897 10.583721 9.354096 21.802092
192 2 1 -1.1794 2.195740 2.195740 21.579260
193 2 2 0.5897 1.409385 2.665929 21.942194
194 2 2 0.5897 2.623464 1.866447 22.404242
195 2 1 -1.1794 2.195740 9.691760 14.083240
196 2 2 0.5897 2.111703 10.544755 14.550666
197 2 2 0.5897 2.901702 9.237898 14.588060
198 2 1 -1.1794 9.691760 2.195740 14.083240
199 2 2 0.5897 9.179361 2.798535 14.675296
200 2 2 0.5897 10.435205 2.781750 13.813222
201 2 1 -1.1794 3.748010 3.748010 20.026990
202 2 2 0.5897 3.210531 3.161188 20.613558
203 2 2 0.5897 4.509120 3.962177 20.613582
204 2 1 -1.1794 8.139490 8.139490 20.026990
205 2 2 0.5897 7.874494 8.665484 19.234030
206 2 2 0.5897 8.651795 8.806563 20.539321
207 2 1 -1.1794 3.748010 8.139490 15.635510
208 2 2 0.5897 4.034637 8.592251 16.460531
209 2 2 0.5897 3.172969 7.424681 15.987563
210 2 1 -1.1794 8.139490 3.748010 15.635510
211 2 2 0.5897 7.377269 4.106705 15.132611
212 2 2 0.5897 8.597826 4.590218 15.893531
213 2 1 -1.1794 0.000000 3.679775 13.273107
214 2 2 0.5897 0.035498 4.459067 13.876957
215 2 2 0.5897 0.798485 3.179090 13.559256
216 2 1 -1.1794 0.000000 8.207725 13.273107
217 2 2 0.5897 -0.758631 8.731842 13.624852
218 2 2 0.5897 0.759372 8.779826 13.557876
219 2 1 -1.1794 0.000000 3.679775 22.389393
220 2 2 0.5897 -0.044368 3.851890 23.356964
221 2 2 0.5897 -0.018559 4.578141 21.997446
222 2 1 -1.1794 0.000000 8.207725 22.389393
223 2 2 0.5897 0.205529 8.274438 23.357486
224 2 2 0.5897 -0.779451 7.629397 22.475442
225 2 1 -1.1794 1.385607 0.000000 15.567275
226 2 2 0.5897 0.417726 -0.094659 15.708634
227 2 2 0.5897 1.754570 -0.099428 16.469468
228 2 1 -1.1794 1.385607 0.000000 20.095225
229 2 2 0.5897 1.716836 0.746754 20.645536
230 2 2 0.5897 1.714706 -0.771043 20.614450
231 2 1 -1.1794 10.501893 0.000000 15.567275
232 2 2 0.5897 9.916808 0.006667 16.359979
233 2 2 0.5897 10.184338 0.799264 15.089235
234 2 1 -1.1794 10.501893 0.000000 20.095225
235 2 2 0.5897 10.305638 0.798873 20.636625
236 2 2 0.5897 11.480928 0.066494 20.004178
237 2 1 -1.1794 3.679775 1.385607 11.887500
238 2 2 0.5897 3.181486 1.660080 12.690727
239 2 2 0.5897 4.465410 1.972311 11.925497
240 2 1 -1.1794 8.207725 1.385607 11.887500
241 2 2 0.5897 8.780854 1.614855 12.657015
242 2 2 0.5897 8.792041 1.653488 11.139635
243 2 1 -1.1794 3.679775 10.501893 11.887500
244 2 2 0.5897 3.869586 11.452377 11.991847
245 2 2 0.5897 4.546334 10.068458 11.999636
246 2 1 -1.1794 8.207725 10.501893 11.887500
247 2 2 0.5897 8.122284 11.478258 11.804074
248 2 2 0.5897 8.687717 10.276857 11.060137
249 2 1 -1.1794 9.623525 5.943750 16.445643
250 2 2 0.5897 9.813335 6.048098 17.396127
251 2 2 0.5897 10.490084 6.055885 16.012208
252 2 1 -1.1794 2.263975 5.943750 16.445643
253 2 2 0.5897 2.178531 5.860324 17.422008
254 2 2 0.5897 2.743967 5.116387 16.220608
255 2 1 -1.1794 9.623525 5.943750 19.216857
256 2 2 0.5897 9.125238 6.746978 19.491333
257 2 2 0.5897 10.409160 5.981743 19.803561
258 2 1 -1.1794 2.263975 5.943750 19.216857
259 2 2 0.5897 2.837102 6.713267 19.446105
260 2 2 0.5897 2.848293 5.195886 19.484739
261 2 1 -1.1794 5.943750 7.329357 14.151475
262 2 2 0.5897 5.185122 7.681106 14.675593
263 2 2 0.5897 6.703124 7.614122 14.723575
264 2 1 -1.1794 5.943750 7.329357 21.511025
265 2 2 0.5897 5.979250 7.933206 22.290318
266 2 2 0.5897 6.742237 7.615502 21.010342
267 2 1 -1.1794 5.943750 4.558143 14.151475
268 2 2 0.5897 6.149264 5.526242 14.218161
269 2 2 0.5897 5.164278 4.644161 13.573181
270 2 1 -1.1794 5.943750 4.558143 21.511025
271 2 2 0.5897 5.899383 5.525713 21.683144
272 2 2 0.5897 5.925192 4.166192 22.409389
273 2 1 -1.1794 7.329357 9.623525 17.831250
274 2 2 0.5897 6.361476 9.764884 17.736590
275 2 2 0.5897 7.698320 10.525718 17.731822
276 2 1 -1.1794 7.329357 2.263975 17.831250
277 2 2 0.5897 7.660588 2.814285 18.578003
278 2 2 0.5897 7.658458 2.783199 17.060206
279 2 1 -1.1794 4.558143 9.623525 17.831250
280 2 2 0.5897 3.973056 10.416229 17.837916
281 2 2 0.5897 4.240588 9.145485 18.630514
282 2 1 -1.1794 4.558143 2.263975 17.831250
283 2 2 0.5897 4.361890 2.805372 18.630125
284 2 2 0.5897 5.537178 2.172928 17.897742
285 2 3 0.0 0.000000 0.000000 11.887500
286 2 3 0.0 5.943750 5.943750 17.831250
287 2 3 0.0 0.000000 2.971875 17.831250
288 2 3 0.0 0.000000 8.915625 17.831250
289 2 3 0.0 5.943750 0.000000 14.859375
290 2 3 0.0 5.943750 0.000000 20.803125
291 2 3 0.0 2.971875 5.943750 11.887500
292 2 3 0.0 8.915625 5.943750 11.887500
293 3 1 -1.1794 0.000000 5.943750 26.746875
294 3 2 0.5897 0.009656 6.746382 26.176692
295 3 2 0.5897 0.819206 6.078805 27.275477
296 3 1 -1.1794 0.000000 5.943750 32.690625
297 3 2 0.5897 0.281067 6.808436 33.052971
298 3 2 0.5897 0.723234 5.812773 32.029920
299 3 1 -1.1794 2.971875 0.000000 29.718750
300 3 2 0.5897 2.409366 0.112795 30.516859
301 3 2 0.5897 3.506404 0.826096 29.730505
302 3 1 -1.1794 8.915625 0.000000 29.718750
303 3 2 0.5897 8.353117 0.798110 29.831546
304 3 2 0.5897 9.450153 0.011753 30.544848
305 3 1 -1.1794 5.943750 2.971875 23.775000
306 3 2 0.5897 6.224823 3.334227 24.639683
307 3 2 0.5897 6.666985 2.311172 23.644021
308 3 1 -1.1794 5.943750 8.915625 23.775000
309 3 2 0.5897 5.953409 8.345441 24.577632
310 3 2 0.5897 6.762955 9.444227 23.910054
311 3 1 -1.1794 2.195740 2.195740 25.970740
312 3 2 0.5897 1.930743 1.402781 26.496735
313 3 2 0.5897 2.708046 2.708072 26.637811
314 3 1 -1.1794 9.691760 9.691760 25.970740
315 3 2 0.5897 9.978388 10.516781 26.423501
316 3 2 0.5897 9.116718 10.043814 25.255933
317 3 1 -1.1794 9.691760 2.195740 33.466760
318 3 2 0.5897 9.154281 2.782308 32.879938
319 3 2 0.5897 10.452871 2.782332 33.680926
320 3 1 -1.1794 2.195740 9.691760 33.466760
321 3 2 0.5897 1.433515 9.188865 33.825449
322 3 2 0.5897 2.654073 9.949780 34.308970
323 3 1 -1.1794 8.139490 8.139490 27.523010
324 3 2 0.5897 8.055452 8.606915 28.376005
325 3 2 0.5897 8.845452 8.644310 27.069149
326 3 1 -1.1794 3.748010 3.748010 27.523010
327 3 2 0.5897 4.002365 3.184788 28.294697
328 3 2 0.5897 4.639981 3.970836 27.185372
329 3 1 -1.1794 8.139490 3.748010 31.914490
330 3 2 0.5897 7.353136 4.110945 32.384681
331 3 2 0.5897 8.567214 4.572992 31.585198
332 3 1 -1.1794 3.748010 8.139490 31.914490
333 3 2 0.5897 3.235613 8.731546 32.517287
334 3 2 0.5897 4.491456 7.869471 32.500499
335 3 1 -1.1794 9.691760 9.691760 33.466760
336 3 2 0.5897 9.946137 10.463442 32.903541
337 3 2 0.5897 10.583721 9.354096 33.689592
338 3 1 -1.1794 2.195740 2.195740 33.466760
339 3 2 0.5897 1.409385 2.665929 33.829694
340 3 2 0.5897 2.623464 1.866447 34.291742
341 3 1 -1.1794 2.195740 9.691760 25.970740
342 3 2 0.5897 2.111703 10.544755 26.438166
343 3 2 0.5897 2.901702 9.237898 26.475560
344 3 1 -1.1794 9.691760 2.195740 25.970740
345 3 2 0.5897 9.179361 2.798535 26.562796
346 3 2 0.5897 10.435205 2.781750 25.700722
347 3 1 -1.1794 3.748010 3.748010 31.914490
348 3 2 0.5897 3.210531 3.161188 32.501058
349 3 2 0.5897 4.509120 3.962177 32.501082
350 3 1 -1.1794 8.139490 8.139490 31.914490
351 3 2 0.5897 7.874494 8.665484 31.121530
352 3 2 0.5897 8.651795 8.806563 32.426821
353 3 1 -1.1794 3.748010 8.139490 27.523010
354 3 2 0.5897 4.034637 8.592251 28.348031
355 3 2 0.5897 3.172969 7.424681 27.875063
356 3 1 -1.1794 8.139490 3.748010 27.523010
357 3 2 0.5897 7.377269 4.106705 27.020111
358 3 2 0.5897 8.597826 4.590218 27.781031
359 3 1 -1.1794 0.000000 3.679775 25.160607
360 3 2 0.5897 0.035498 4.459067 25.764457
361 3 2 0.5897 0.798485 3.179090 25.446756
362 3 1 -1.1794 0.000000 8.207725 25.160607
363 3 2 0.5897 -0.758631 8.731842 25.512352
364 3 2 0.5897 0.759372 8.779826 25.445376
365 3 1 -1.1794 0.000000 3.679775 34.276893
366 3 2 0.5897 -0.044368 3.851890 35.244464
367 3 2 0.5897 -0.018559 4.578141 33.884946
368 3 1 -1.1794 0.000000 8.207725 34.276893
369 3 2 0.5897 0.205529 8.274438 35.244986
370 3 2 0.5897 -0.779451 7.629397 34.362942
371 3 1 -1.1794 1.385607 0.000000 27.454775
372 3 2 0.5897 0.417726 -0.094659 27.596134
373 3 2 0.5897 1.754570 -0.099428 28.356968
374 3 1 -1.1794 1.385607 0.000000 31.982725
375 3 2 0.5897 1.716836 0.746754 32.533036
376 3 2 0.5897 1.714706 -0.771043 32.501950
377 3 1 -1.1794 10.501893 0.000000 27.454775
378 3 2 0.5897 9.916808 0.006667 28.247479
379 3 2 0.5897 10.184338 0.799264 26.976735
380 3 1 -1.1794 10.501893 0.000000 31.982725
381 3 2 0.5897 10.305638 0.798873 32.524125
382 3 2 0.5897 11.480928 0.066494 31.891678
383 3 1 -1.1794 3.679775 1.385607 23.775000
384 3 2 0.5897 3.181486 1.660080 24.578227
385 3 2 0.5897 4.465410 1.972311 23.812997
386 3 1 -1.1794 8.207725 1.385607 23.775000
387 3 2 0.5897 8.780854 1.614855 24.544515
388 3 2 0.5897 8.792041 1.653488 23.027135
389 3 1 -1.1794 3.679775 10.501893 23.775000
390 3 2 0.5897 3.869586 11.452377 23.879347
391 3 2 0.5897 4.546334 10.068458 23.887136
392 3 1 -1.1794 8.207725 10.501893 23.775000
393 3 2 0.5897 8.122284 11.478258 23.691574
394 3 2 0.5897 8.687717 10.276857 22.947637
395 3 1 -1.1794 9.623525 5.943750 28.333143
396 3 2 0.5897 9.813335 6.048098 29.283627
397 3 2 0.5897 10.490084 6.055885 27.899708
398 3 1 -1.1794 2.263975 5.943750 28.333143
399 3 2 0.5897 2.178531 5.860324 29.309508
400 3 2 0.5897 2.743967 5.116387 28.108108
401 3 1 -1.1794 9.623525 5.943750 31.104357
402 3 2 0.5897 9.125238 6.746978 31.378833
403 3 2 0.5897 10.409160 5.981743 31.691061
404 3 1 -1.1794 2.263975 5.943750 31.104357
405 3 2 0.5897 2.837102 6.713267 31.333605
406 3 2 0.5897 2.848293 5.195886 31.372239
407 3 1 -1.1794 5.943750 7.329357 26.038975
408 3 2 0.5897 5.185122 7.681106 26.563093
409 3 2 0.5897 6.703124 7.614122 26.611075
410 3 1 -1.1794 5.943750 7.329357 33.398525
411 3 2 0.5897 5.979250 7.933206 34.177818
412 3 2 0.5897 6.742237 7.615502 32.897842
413 3 1 -1.1794 5.943750 4.558143 26.038975
414 3 2 0.5897 6.149264 5.526242 26.105661
415 3 2 0.5897 5.164278 4.644161 25.460681
416 3 1 -1.1794 5.943750 4.558143 33.398525
417 3 2 0.5897 5.899383 5.525713 33.570644
418 3 2 0.5897 5.925192 4.166192 34.296889
419 3 1 -1.1794 7.329357 9.623525 29.718750
420 3 2 0.5897 6.361476 9.764884 29.624090
421 3 2 0.5897 7.698320 10.525718 29.619322
422 3 1 -1.1794 7.329357 2.263975 29.718750
423 3 2 0.5897 7.660588 2.814285 30.465503
424 3 2 0.5897 7.658458 2.783199 28.947706
425 3 1 -1.1794 4.558143 9.623525 29.718750
426 3 2 0.5897 3.973056 10.416229 29.725416
427 3 2 0.5897 4.240588 9.145485 30.518014
428 3 1 -1.1794 4.558143 2.263975 29.718750
429 3 2 0.5897 4.361890 2.805372 30.517625
430 3 2 0.5897 5.537178 2.172928 29.785242
431 3 3 0.0 0.000000 0.000000 23.775000
432 3 3 0.0 5.943750 5.943750 29.718750
433 3 3 0.0 0.000000 2.971875 29.718750
434 3 3 0.0 0.000000 8.915625 29.718750
435 3 3 0.0 5.943750 0.000000 26.746875
436 3 3 0.0 5.943750 0.000000 32.690625
437 3 3 0.0 2.971875 5.943750 23.775000
438 3 3 0.0 8.915625 5.943750 23.775000
439 4 1 -1.1794 0.000000 17.831250 2.971875
440 4 2 0.5897 0.009656 18.633882 2.401692
441 4 2 0.5897 0.819206 17.966305 3.500477
442 4 1 -1.1794 0.000000 17.831250 8.915625
443 4 2 0.5897 0.281067 18.695936 9.277971
444 4 2 0.5897 0.723234 17.700273 8.254920
445 4 1 -1.1794 2.971875 11.887500 5.943750
446 4 2 0.5897 2.409366 12.000295 6.741859
447 4 2 0.5897 3.506404 12.713596 5.955505
448 4 1 -1.1794 8.915625 11.887500 5.943750
449 4 2 0.5897 8.353117 12.685610 6.056546
450 4 2 0.5897 9.450153 11.899253 6.769848
451 4 1 -1.1794 5.943750 14.859375 0.000000
452 4 2 0.5897 6.224823 15.221727 0.864683
453 4 2 0.5897 6.666985 14.198672 -0.130979
454 4 1 -1.1794 5.943750 20.803125 0.000000
455 4 2 0.5897 5.953409 20.232941 0.802632
456 4 2 0.5897 6.762955 21.331727 0.135054
457 4 1 -1.1794 2.195740 14.083240 2.195740
458 4 2 0.5897 1.930743 13.290281 2.721735
459 4 2 0.5897 2.708046 14.595572 2.862811
460 4 1 -1.1794 9.691760 21.579260 2.195740
461 4 2 0.5897 9.978388 22.404281 2.648501
462 4 2 0.5897 9.116718 21.931314 1.480933
463 4 1 -1.1794 9.691760 14.083240 9.691760
464 4 2 0.5897 9.154281 14.669808 9.104938
465 4 2 0.5897 10.452871 14.669832 9.905926
466 4 1 -1.1794 2.195740 21.579260 9.691760
467 4 2 0.5897 1.433515 21.076365 10.050449
468 4 2 0.5897 2.654073 21.837280 10.533970
469 4 1 -1.1794 8.139490 20.026990 3.748010
470 4 2 0.5897 8.055452 20.494415 4.601005
471 4 2 0.5897 8.845452 20.531810 3.294149
472 4 1 -1.1794 3.748010 15.635510 3.748010
473 4 2 0.5897 4.002365 15.072288 4.519697
474 4 2 0.5897 4.639981 15.858336 3.410372
475 4 1 -1.1794 8.139490 15.635510 8.139490
476 4 2 0.5897 7.353136 15.998445 8.609681
477 4 2 0.5897 8.567214 16.460492 7.810198
478 4 1 -1.1794 3.748010 20.026990 8.139490
479 4 2 0.5897 3.235613 20.619046 8.742287
480 4 2 0.5897 4.491456 19.756971 8.725499
481 4 1 -1.1794 9.691760 21.579260 9.691760
482 4 2 0.5897 9.946137 22.350942 9.128541
483 4 2 0.5897 10.583721 21.241596 9.914592
484 4 1 -1.1794 2.195740 14.083240 9.691760
485 4 2 0.5897 1.409385 14.553429 10.054694
486 4 2 0.5897 2.623464 13.753947 10.516742
487 4 1 -1.1794 2.195740 21.579260 2.195740
488 4 2 0.5897 2.111703 22.432255 2.663166
489 4 2 0.5897 2.901702 21.125398 2.700560
490 4 1 -1.1794 9.691760 14.083240 2.195740
491 4 2 0.5897 9.179361 14.686035 2.787796
492 4 2 0.5897 10.435205 14.669250 1.925722
493 4 1 -1.1794 3.748010 15.635510 8.139490
494 4 2 0.5897 3.210531 15.048688 8.726058
495 4 2 0.5897 4.509120 15.849677 8.726082
496 4 1 -1.1794 8.139490 20.026990 8.139490
497 4 2 0.5897 7.874494 20.552984 7.346530
498 4 2 0.5897 8.651795 20.694063 8.651821
499 4 1 -1.1794 3.748010 20.026990 3.748010
500 4 2 0.5897 4.034637 20.479751 4.573031
501 4 2 0.5897 3.172969 19.312181 4.100063
502 4 1 -1.1794 8.139490 15.635510 3.748010
503 4 2 0.5897 7.377269 15.994205 3.245111
504 4 2 0.5897 8.597826 16.477718 4.006031
505 4 1 -1.1794 0.000000 15.567275 1.385607
506 4 2 0.5897 0.035498 16.346567 1.989457
507 4 2 0.5897 0.798485 15.066590 1.671756
508 4 1 -1.1794 0.000000 20.095225 1.385607
509 4 2 0.5897 -0.758631 20.619342 1.737352
510 4 2 0.5897 0.759372 20.667326 1.670376
511 4 1 -1.1794 0.000000 15.567275 10.501893
512 4 2 0.5897 -0.044368 15.739390 11.469464
513 4 2 0.5897 -0.018559 16.465641 10.109946
514 4 1 -1.1794 0.000000 20.095225 10.501893
515 4 2 0.5897 0.205529 20.161938 11.469986
516 4 2 0.5897 -0.779451 19.516897 10.587942
517 4 1 -1.1794 1.385607 11.887500 3.679775
518 4 2 0.5897 0.417726 11.792841 3.821134
519 4 2 0.5897 1.754570 11.788072 4.581968
520 4 1 -1.1794 1.385607 11.887500 8.207725
521 4 2 0.5897 1.716836 12.634254 8.758036
522 4 2 0.5897 1.714706 11.116457 8.726950
523 4 1 -1.1794 10.501893 11.887500 3.679775
524 4 2 0.5897 9.916808 11.894167 4.472479
525 4 2 0.5897 10.184338 12.686764 3.201735
526 4 1 -1.1794 10.501893 11.887500 8.207725
527 4 2 0.5897 10.305638 12.686373 8.749125
528 4 2 0.5897 11.480928 11.953994 8.116678
529 4 1 -1.1794 3.679775 13.273107 0.000000
530 4 2 0.5897 3.181486 13.547580 0.803227
531 4 2 0.5897 4.465410 13.859811 0.037997
532 4 1 -1.1794 8.207725 13.273107 0.000000
533 4 2 0.5897 8.780854 13.502355 0.769515
534 4 2 0.5897 8.792041 13.540988 -0.747865
535 4 1 -1.1794 3.679775 22.389393 0.000000
536 4 2 0.5897 3.869586 23.339877 0.104347
537 4 2 0.5897 4.546334 21.955958 0.112136
538 4 1 -1.1794 8.207725 22.389393 0.000000
539 4 2 0.5897 8.122284 23.365758 -0.083426
540 4 2 0.5897 8.687717 22.164357 -0.827363
541 4 1 -1.1794 9.623525 17.831250 4.558143
542 4 2 0.5897 9.813335 17.935598 5.508627
543 4 2 0.5897 10.490084 17.943385 4.124708
544 4 1 -1.1794 2.263975 17.831250 4.558143
545 4 2 0.5897 2.178531 17.747824 5.534508
546 4 2 0.5897 2.743967 17.003887 4.333108
547 4 1 -1.1794 9.623525 17.831250 7.329357
548 4 2 0.5897 9.125238 18.634478 7.603833
549 4 2 0.5897 10.409160 17.869243 7.916061
550 4 1 -1.1794 2.263975 17.831250 7.329357
551 4 2 0.5897 2.837102 18.600767 7.558605
552 4 2 0.5897 2.848293 17.083386 7.597239
553 4 1 -1.1794 5.943750 19.216857 2.263975
554 4 2 0.5897 5.185122 19.568606 2.788093
555 4 2 0.5897 6.703124 19.501622 2.836075
556 4 1 -1.1794 5.943750 19.216857 9.623525
557 4 2 0.5897 5.979250 19.820706 10.402818
558 4 2 0.5897 6.742237 19.503002 9.122842
559 4 1 -1.1794 5.943750 16.445643 2.263975
560 4 2 0.5897 6.149264 17.413742 2.330661
561 4 2 0.5897 5.164278 16.531661 1.685681
562 4 1 -1.1794 5.943750 16.445643 9.623525
563 4 2 0.5897 5.899383 17.413213 9.795644
564 4 2 0.5897 5.925192 16.053692 10.521889
565 4 1 -1.1794 7.329357 21.511025 5.943750
566 4 2 0.5897 6.361476 21.652384 5.849090
567 4 2 0.5897 7.698320 22.413218 5.844322
568 4 1 -1.1794 7.329357 14.151475 5.943750
569 4 2 0.5897 7.660588 14.701785 6.690503
570 4 2 0.5897 7.658458 14.670699 5.172706
571 4 1 -1.1794 4.558143 21.511025 5.943750
572 4 2 0.5897 3.973056 22.303729 5.950416
573 4 2 0.5897 4.240588 21.032985 6.743014
574 4 1 -1.1794 4.558143 14.151475 5.943750
575 4 2 0.5897 4.361890 14.692872 6.742625
576 4 2 0.5897 5.537178 14.060428 6.010242
577 4 3 0.0 0.000000 11.887500 0.000000
578 4 3 0.0 5.943750 17.831250 5.943750
579 4 3 0.0 0.000000 14.859375 5.943750
580 4 3 0.0 0.000000 20.803125 5.943750
581 4 3 0.0 5.943750 11.887500 2.971875
582 4 3 0.0 5.943750 11.887500 8.915625
583 4 3 0.0 2.971875 17.831250 0.000000
584 4 3 0.0 8.915625 17.831250 0.000000
585 5 1 -1.1794 0.000000 17.831250 14.859375
586 5 2 0.5897 0.009656 18.633882 14.289192
587 5 2 0.5897 0.819206 17.966305 15.387977
588 5 1 -1.1794 0.000000 17.831250 20.803125
589 5 2 0.5897 0.281067 18.695936 21.165471
590 5 2 0.5897 0.723234 17.700273 20.142420
591 5 1 -1.1794 2.971875 11.887500 17.831250
592 5 2 0.5897 2.409366 12.000295 18.629359
593 5 2 0.5897 3.506404 12.713596 17.843005
594 5 1 -1.1794 8.915625 11.887500 17.831250
595 5 2 0.5897 8.353117 12.685610 17.944046
596 5 2 0.5897 9.450153 11.899253 18.657348
597 5 1 -1.1794 5.943750 14.859375 11.887500
598 5 2 0.5897 6.224823 15.221727 12.752183
599 5 2 0.5897 6.666985 14.198672 11.756521
600 5 1 -1.1794 5.943750 20.803125 11.887500
601 5 2 0.5897 5.953409 20.232941 12.690132
602 5 2 0.5897 6.762955 21.331727 12.022554
603 5 1 -1.1794 2.195740 14.083240 14.083240
604 5 2 0.5897 1.930743 13.290281 14.609235
605 5 2 0.5897 2.708046 14.595572 14.750311
606 5 1 -1.1794 9.691760 21.579260 14.083240
607 5 2 0.5897 9.978388 22.404281 14.536001
608 5 2 0.5897 9.116718 21.931314 13.368433
609 5 1 -1.1794 9.691760 14.083240 21.579260
610 5 2 0.5897 9.154281 14.669808 20.992438
611 5 2 0.5897 10.452871 14.669832 21.793426
612 5 1 -1.1794 2.195740 21.579260 21.579260
613 5 2 0.5897 1.433515 21.076365 21.937949
614 5 2 0.5897 2.654073 21.837280 22.421470
615 5 1 -1.1794 8.139490 20.026990 15.635510
616 5 2 0.5897 8.055452 20.494415 16.488505
617 5 2 0.5897 8.845452 20.531810 15.181649
618 5 1 -1.1794 3.748010 15.635510 15.635510
619 5 2 0.5897 4.002365 15.072288 16.407197
620 5 2 0.5897 4.639981 15.858336 15.297872
621 5 1 -1.1794 8.139490 15.635510 20.026990
622 5 2 0.5897 7.353136 15.998445 20.497181
623 5 2 0.5897 8.567214 16.460492 19.697698
624 5 1 -1.1794 3.748010 20.026990 20.026990
625 5 2 0.5897 3.235613 20.619046 20.629787
626 5 2 0.5897 4.491456 19.756971 20.612999
627 5 1 -1.1794 9.691760 21.579260 21.579260
628 5 2 0.5897 9.946137 22.350942 21.016041
629 5 2 0.5897 10.583721 21.241596 21.802092
630 5 1 -1.1794 2.195740 14.083240 21.579260
631 5 2 0.5897 1.409385 14.553429 21.942194
632 5 2 0.5897 2.623464 13.753947 22.404242
633 5 1 -1.1794 2.195740 21.579260 14.083240
634 5 2 0.5897 2.111703 22.432255 14.550666
635 5 2 0.5897 2.901702 21.125398 14.588060
636 5 1 -1.1794 9.691760 14.083240 14.083240
637 5 2 0.5897 9.179361 14.686035 14.675296
638 5 2 0.5897 10.435205 14.669250 13.813222
639 5 1 -1.1794 3.748010 15.635510 20.026990
640 5 2 0.5897 3.210531 15.048688 20.613558
641 5 2 0.5897 4.509120 15.849677 20.613582
642 5 1 -1.1794 8.139490 20.026990 20.026990
643 5 2 0.5897 7.874494 20.552984 19.234030
644 5 2 0.5897 8.651795 20.694063 20.539321
645 5 1 -1.1794 3.748010 20.026990 15.635510
646 5 2 0.5897 4.034637 20.479751 16.460531
647 5 2 0.5897 3.172969 19.312181 15.987563
648 5 1 -1.1794 8.139490 15.635510 15.635510
649 5 2 0.5897 7.377269 15.994205 15.132611
650 5 2 0.5897 8.597826 16.477718 15.893531
651 5 1 -1.1794 0.000000 15.567275 13.273107
652 5 2 0.5897 0.035498 16.346567 13.876957
653 5 2 0.5897 0.798485 15.066590 13.559256
654 5 1 -1.1794 0.000000 20.095225 13.273107
655 5 2 0.5897 -0.758631 20.619342 13.624852
656 5 2 0.5897 0.759372 20.667326 13.557876
657 5 1 -1.1794 0.000000 15.567275 22.389393
658 5 2 0.5897 -0.044368 15.739390 23.356964
659 5 2 0.5897 -0.018559 16.465641 21.997446
660 5 1 -1.1794 0.000000 20.095225 22.389393
661 5 2 0.5897 0.205529 20.161938 23.357486
662 5 2 0.5897 -0.779451 19.516897 22.475442
663 5 1 -1.1794 1.385607 11.887500 15.567275
664 5 2 0.5897 0.417726 11.792841 15.708634
665 5 2 0.5897 1.754570 11.788072 16.469468
666 5 1 -1.1794 1.385607 11.887500 20.095225
667 5 2 0.5897 1.716836 12.634254 20.645536
668 5 2 0.5897 1.714706 11.116457 20.614450
669 5 1 -1.1794 10.501893 11.887500 15.567275
670 5 2 0.5897 9.916808 11.894167 16.359979
671 5 2 0.5897 10.184338 12.686764 15.089235
672 5 1 -1.1794 10.501893 11.887500 20.095225
673 5 2 0.5897 10.305638 12.686373 20.636625
674 5 2 0.5897 11.480928 11.953994 20.004178
675 5 1 -1.1794 3.679775 13.273107 11.887500
676 5 2 0.5897 3.181486 13.547580 12.690727
677 5 2 0.5897 4.465410 13.859811 11.925497
678 5 1 -1.1794 8.207725 13.273107 11.887500
679 5 2 0.5897 8.780854 13.502355 12.657015
680 5 2 0.5897 8.792041 13.540988 11.139635
681 5 1 -1.1794 3.679775 22.389393 11.887500
682 5 2 0.5897 3.869586 23.339877 11.991847
683 5 2 0.5897 4.546334 21.955958 11.999636
684 5 1 -1.1794 8.207725 22.389393 11.887500
685 5 2 0.5897 8.122284 23.365758 11.804074
686 5 2 0.5897 8.687717 22.164357 11.060137
687 5 1 -1.1794 9.623525 17.831250 16.445643
688 5 2 0.5897 9.813335 17.935598 17.396127
689 5 2 0.5897 10.490084 17.943385 16.012208
690 5 1 -1.1794 2.263975 17.831250 16.445643
691 5 2 0.5897 2.178531 17.747824 17.422008
692 5 2 0.5897 2.743967 17.003887 16.220608
693 5 1 -1.1794 9.623525 17.831250 19.216857
694 5 2 0.5897 9.125238 18.634478 19.491333
695 5 2 0.5897 10.409160 17.869243 19.803561
696 5 1 -1.1794 2.263975 17.831250 19.216857
697 5 2 0.5897 2.837102 18.600767 19.446105
698 5 2 0.5897 2.848293 17.083386 19.484739
699 5 1 -1.1794 5.943750 19.216857 14.151475
700 5 2 0.5897 5.185122 19.568606 14.675593
701 5 2 0.5897 6.703124 19.501622 14.723575
702 5 1 -1.1794 5.943750 19.216857 21.511025
703 5 2 0.5897 5.979250 19.820706 22.290318
704 5 2 0.5897 6.742237 19.503002 21.010342
705 5 1 -1.1794 5.943750 16.445643 14.151475
706 5 2 0.5897 6.149264 17.413742 14.218161
707 5 2 0.5897 5.164278 16.531661 13.573181
708 5 1 -1.1794 5.943750 16.445643 21.511025
709 5 2 0.5897 5.899383 17.413213 21.683144
710 5 2 0.5897 5.925192 16.053692 22.409389
711 5 1 -1.1794 7.329357 21.511025 17.831250
712 5 2 0.5897 6.361476 21.652384 17.736590
713 5 2 0.5897 7.698320 22.413218 17.731822
714 5 1 -1.1794 7.329357 14.151475 17.831250
715 5 2 0.5897 7.660588 14.701785 18.578003
716 5 2 0.5897 7.658458 14.670699 17.060206
717 5 1 -1.1794 4.558143 21.511025 17.831250
718 5 2 0.5897 3.973056 22.303729 17.837916
719 5 2 0.5897 4.240588 21.032985 18.630514
720 5 1 -1.1794 4.558143 14.151475 17.831250
721 5 2 0.5897 4.361890 14.692872 18.630125
722 5 2 0.5897 5.537178 14.060428 17.897742
723 5 3 0.0 0.000000 11.887500 11.887500
724 5 3 0.0 5.943750 17.831250 17.831250
725 5 3 0.0 0.000000 14.859375 17.831250
726 5 3 0.0 0.000000 20.803125 17.831250
727 5 3 0.0 5.943750 11.887500 14.859375
728 5 3 0.0 5.943750 11.887500 20.803125
729 5 3 0.0 2.971875 17.831250 11.887500
730 5 3 0.0 8.915625 17.831250 11.887500
731 6 1 -1.1794 0.000000 17.831250 26.746875
732 6 2 0.5897 0.009656 18.633882 26.176692
733 6 2 0.5897 0.819206 17.966305 27.275477
734 6 1 -1.1794 0.000000 17.831250 32.690625
735 6 2 0.5897 0.281067 18.695936 33.052971
736 6 2 0.5897 0.723234 17.700273 32.029920
737 6 1 -1.1794 2.971875 11.887500 29.718750
738 6 2 0.5897 2.409366 12.000295 30.516859
739 6 2 0.5897 3.506404 12.713596 29.730505
740 6 1 -1.1794 8.915625 11.887500 29.718750
741 6 2 0.5897 8.353117 12.685610 29.831546
742 6 2 0.5897 9.450153 11.899253 30.544848
743 6 1 -1.1794 5.943750 14.859375 23.775000
744 6 2 0.5897 6.224823 15.221727 24.639683
745 6 2 0.5897 6.666985 14.198672 23.644021
746 6 1 -1.1794 5.943750 20.803125 23.775000
747 6 2 0.5897 5.953409 20.232941 24.577632
748 6 2 0.5897 6.762955 21.331727 23.910054
749 6 1 -1.1794 2.195740 14.083240 25.970740
750 6 2 0.5897 1.930743 13.290281 26.496735
751 6 2 0.5897 2.708046 14.595572 26.637811
752 6 1 -1.1794 9.691760 21.579260 25.970740
753 6 2 0.5897 9.978388 22.404281 26.423501
754 6 2 0.5897 9.116718 21.931314 25.255933
755 6 1 -1.1794 9.691760 14.083240 33.466760
756 6 2 0.5897 9.154281 14.669808 32.879938
757 6 2 0.5897 10.452871 14.669832 33.680926
758 6 1 -1.1794 2.195740 21.579260 33.466760
759 6 2 0.5897 1.433515 21.076365 33.825449
760 6 2 0.5897 2.654073 21.837280 34.308970
761 6 1 -1.1794 8.139490 20.026990 27.523010
762 6 2 0.5897 8.055452 20.494415 28.376005
763 6 2 0.5897 8.845452 20.531810 27.069149
764 6 1 -1.1794 3.748010 15.635510 27.523010
765 6 2 0.5897 4.002365 15.072288 28.294697
766 6 2 0.5897 4.639981 15.858336 27.185372
767 6 1 -1.1794 8.139490 15.635510 31.914490
768 6 2 0.5897 7.353136 15.998445 32.384681
769 6 2 0.5897 8.567214 16.460492 31.585198
770 6 1 -1.1794 3.748010 20.026990 31.914490
771 6 2 0.5897 3.235613 20.619046 32.517287
772 6 2 0.5897 4.491456 19.756971 32.500499
773 6 1 -1.1794 9.691760 21.579260 33.466760
774 6 2 0.5897 9.946137 22.350942 32.903541
775 6 2 0.5897 10.583721 21.241596 33.689592
776 6 1 -1.1794 2.195740 14.083240 33.466760
777 6 2 0.5897 1.409385 14.553429 33.829694
778 6 2 0.5897 2.623464 13.753947 34.291742
779 6 1 -1.1794 2.195740 21.579260 25.970740
780 6 2 0.5897 2.111703 22.432255 26.438166
781 6 2 0.5897 2.901702 21.125398 26.475560
782 6 1 -1.1794 9.691760 14.083240 25.970740
783 6 2 0.5897 9.179361 14.686035 26.562796
784 6 2 0.5897 10.435205 14.669250 25.700722
785 6 1 -1.1794 3.748010 15.635510 31.914490
786 6 2 0.5897 3.210531 15.048688 32.501058
787 6 2 0.5897 4.509120 15.849677 32.501082
788 6 1 -1.1794 8.139490 20.026990 31.914490
789 6 2 0.5897 7.874494 20.552984 31.121530
790 6 2 0.5897 8.651795 20.694063 32.426821
791 6 1 -1.1794 3.748010 20.026990 27.523010
792 6 2 0.5897 4.034637 20.479751 28.348031
793 6 2 0.5897 3.172969 19.312181 27.875063
794 6 1 -1.1794 8.139490 15.635510 27.523010
795 6 2 0.5897 7.377269 15.994205 27.020111
796 6 2 0.5897 8.597826 16.477718 27.781031
797 6 1 -1.1794 0.000000 15.567275 25.160607
798 6 2 0.5897 0.035498 16.346567 25.764457
799 6 2 0.5897 0.798485 15.066590 25.446756
800 6 1 -1.1794 0.000000 20.095225 25.160607
801 6 2 0.5897 -0.758631 20.619342 25.512352
802 6 2 0.5897 0.759372 20.667326 25.445376
803 6 1 -1.1794 0.000000 15.567275 34.276893
804 6 2 0.5897 -0.044368 15.739390 35.244464
805 6 2 0.5897 -0.018559 16.465641 33.884946
806 6 1 -1.1794 0.000000 20.095225 34.276893
807 6 2 0.5897 0.205529 20.161938 35.244986
808 6 2 0.5897 -0.779451 19.516897 34.362942
809 6 1 -1.1794 1.385607 11.887500 27.454775
810 6 2 0.5897 0.417726 11.792841 27.596134
811 6 2 0.5897 1.754570 11.788072 28.356968
812 6 1 -1.1794 1.385607 11.887500 31.982725
813 6 2 0.5897 1.716836 12.634254 32.533036
814 6 2 0.5897 1.714706 11.116457 32.501950
815 6 1 -1.1794 10.501893 11.887500 27.454775
816 6 2 0.5897 9.916808 11.894167 28.247479
817 6 2 0.5897 10.184338 12.686764 26.976735
818 6 1 -1.1794 10.501893 11.887500 31.982725
819 6 2 0.5897 10.305638 12.686373 32.524125
820 6 2 0.5897 11.480928 11.953994 31.891678
821 6 1 -1.1794 3.679775 13.273107 23.775000
822 6 2 0.5897 3.181486 13.547580 24.578227
823 6 2 0.5897 4.465410 13.859811 23.812997
824 6 1 -1.1794 8.207725 13.273107 23.775000
825 6 2 0.5897 8.780854 13.502355 24.544515
826 6 2 0.5897 8.792041 13.540988 23.027135
827 6 1 -1.1794 3.679775 22.389393 23.775000
828 6 2 0.5897 3.869586 23.339877 23.879347
829 6 2 0.5897 4.546334 21.955958 23.887136
830 6 1 -1.1794 8.207725 22.389393 23.775000
831 6 2 0.5897 8.122284 23.365758 23.691574
832 6 2 0.5897 8.687717 22.164357 22.947637
833 6 1 -1.1794 9.623525 17.831250 28.333143
834 6 2 0.5897 9.813335 17.935598 29.283627
835 6 2 0.5897 10.490084 17.943385 27.899708
836 6 1 -1.1794 2.263975 17.831250 28.333143
837 6 2 0.5897 2.178531 17.747824 29.309508
838 6 2 0.5897 2.743967 17.003887 28.108108
839 6 1 -1.1794 9.623525 17.831250 31.104357
840 6 2 0.5897 9.125238 18.634478 31.378833
841 6 2 0.5897 10.409160 17.869243 31.691061
842 6 1 -1.1794 2.263975 17.831250 31.104357
843 6 2 0.5897 2.837102 18.600767 31.333605
844 6 2 0.5897 2.848293 17.083386 31.372239
845 6 1 -1.1794 5.943750 19.216857 26.038975
846 6 2 0.5897 5.185122 19.568606 26.563093
847 6 2 0.5897 6.703124 19.501622 26.611075
848 6 1 -1.1794 5.943750 19.216857 33.398525
849 6 2 0.5897 5.979250 19.820706 34.177818
850 6 2 0.5897 6.742237 19.503002 32.897842
851 6 1 -1.1794 5.943750 16.445643 26.038975
852 6 2 0.5897 6.149264 17.413742 26.105661
853 6 2 0.5897 5.164278 16.531661 25.460681
854 6 1 -1.1794 5.943750 16.445643 33.398525
855 6 2 0.5897 5.899383 17.413213 33.570644
856 6 2 0.5897 5.925192 16.053692 34.296889
857 6 1 -1.1794 7.329357 21.511025 29.718750
858 6 2 0.5897 6.361476 21.652384 29.624090
859 6 2 0.5897 7.698320 22.413218 29.619322
860 6 1 -1.1794 7.329357 14.151475 29.718750
861 6 2 0.5897 7.660588 14.701785 30.465503
862 6 2 0.5897 7.658458 14.670699 28.947706
863 6 1 -1.1794 4.558143 21.511025 29.718750
864 6 2 0.5897 3.973056 22.303729 29.725416
865 6 2 0.5897 4.240588 21.032985 30.518014
866 6 1 -1.1794 4.558143 14.151475 29.718750
867 6 2 0.5897 4.361890 14.692872 30.517625
868 6 2 0.5897 5.537178 14.060428 29.785242
869 6 3 0.0 0.000000 11.887500 23.775000
870 6 3 0.0 5.943750 17.831250 29.718750
871 6 3 0.0 0.000000 14.859375 29.718750
872 6 3 0.0 0.000000 20.803125 29.718750
873 6 3 0.0 5.943750 11.887500 26.746875
874 6 3 0.0 5.943750 11.887500 32.690625
875 6 3 0.0 2.971875 17.831250 23.775000
876 6 3 0.0 8.915625 17.831250 23.775000
877 7 1 -1.1794 0.000000 29.718750 2.971875
878 7 2 0.5897 0.009656 30.521382 2.401692
879 7 2 0.5897 0.819206 29.853805 3.500477
880 7 1 -1.1794 0.000000 29.718750 8.915625
881 7 2 0.5897 0.281067 30.583436 9.277971
882 7 2 0.5897 0.723234 29.587773 8.254920
883 7 1 -1.1794 2.971875 23.775000 5.943750
884 7 2 0.5897 2.409366 23.887795 6.741859
885 7 2 0.5897 3.506404 24.601096 5.955505
886 7 1 -1.1794 8.915625 23.775000 5.943750
887 7 2 0.5897 8.353117 24.573110 6.056546
888 7 2 0.5897 9.450153 23.786753 6.769848
889 7 1 -1.1794 5.943750 26.746875 0.000000
890 7 2 0.5897 6.224823 27.109227 0.864683
891 7 2 0.5897 6.666985 26.086172 -0.130979
892 7 1 -1.1794 5.943750 32.690625 0.000000
893 7 2 0.5897 5.953409 32.120441 0.802632
894 7 2 0.5897 6.762955 33.219227 0.135054
895 7 1 -1.1794 2.195740 25.970740 2.195740
896 7 2 0.5897 1.930743 25.177781 2.721735
897 7 2 0.5897 2.708046 26.483072 2.862811
898 7 1 -1.1794 9.691760 33.466760 2.195740
899 7 2 0.5897 9.978388 34.291781 2.648501
900 7 2 0.5897 9.116718 33.818814 1.480933
901 7 1 -1.1794 9.691760 25.970740 9.691760
902 7 2 0.5897 9.154281 26.557308 9.104938
903 7 2 0.5897 10.452871 26.557332 9.905926
904 7 1 -1.1794 2.195740 33.466760 9.691760
905 7 2 0.5897 1.433515 32.963865 10.050449
906 7 2 0.5897 2.654073 33.724780 10.533970
907 7 1 -1.1794 8.139490 31.914490 3.748010
908 7 2 0.5897 8.055452 32.381915 4.601005
909 7 2 0.5897 8.845452 32.419310 3.294149
910 7 1 -1.1794 3.748010 27.523010 3.748010
911 7 2 0.5897 4.002365 26.959788 4.519697
912 7 2 0.5897 4.639981 27.745836 3.410372
913 7 1 -1.1794 8.139490 27.523010 8.139490
914 7 2 0.5897 7.353136 27.885945 8.609681
915 7 2 0.5897 8.567214 28.347992 7.810198
916 7 1 -1.1794 3.748010 31.914490 8.139490
917 7 2 0.5897 3.235613 32.506546 8.742287
918 7 2 0.5897 4.491456 31.644471 8.725499
919 7 1 -1.1794 9.691760 33.466760 9.691760
920 7 2 0.5897 9.946137 34.238442 9.128541
921 7 2 0.5897 10.583721 33.129096 9.914592
922 7 1 -1.1794 2.195740 25.970740 9.691760
923 7 2 0.5897 1.409385 26.440929 10.054694
924 7 2 0.5897 2.623464 25.641447 10.516742
925 7 1 -1.1794 2.195740 33.466760 2.195740
926 7 2 0.5897 2.111703 34.319755 2.663166
927 7 2 0.5897 2.901702 33.012898 2.700560
928 7 1 -1.1794 9.691760 25.970740 2.195740
929 7 2 0.5897 9.179361 26.573535 2.787796
930 7 2 0.5897 10.435205 26.556750 1.925722
931 7 1 -1.1794 3.748010 27.523010 8.139490
932 7 2 0.5897 3.210531 26.936188 8.726058
933 7 2 0.5897 4.509120 27.737177 8.726082
934 7 1 -1.1794 8.139490 31.914490 8.139490
935 7 2 0.5897 7.874494 32.440484 7.346530
936 7 2 0.5897 8.651795 32.581563 8.651821
937 7 1 -1.1794 3.748010 31.914490 3.748010
938 7 2 0.5897 4.034637 32.367251 4.573031
939 7 2 0.5897 3.172969 31.199681 4.100063
940 7 1 -1.1794 8.139490 27.523010 3.748010
941 7 2 0.5897 7.377269 27.881705 3.245111
942 7 2 0.5897 8.597826 28.365218 4.006031
943 7 1 -1.1794 0.000000 27.454775 1.385607
944 7 2 0.5897 0.035498 28.234067 1.989457
945 7 2 0.5897 0.798485 26.954090 1.671756
946 7 1 -1.1794 0.000000 31.982725 1.385607
947 7 2 0.5897 -0.758631 32.506842 1.737352
948 7 2 0.5897 0.759372 32.554826 1.670376
949 7 1 -1.1794 0.000000 27.454775 10.501893
950 7 2 0.5897 -0.044368 27.626890 11.469464
951 7 2 0.5897 -0.018559 28.353141 10.109946
952 7 1 -1.1794 0.000000 31.982725 10.501893
953 7 2 0.5897 0.205529 32.049438 11.469986
954 7 2 0.5897 -0.779451 31.404397 10.587942
955 7 1 -1.1794 1.385607 23.775000 3.679775
956 7 2 0.5897 0.417726 23.680341 3.821134
957 7 2 0.5897 1.754570 23.675572 4.581968
958 7 1 -1.1794 1.385607 23.775000 8.207725
959 7 2 0.5897 1.716836 24.521754 8.758036
960 7 2 0.5897 1.714706 23.003957 8.726950
961 7 1 -1.1794 10.501893 23.775000 3.679775
962 7 2 0.5897 9.916808 23.781667 4.472479
963 7 2 0.5897 10.184338 24.574264 3.201735
964 7 1 -1.1794 10.501893 23.775000 8.207725
965 7 2 0.5897 10.305638 24.573873 8.749125
966 7 2 0.5897 11.480928 23.841494 8.116678
967 7 1 -1.1794 3.679775 25.160607 0.000000
968 7 2 0.5897 3.181486 25.435080 0.803227
969 7 2 0.5897 4.465410 25.747311 0.037997
970 7 1 -1.1794 8.207725 25.160607 0.000000
971 7 2 0.5897 8.780854 25.389855 0.769515
972 7 2 0.5897 8.792041 25.428488 -0.747865
973 7 1 -1.1794 3.679775 34.276893 0.000000
974 7 2 0.5897 3.869586 35.227377 0.104347
975 7 2 0.5897 4.546334 33.843458 0.112136
976 7 1 -1.1794 8.207725 34.276893 0.000000
977 7 2 0.5897 8.122284 35.253258 -0.083426
978 7 2 0.5897 8.687717 34.051857 -0.827363
979 7 1 -1.1794 9.623525 29.718750 4.558143
980 7 2 0.5897 9.813335 29.823098 5.508627
981 7 2 0.5897 10.490084 29.830885 4.124708
982 7 1 -1.1794 2.263975 29.718750 4.558143
983 7 2 0.5897 2.178531 29.635324 5.534508
984 7 2 0.5897 2.743967 28.891387 4.333108
985 7 1 -1.1794 9.623525 29.718750 7.329357
986 7 2 0.5897 9.125238 30.521978 7.603833
987 7 2 0.5897 10.409160 29.756743 7.916061
988 7 1 -1.1794 2.263975 29.718750 7.329357
989 7 2 0.5897 2.837102 30.488267 7.558605
990 7 2 0.5897 2.848293 28.970886 7.597239
991 7 1 -1.1794 5.943750 31.104357 2.263975
992 7 2 0.5897 5.185122 31.456106 2.788093
993 7 2 0.5897 6.703124 31.389122 2.836075
994 7 1 -1.1794 5.943750 31.104357 9.623525
995 7 2 0.5897 5.979250 31.708206 10.402818
996 7 2 0.5897 6.742237 31.390502 9.122842
997 7 1 -1.1794 5.943750 28.333143 2.263975
998 7 2 0.5897 6.149264 29.301242 2.330661
999 7 2 0.5897 5.164278 28.419161 1.685681
1000 7 1 -1.1794 5.943750 28.333143 9.623525
1001 7 2 0.5897 5.899383 29.300713 9.795644
1002 7 2 0.5897 5.925192 27.941192 10.521889
1003 7 1 -1.1794 7.329357 33.398525 5.943750
1004 7 2 0.5897 6.361476 33.539884 5.849090
1005 7 2 0.5897 7.698320 34.300718 5.844322
1006 7 1 -1.1794 7.329357 26.038975 5.943750
1007 7 2 0.5897 7.660588 26.589285 6.690503
1008 7 2 0.5897 7.658458 26.558199 5.172706
1009 7 1 -1.1794 4.558143 33.398525 5.943750
1010 7 2 0.5897 3.973056 34.191229 5.950416
1011 7 2 0.5897 4.240588 32.920485 6.743014
1012 7 1 -1.1794 4.558143 26.038975 5.943750
1013 7 2 0.5897 4.361890 26.580372 6.742625
1014 7 2 0.5897 5.537178 25.947928 6.010242
1015 7 3 0.0 0.000000 23.775000 0.000000
1016 7 3 0.0 5.943750 29.718750 5.943750
1017 7 3 0.0 0.000000 26.746875 5.943750
1018 7 3 0.0 0.000000 32.690625 5.943750
1019 7 3 0.0 5.943750 23.775000 2.971875
1020 7 3 0.0 5.943750 23.775000 8.915625
1021 7 3 0.0 2.971875 29.718750 0.000000
1022 7 3 0.0 8.915625 29.718750 0.000000
1023 8 1 -1.1794 0.000000 29.718750 14.859375
1024 8 2 0.5897 0.009656 30.521382 14.289192
1025 8 2 0.5897 0.819206 29.853805 15.387977
1026 8 1 -1.1794 0.000000 29.718750 20.803125
1027 8 2 0.5897 0.281067 30.583436 21.165471
1028 8 2 0.5897 0.723234 29.587773 20.142420
1029 8 1 -1.1794 2.971875 23.775000 17.831250
1030 8 2 0.5897 2.409366 23.887795 18.629359
1031 8 2 0.5897 3.506404 24.601096 17.843005
1032 8 1 -1.1794 8.915625 23.775000 17.831250
1033 8 2 0.5897 8.353117 24.573110 17.944046
1034 8 2 0.5897 9.450153 23.786753 18.657348
1035 8 1 -1.1794 5.943750 26.746875 11.887500
1036 8 2 0.5897 6.224823 27.109227 12.752183
1037 8 2 0.5897 6.666985 26.086172 11.756521
1038 8 1 -1.1794 5.943750 32.690625 11.887500
1039 8 2 0.5897 5.953409 32.120441 12.690132
1040 8 2 0.5897 6.762955 33.219227 12.022554
1041 8 1 -1.1794 2.195740 25.970740 14.083240
1042 8 2 0.5897 1.930743 25.177781 14.609235
1043 8 2 0.5897 2.708046 26.483072 14.750311
1044 8 1 -1.1794 9.691760 33.466760 14.083240
1045 8 2 0.5897 9.978388 34.291781 14.536001
1046 8 2 0.5897 9.116718 33.818814 13.368433
1047 8 1 -1.1794 9.691760 25.970740 21.579260
1048 8 2 0.5897 9.154281 26.557308 20.992438
1049 8 2 0.5897 10.452871 26.557332 21.793426
1050 8 1 -1.1794 2.195740 33.466760 21.579260
1051 8 2 0.5897 1.433515 32.963865 21.937949
1052 8 2 0.5897 2.654073 33.724780 22.421470
1053 8 1 -1.1794 8.139490 31.914490 15.635510
1054 8 2 0.5897 8.055452 32.381915 16.488505
1055 8 2 0.5897 8.845452 32.419310 15.181649
1056 8 1 -1.1794 3.748010 27.523010 15.635510
1057 8 2 0.5897 4.002365 26.959788 16.407197
1058 8 2 0.5897 4.639981 27.745836 15.297872
1059 8 1 -1.1794 8.139490 27.523010 20.026990
1060 8 2 0.5897 7.353136 27.885945 20.497181
1061 8 2 0.5897 8.567214 28.347992 19.697698
1062 8 1 -1.1794 3.748010 31.914490 20.026990
1063 8 2 0.5897 3.235613 32.506546 20.629787
1064 8 2 0.5897 4.491456 31.644471 20.612999
1065 8 1 -1.1794 9.691760 33.466760 21.579260
1066 8 2 0.5897 9.946137 34.238442 21.016041
1067 8 2 0.5897 10.583721 33.129096 21.802092
1068 8 1 -1.1794 2.195740 25.970740 21.579260
1069 8 2 0.5897 1.409385 26.440929 21.942194
1070 8 2 0.5897 2.623464 25.641447 22.404242
1071 8 1 -1.1794 2.195740 33.466760 14.083240
1072 8 2 0.5897 2.111703 34.319755 14.550666
1073 8 2 0.5897 2.901702 33.012898 14.588060
1074 8 1 -1.1794 9.691760 25.970740 14.083240
1075 8 2 0.5897 9.179361 26.573535 14.675296
1076 8 2 0.5897 10.435205 26.556750 13.813222
1077 8 1 -1.1794 3.748010 27.523010 20.026990
1078 8 2 0.5897 3.210531 26.936188 20.613558
1079 8 2 0.5897 4.509120 27.737177 20.613582
1080 8 1 -1.1794 8.139490 31.914490 20.026990
1081 8 2 0.5897 7.874494 32.440484 19.234030
1082 8 2 0.5897 8.651795 32.581563 20.539321
1083 8 1 -1.1794 3.748010 31.914490 15.635510
1084 8 2 0.5897 4.034637 32.367251 16.460531
1085 8 2 0.5897 3.172969 31.199681 15.987563
1086 8 1 -1.1794 8.139490 27.523010 15.635510
1087 8 2 0.5897 7.377269 27.881705 15.132611
1088 8 2 0.5897 8.597826 28.365218 15.893531
1089 8 1 -1.1794 0.000000 27.454775 13.273107
1090 8 2 0.5897 0.035498 28.234067 13.876957
1091 8 2 0.5897 0.798485 26.954090 13.559256
1092 8 1 -1.1794 0.000000 31.982725 13.273107
1093 8 2 0.5897 -0.758631 32.506842 13.624852
1094 8 2 0.5897 0.759372 32.554826 13.557876
1095 8 1 -1.1794 0.000000 27.454775 22.389393
1096 8 2 0.5897 -0.044368 27.626890 23.356964
1097 8 2 0.5897 -0.018559 28.353141 21.997446
1098 8 1 -1.1794 0.000000 31.982725 22.389393
1099 8 2 0.5897 0.205529 32.049438 23.357486
1100 8 2 0.5897 -0.779451 31.404397 22.475442
1101 8 1 -1.1794 1.385607 23.775000 15.567275
1102 8 2 0.5897 0.417726 23.680341 15.708634
1103 8 2 0.5897 1.754570 23.675572 16.469468
1104 8 1 -1.1794 1.385607 23.775000 20.095225
1105 8 2 0.5897 1.716836 24.521754 20.645536
1106 8 2 0.5897 1.714706 23.003957 20.614450
1107 8 1 -1.1794 10.501893 23.775000 15.567275
1108 8 2 0.5897 9.916808 23.781667 16.359979
1109 8 2 0.5897 10.184338 24.574264 15.089235
1110 8 1 -1.1794 10.501893 23.775000 20.095225
1111 8 2 0.5897 10.305638 24.573873 20.636625
1112 8 2 0.5897 11.480928 23.841494 20.004178
1113 8 1 -1.1794 3.679775 25.160607 11.887500
1114 8 2 0.5897 3.181486 25.435080 12.690727
1115 8 2 0.5897 4.465410 25.747311 11.925497
1116 8 1 -1.1794 8.207725 25.160607 11.887500
1117 8 2 0.5897 8.780854 25.389855 12.657015
1118 8 2 0.5897 8.792041 25.428488 11.139635
1119 8 1 -1.1794 3.679775 34.276893 11.887500
1120 8 2 0.5897 3.869586 35.227377 11.991847
1121 8 2 0.5897 4.546334 33.843458 11.999636
1122 8 1 -1.1794 8.207725 34.276893 11.887500
1123 8 2 0.5897 8.122284 35.253258 11.804074
1124 8 2 0.5897 8.687717 34.051857 11.060137
1125 8 1 -1.1794 9.623525 29.718750 16.445643
1126 8 2 0.5897 9.813335 29.823098 17.396127
1127 8 2 0.5897 10.490084 29.830885 16.012208
1128 8 1 -1.1794 2.263975 29.718750 16.445643
1129 8 2 0.5897 2.178531 29.635324 17.422008
1130 8 2 0.5897 2.743967 28.891387 16.220608
1131 8 1 -1.1794 9.623525 29.718750 19.216857
1132 8 2 0.5897 9.125238 30.521978 19.491333
1133 8 2 0.5897 10.409160 29.756743 19.803561
1134 8 1 -1.1794 2.263975 29.718750 19.216857
1135 8 2 0.5897 2.837102 30.488267 19.446105
1136 8 2 0.5897 2.848293 28.970886 19.484739
1137 8 1 -1.1794 5.943750 31.104357 14.151475
1138 8 2 0.5897 5.185122 31.456106 14.675593
1139 8 2 0.5897 6.703124 31.389122 14.723575
1140 8 1 -1.1794 5.943750 31.104357 21.511025
1141 8 2 0.5897 5.979250 31.708206 22.290318
1142 8 2 0.5897 6.742237 31.390502 21.010342
1143 8 1 -1.1794 5.943750 28.333143 14.151475
1144 8 2 0.5897 6.149264 29.301242 14.218161
1145 8 2 0.5897 5.164278 28.419161 13.573181
1146 8 1 -1.1794 5.943750 28.333143 21.511025
1147 8 2 0.5897 5.899383 29.300713 21.683144
1148 8 2 0.5897 5.925192 27.941192 22.409389
1149 8 1 -1.1794 7.329357 33.398525 17.831250
1150 8 2 0.5897 6.361476 33.539884 17.736590
1151 8 2 0.5897 7.698320 34.300718 17.731822
1152 8 1 -1.1794 7.329357 26.038975 17.831250
1153 8 2 0.5897 7.660588 26.589285 18.578003
1154 8 2 0.5897 7.658458 26.558199 17.060206
1155 8 1 -1.1794 4.558143 33.398525 17.831250
1156 8 2 0.5897 3.973056 34.191229 17.837916
1157 8 2 0.5897 4.240588 32.920485 18.630514
1158 8 1 -1.1794 4.558143 26.038975 17.831250
1159 8 2 0.5897 4.361890 26.580372 18.630125
1160 8 2 0.5897 5.537178 25.947928 17.897742
1161 8 3 0.0 0.000000 23.775000 11.887500
1162 8 3 0.0 5.943750 29.718750 17.831250
1163 8 3 0.0 0.000000 26.746875 17.831250
1164 8 3 0.0 0.000000 32.690625 17.831250
1165 8 3 0.0 5.943750 23.775000 14.859375
1166 8 3 0.0 5.943750 23.775000 20.803125
1167 8 3 0.0 2.971875 29.718750 11.887500
1168 8 3 0.0 8.915625 29.718750 11.887500
1169 9 1 -1.1794 0.000000 29.718750 26.746875
1170 9 2 0.5897 0.009656 30.521382 26.176692
1171 9 2 0.5897 0.819206 29.853805 27.275477
1172 9 1 -1.1794 0.000000 29.718750 32.690625
1173 9 2 0.5897 0.281067 30.583436 33.052971
1174 9 2 0.5897 0.723234 29.587773 32.029920
1175 9 1 -1.1794 2.971875 23.775000 29.718750
1176 9 2 0.5897 2.409366 23.887795 30.516859
1177 9 2 0.5897 3.506404 24.601096 29.730505
1178 9 1 -1.1794 8.915625 23.775000 29.718750
1179 9 2 0.5897 8.353117 24.573110 29.831546
1180 9 2 0.5897 9.450153 23.786753 30.544848
1181 9 1 -1.1794 5.943750 26.746875 23.775000
1182 9 2 0.5897 6.224823 27.109227 24.639683
1183 9 2 0.5897 6.666985 26.086172 23.644021
1184 9 1 -1.1794 5.943750 32.690625 23.775000
1185 9 2 0.5897 5.953409 32.120441 24.577632
1186 9 2 0.5897 6.762955 33.219227 23.910054
1187 9 1 -1.1794 2.195740 25.970740 25.970740
1188 9 2 0.5897 1.930743 25.177781 26.496735
1189 9 2 0.5897 2.708046 26.483072 26.637811
1190 9 1 -1.1794 9.691760 33.466760 25.970740
1191 9 2 0.5897 9.978388 34.291781 26.423501
1192 9 2 0.5897 9.116718 33.818814 25.255933
1193 9 1 -1.1794 9.691760 25.970740 33.466760
1194 9 2 0.5897 9.154281 26.557308 32.879938
1195 9 2 0.5897 10.452871 26.557332 33.680926
1196 9 1 -1.1794 2.195740 33.466760 33.466760
1197 9 2 0.5897 1.433515 32.963865 33.825449
1198 9 2 0.5897 2.654073 33.724780 34.308970
1199 9 1 -1.1794 8.139490 31.914490 27.523010
1200 9 2 0.5897 8.055452 32.381915 28.376005
1201 9 2 0.5897 8.845452 32.419310 27.069149
1202 9 1 -1.1794 3.748010 27.523010 27.523010
1203 9 2 0.5897 4.002365 26.959788 28.294697
1204 9 2 0.5897 4.639981 27.745836 27.185372
1205 9 1 -1.1794 8.139490 27.523010 31.914490
1206 9 2 0.5897 7.353136 27.885945 32.384681
1207 9 2 0.5897 8.567214 28.347992 31.585198
1208 9 1 -1.1794 3.748010 31.914490 31.914490
1209 9 2 0.5897 3.235613 32.506546 32.517287
1210 9 2 0.5897 4.491456 31.644471 32.500499
1211 9 1 -1.1794 9.691760 33.466760 33.466760
1212 9 2 0.5897 9.946137 34.238442 32.903541
1213 9 2 0.5897 10.583721 33.129096 33.689592
1214 9 1 -1.1794 2.195740 25.970740 33.466760
1215 9 2 0.5897 1.409385 26.440929 33.829694
1216 9 2 0.5897 2.623464 25.641447 34.291742
1217 9 1 -1.1794 2.195740 33.466760 25.970740
1218 9 2 0.5897 2.111703 34.319755 26.438166
1219 9 2 0.5897 2.901702 33.012898 26.475560
1220 9 1 -1.1794 9.691760 25.970740 25.970740
1221 9 2 0.5897 9.179361 26.573535 26.562796
1222 9 2 0.5897 10.435205 26.556750 25.700722
1223 9 1 -1.1794 3.748010 27.523010 31.914490
1224 9 2 0.5897 3.210531 26.936188 32.501058
1225 9 2 0.5897 4.509120 27.737177 32.501082
1226 9 1 -1.1794 8.139490 31.914490 31.914490
1227 9 2 0.5897 7.874494 32.440484 31.121530
1228 9 2 0.5897 8.651795 32.581563 32.426821
1229 9 1 -1.1794 3.748010 31.914490 27.523010
1230 9 2 0.5897 4.034637 32.367251 28.348031
1231 9 2 0.5897 3.172969 31.199681 27.875063
1232 9 1 -1.1794 8.139490 27.523010 27.523010
1233 9 2 0.5897 7.377269 27.881705 27.020111
1234 9 2 0.5897 8.597826 28.365218 27.781031
1235 9 1 -1.1794 0.000000 27.454775 25.160607
1236 9 2 0.5897 0.035498 28.234067 25.764457
1237 9 2 0.5897 0.798485 26.954090 25.446756
1238 9 1 -1.1794 0.000000 31.982725 25.160607
1239 9 2 0.5897 -0.758631 32.506842 25.512352
1240 9 2 0.5897 0.759372 32.554826 25.445376
1241 9 1 -1.1794 0.000000 27.454775 34.276893
1242 9 2 0.5897 -0.044368 27.626890 35.244464
1243 9 2 0.5897 -0.018559 28.353141 33.884946
1244 9 1 -1.1794 0.000000 31.982725 34.276893
1245 9 2 0.5897 0.205529 32.049438 35.244986
1246 9 2 0.5897 -0.779451 31.404397 34.362942
1247 9 1 -1.1794 1.385607 23.775000 27.454775
1248 9 2 0.5897 0.417726 23.680341 27.596134
1249 9 2 0.5897 1.754570 23.675572 28.356968
1250 9 1 -1.1794 1.385607 23.775000 31.982725
1251 9 2 0.5897 1.716836 24.521754 32.533036
1252 9 2 0.5897 1.714706 23.003957 32.501950
1253 9 1 -1.1794 10.501893 23.775000 27.454775
1254 9 2 0.5897 9.916808 23.781667 28.247479
1255 9 2 0.5897 10.184338 24.574264 26.976735
1256 9 1 -1.1794 10.501893 23.775000 31.982725
1257 9 2 0.5897 10.305638 24.573873 32.524125
1258 9 2 0.5897 11.480928 23.841494 31.891678
1259 9 1 -1.1794 3.679775 25.160607 23.775000
1260 9 2 0.5897 3.181486 25.435080 24.578227
1261 9 2 0.5897 4.465410 25.747311 23.812997
1262 9 1 -1.1794 8.207725 25.160607 23.775000
1263 9 2 0.5897 8.780854 25.389855 24.544515
1264 9 2 0.5897 8.792041 25.428488 23.027135
1265 9 1 -1.1794 3.679775 34.276893 23.775000
1266 9 2 0.5897 3.869586 35.227377 23.879347
1267 9 2 0.5897 4.546334 33.843458 23.887136
1268 9 1 -1.1794 8.207725 34.276893 23.775000
1269 9 2 0.5897 8.122284 35.253258 23.691574
1270 9 2 0.5897 8.687717 34.051857 22.947637
1271 9 1 -1.1794 9.623525 29.718750 28.333143
1272 9 2 0.5897 9.813335 29.823098 29.283627
1273 9 2 0.5897 10.490084 29.830885 27.899708
1274 9 1 -1.1794 2.263975 29.718750 28.333143
1275 9 2 0.5897 2.178531 29.635324 29.309508
1276 9 2 0.5897 2.743967 28.891387 28.108108
1277 9 1 -1.1794 9.623525 29.718750 31.104357
1278 9 2 0.5897 9.125238 30.521978 31.378833
1279 9 2 0.5897 10.409160 29.756743 31.691061
1280 9 1 -1.1794 2.263975 29.718750 31.104357
1281 9 2 0.5897 2.837102 30.488267 31.333605
1282 9 2 0.5897 2.848293 28.970886 31.372239
1283 9 1 -1.1794 5.943750 31.104357 26.038975
1284 9 2 0.5897 5.185122 31.456106 26.563093
1285 9 2 0.5897 6.703124 31.389122 26.611075
1286 9 1 -1.1794 5.943750 31.104357 33.398525
1287 9 2 0.5897 5.979250 31.708206 34.177818
1288 9 2 0.5897 6.742237 31.390502 32.897842
1289 9 1 -1.1794 5.943750 28.333143 26.038975
1290 9 2 0.5897 6.149264 29.301242 26.105661
1291 9 2 0.5897 5.164278 28.419161 25.460681
1292 9 1 -1.1794 5.943750 28.333143 33.398525
1293 9 2 0.5897 5.899383 29.300713 33.570644
1294 9 2 0.5897 5.925192 27.941192 34.296889
1295 9 1 -1.1794 7.329357 33.398525 29.718750
1296 9 2 0.5897 6.361476 33.539884 29.624090
1297 9 2 0.5897 7.698320 34.300718 29.619322
1298 9 1 -1.1794 7.329357 26.038975 29.718750
1299 9 2 0.5897 7.660588 26.589285 30.465503
1300 9 2 0.5897 7.658458 26.558199 28.947706
1301 9 1 -1.1794 4.558143 33.398525 29.718750
1302 9 2 0.5897 3.973056 34.191229 29.725416
1303 9 2 0.5897 4.240588 32.920485 30.518014
1304 9 1 -1.1794 4.558143 26.038975 29.718750
1305 9 2 0.5897 4.361890 26.580372 30.517625
1306 9 2 0.5897 5.537178 25.947928 29.785242
1307 9 3 0.0 0.000000 23.775000 23.775000
1308 9 3 0.0 5.943750 29.718750 29.718750
1309 9 3 0.0 0.000000 26.746875 29.718750
1310 9 3 0.0 0.000000 32.690625 29.718750
1311 9 3 0.0 5.943750 23.775000 26.746875
1312 9 3 0.0 5.943750 23.775000 32.690625
1313 9 3 0.0 2.971875 29.718750 23.775000
1314 9 3 0.0 8.915625 29.718750 23.775000
1315 10 1 -1.1794 0.000000 41.606250 2.971875
1316 10 2 0.5897 0.009656 42.408882 2.401692
1317 10 2 0.5897 0.819206 41.741305 3.500477
1318 10 1 -1.1794 0.000000 41.606250 8.915625
1319 10 2 0.5897 0.281067 42.470936 9.277971
1320 10 2 0.5897 0.723234 41.475273 8.254920
1321 10 1 -1.1794 2.971875 35.662500 5.943750
1322 10 2 0.5897 2.409366 35.775295 6.741859
1323 10 2 0.5897 3.506404 36.488596 5.955505
1324 10 1 -1.1794 8.915625 35.662500 5.943750
1325 10 2 0.5897 8.353117 36.460610 6.056546
1326 10 2 0.5897 9.450153 35.674253 6.769848
1327 10 1 -1.1794 5.943750 38.634375 0.000000
1328 10 2 0.5897 6.224823 38.996727 0.864683
1329 10 2 0.5897 6.666985 37.973672 -0.130979
1330 10 1 -1.1794 5.943750 44.578125 0.000000
1331 10 2 0.5897 5.953409 44.007941 0.802632
1332 10 2 0.5897 6.762955 45.106727 0.135054
1333 10 1 -1.1794 2.195740 37.858240 2.195740
1334 10 2 0.5897 1.930743 37.065281 2.721735
1335 10 2 0.5897 2.708046 38.370572 2.862811
1336 10 1 -1.1794 9.691760 45.354260 2.195740
1337 10 2 0.5897 9.978388 46.179281 2.648501
1338 10 2 0.5897 9.116718 45.706314 1.480933
1339 10 1 -1.1794 9.691760 37.858240 9.691760
1340 10 2 0.5897 9.154281 38.444808 9.104938
1341 10 2 0.5897 10.452871 38.444832 9.905926
1342 10 1 -1.1794 2.195740 45.354260 9.691760
1343 10 2 0.5897 1.433515 44.851365 10.050449
1344 10 2 0.5897 2.654073 45.612280 10.533970
1345 10 1 -1.1794 8.139490 43.801990 3.748010
1346 10 2 0.5897 8.055452 44.269415 4.601005
1347 10 2 0.5897 8.845452 44.306810 3.294149
1348 10 1 -1.1794 3.748010 39.410510 3.748010
1349 10 2 0.5897 4.002365 38.847288 4.519697
1350 10 2 0.5897 4.639981 39.633336 3.410372
1351 10 1 -1.1794 8.139490 39.410510 8.139490
1352 10 2 0.5897 7.353136 39.773445 8.609681
1353 10 2 0.5897 8.567214 40.235492 7.810198
1354 10 1 -1.1794 3.748010 43.801990 8.139490
1355 10 2 0.5897 3.235613 44.394046 8.742287
1356 10 2 0.5897 4.491456 43.531971 8.725499
1357 10 1 -1.1794 9.691760 45.354260 9.691760
1358 10 2 0.5897 9.946137 46.125942 9.128541
1359 10 2 0.5897 10.583721 45.016596 9.914592
1360 10 1 -1.1794 2.195740 37.858240 9.691760
1361 10 2 0.5897 1.409385 38.328429 10.054694
1362 10 2 0.5897 2.623464 37.528947 10.516742
1363 10 1 -1.1794 2.195740 45.354260 2.195740
1364 10 2 0.5897 2.111703 46.207255 2.663166
1365 10 2 0.5897 2.901702 44.900398 2.700560
1366 10 1 -1.1794 9.691760 37.858240 2.195740
1367 10 2 0.5897 9.179361 38.461035 2.787796
1368 10 2 0.5897 10.435205 38.444250 1.925722
1369 10 1 -1.1794 3.748010 39.410510 8.139490
1370 10 2 0.5897 3.210531 38.823688 8.726058
1371 10 2 0.5897 4.509120 39.624677 8.726082
1372 10 1 -1.1794 8.139490 43.801990 8.139490
1373 10 2 0.5897 7.874494 44.327984 7.346530
1374 10 2 0.5897 8.651795 44.469063 8.651821
1375 10 1 -1.1794 3.748010 43.801990 3.748010
1376 10 2 0.5897 4.034637 44.254751 4.573031
1377 10 2 0.5897 3.172969 43.087181 4.100063
1378 10 1 -1.1794 8.139490 39.410510 3.748010
1379 10 2 0.5897 7.377269 39.769205 3.245111
1380 10 2 0.5897 8.597826 40.252718 4.006031
1381 10 1 -1.1794 0.000000 39.342275 1.385607
1382 10 2 0.5897 0.035498 40.121567 1.989457
1383 10 2 0.5897 0.798485 38.841590 1.671756
1384 10 1 -1.1794 0.000000 43.870225 1.385607
1385 10 2 0.5897 -0.758631 44.394342 1.737352
1386 10 2 0.5897 0.759372 44.442326 1.670376
1387 10 1 -1.1794 0.000000 39.342275 10.501893
1388 10 2 0.5897 -0.044368 39.514390 11.469464
1389 10 2 0.5897 -0.018559 40.240641 10.109946
1390 10 1 -1.1794 0.000000 43.870225 10.501893
1391 10 2 0.5897 0.205529 43.936938 11.469986
1392 10 2 0.5897 -0.779451 43.291897 10.587942
1393 10 1 -1.1794 1.385607 35.662500 3.679775
1394 10 2 0.5897 0.417726 35.567841 3.821134
1395 10 2 0.5897 1.754570 35.563072 4.581968
1396 10 1 -1.1794 1.385607 35.662500 8.207725
1397 10 2 0.5897 1.716836 36.409254 8.758036
1398 10 2 0.5897 1.714706 34.891457 8.726950
1399 10 1 -1.1794 10.501893 35.662500 3.679775
1400 10 2 0.5897 9.916808 35.669167 4.472479
1401 10 2 0.5897 10.184338 36.461764 3.201735
1402 10 1 -1.1794 10.501893 35.662500 8.207725
1403 10 2 0.5897 10.305638 36.461373 8.749125
1404 10 2 0.5897 11.480928 35.728994 8.116678
1405 10 1 -1.1794 3.679775 37.048107 0.000000
1406 10 2 0.5897 3.181486 37.322580 0.803227
1407 10 2 0.5897 4.465410 37.634811 0.037997
1408 10 1 -1.1794 8.207725 37.048107 0.000000
1409 10 2 0.5897 8.780854 37.277355 0.769515
1410 10 2 0.5897 8.792041 37.315988 -0.747865
1411 10 1 -1.1794 3.679775 46.164393 0.000000
1412 10 2 0.5897 3.869586 47.114877 0.104347
1413 10 2 0.5897 4.546334 45.730958 0.112136
1414 10 1 -1.1794 8.207725 46.164393 0.000000
1415 10 2 0.5897 8.122284 47.140758 -0.083426
1416 10 2 0.5897 8.687717 45.939357 -0.827363
1417 10 1 -1.1794 9.623525 41.606250 4.558143
1418 10 2 0.5897 9.813335 41.710598 5.508627
1419 10 2 0.5897 10.490084 41.718385 4.124708
1420 10 1 -1.1794 2.263975 41.606250 4.558143
1421 10 2 0.5897 2.178531 41.522824 5.534508
1422 10 2 0.5897 2.743967 40.778887 4.333108
1423 10 1 -1.1794 9.623525 41.606250 7.329357
1424 10 2 0.5897 9.125238 42.409478 7.603833
1425 10 2 0.5897 10.409160 41.644243 7.916061
1426 10 1 -1.1794 2.263975 41.606250 7.329357
1427 10 2 0.5897 2.837102 42.375767 7.558605
1428 10 2 0.5897 2.848293 40.858386 7.597239
1429 10 1 -1.1794 5.943750 42.991857 2.263975
1430 10 2 0.5897 5.185122 43.343606 2.788093
1431 10 2 0.5897 6.703124 43.276622 2.836075
1432 10 1 -1.1794 5.943750 42.991857 9.623525
1433 10 2 0.5897 5.979250 43.595706 10.402818
1434 10 2 0.5897 6.742237 43.278002 9.122842
1435 10 1 -1.1794 5.943750 40.220643 2.263975
1436 10 2 0.5897 6.149264 41.188742 2.330661
1437 10 2 0.5897 5.164278 40.306661 1.685681
1438 10 1 -1.1794 5.943750 40.220643 9.623525
1439 10 2 0.5897 5.899383 41.188213 9.795644
1440 10 2 0.5897 5.925192 39.828692 10.521889
1441 10 1 -1.1794 7.329357 45.286025 5.943750
1442 10 2 0.5897 6.361476 45.427384 5.849090
1443 10 2 0.5897 7.698320 46.188218 5.844322
1444 10 1 -1.1794 7.329357 37.926475 5.943750
1445 10 2 0.5897 7.660588 38.476785 6.690503
1446 10 2 0.5897 7.658458 38.445699 5.172706
1447 10 1 -1.1794 4.558143 45.286025 5.943750
1448 10 2 0.5897 3.973056 46.078729 5.950416
1449 10 2 0.5897 4.240588 44.807985 6.743014
1450 10 1 -1.1794 4.558143 37.926475 5.943750
1451 10 2 0.5897 4.361890 38.467872 6.742625
1452 10 2 0.5897 5.537178 37.835428 6.010242
1453 10 3 0.0 0.000000 35.662500 0.000000
1454 10 3 0.0 5.943750 41.606250 5.943750
1455 10 3 0.0 0.000000 38.634375 5.943750
1456 10 3 0.0 0.000000 44.578125 5.943750
1457 10 3 0.0 5.943750 35.662500 2.971875
1458 10 3 0.0 5.943750 35.662500 8.915625
1459 10 3 0.0 2.971875 41.606250 0.000000
1460 10 3 0.0 8.915625 41.606250 0.000000
1461 11 1 -1.1794 0.000000 41.606250 14.859375
1462 11 2 0.5897 0.009656 42.408882 14.289192
1463 11 2 0.5897 0.819206 41.741305 15.387977
1464 11 1 -1.1794 0.000000 41.606250 20.803125
1465 11 2 0.5897 0.281067 42.470936 21.165471
1466 11 2 0.5897 0.723234 41.475273 20.142420
1467 11 1 -1.1794 2.971875 35.662500 17.831250
1468 11 2 0.5897 2.409366 35.775295 18.629359
1469 11 2 0.5897 3.506404 36.488596 17.843005
1470 11 1 -1.1794 8.915625 35.662500 17.831250
1471 11 2 0.5897 8.353117 36.460610 17.944046
1472 11 2 0.5897 9.450153 35.674253 18.657348
1473 11 1 -1.1794 5.943750 38.634375 11.887500
1474 11 2 0.5897 6.224823 38.996727 12.752183
1475 11 2 0.5897 6.666985 37.973672 11.756521
1476 11 1 -1.1794 5.943750 44.578125 11.887500
1477 11 2 0.5897 5.953409 44.007941 12.690132
1478 11 2 0.5897 6.762955 45.106727 12.022554
1479 11 1 -1.1794 2.195740 37.858240 14.083240
1480 11 2 0.5897 1.930743 37.065281 14.609235
1481 11 2 0.5897 2.708046 38.370572 14.750311
1482 11 1 -1.1794 9.691760 45.354260 14.083240
1483 11 2 0.5897 9.978388 46.179281 14.536001
1484 11 2 0.5897 9.116718 45.706314 13.368433
1485 11 1 -1.1794 9.691760 37.858240 21.579260
1486 11 2 0.5897 9.154281 38.444808 20.992438
1487 11 2 0.5897 10.452871 38.444832 21.793426
1488 11 1 -1.1794 2.195740 45.354260 21.579260
1489 11 2 0.5897 1.433515 44.851365 21.937949
1490 11 2 0.5897 2.654073 45.612280 22.421470
1491 11 1 -1.1794 8.139490 43.801990 15.635510
1492 11 2 0.5897 8.055452 44.269415 16.488505
1493 11 2 0.5897 8.845452 44.306810 15.181649
1494 11 1 -1.1794 3.748010 39.410510 15.635510
1495 11 2 0.5897 4.002365 38.847288 16.407197
1496 11 2 0.5897 4.639981 39.633336 15.297872
1497 11 1 -1.1794 8.139490 39.410510 20.026990
1498 11 2 0.5897 7.353136 39.773445 20.497181
1499 11 2 0.5897 8.567214 40.235492 19.697698
1500 11 1 -1.1794 3.748010 43.801990 20.026990
1501 11 2 0.5897 3.235613 44.394046 20.629787
1502 11 2 0.5897 4.491456 43.531971 20.612999
1503 11 1 -1.1794 9.691760 45.354260 21.579260
1504 11 2 0.5897 9.946137 46.125942 21.016041
1505 11 2 0.5897 10.583721 45.016596 21.802092
1506 11 1 -1.1794 2.195740 37.858240 21.579260
1507 11 2 0.5897 1.409385 38.328429 21.942194
1508 11 2 0.5897 2.623464 37.528947 22.404242
1509 11 1 -1.1794 2.195740 45.354260 14.083240
1510 11 2 0.5897 2.111703 46.207255 14.550666
1511 11 2 0.5897 2.901702 44.900398 14.588060
1512 11 1 -1.1794 9.691760 37.858240 14.083240
1513 11 2 0.5897 9.179361 38.461035 14.675296
1514 11 2 0.5897 10.435205 38.444250 13.813222
1515 11 1 -1.1794 3.748010 39.410510 20.026990
1516 11 2 0.5897 3.210531 38.823688 20.613558
1517 11 2 0.5897 4.509120 39.624677 20.613582
1518 11 1 -1.1794 8.139490 43.801990 20.026990
1519 11 2 0.5897 7.874494 44.327984 19.234030
1520 11 2 0.5897 8.651795 44.469063 20.539321
1521 11 1 -1.1794 3.748010 43.801990 15.635510
1522 11 2 0.5897 4.034637 44.254751 16.460531
1523 11 2 0.5897 3.172969 43.087181 15.987563
1524 11 1 -1.1794 8.139490 39.410510 15.635510
1525 11 2 0.5897 7.377269 39.769205 15.132611
1526 11 2 0.5897 8.597826 40.252718 15.893531
1527 11 1 -1.1794 0.000000 39.342275 13.273107
1528 11 2 0.5897 0.035498 40.121567 13.876957
1529 11 2 0.5897 0.798485 38.841590 13.559256
1530 11 1 -1.1794 0.000000 43.870225 13.273107
1531 11 2 0.5897 -0.758631 44.394342 13.624852
1532 11 2 0.5897 0.759372 44.442326 13.557876
1533 11 1 -1.1794 0.000000 39.342275 22.389393
1534 11 2 0.5897 -0.044368 39.514390 23.356964
1535 11 2 0.5897 -0.018559 40.240641 21.997446
1536 11 1 -1.1794 0.000000 43.870225 22.389393
1537 11 2 0.5897 0.205529 43.936938 23.357486
1538 11 2 0.5897 -0.779451 43.291897 22.475442
1539 11 1 -1.1794 1.385607 35.662500 15.567275
1540 11 2 0.5897 0.417726 35.567841 15.708634
1541 11 2 0.5897 1.754570 35.563072 16.469468
1542 11 1 -1.1794 1.385607 35.662500 20.095225
1543 11 2 0.5897 1.716836 36.409254 20.645536
1544 11 2 0.5897 1.714706 34.891457 20.614450
1545 11 1 -1.1794 10.501893 35.662500 15.567275
1546 11 2 0.5897 9.916808 35.669167 16.359979
1547 11 2 0.5897 10.184338 36.461764 15.089235
1548 11 1 -1.1794 10.501893 35.662500 20.095225
1549 11 2 0.5897 10.305638 36.461373 20.636625
1550 11 2 0.5897 11.480928 35.728994 20.004178
1551 11 1 -1.1794 3.679775 37.048107 11.887500
1552 11 2 0.5897 3.181486 37.322580 12.690727
1553 11 2 0.5897 4.465410 37.634811 11.925497
1554 11 1 -1.1794 8.207725 37.048107 11.887500
1555 11 2 0.5897 8.780854 37.277355 12.657015
1556 11 2 0.5897 8.792041 37.315988 11.139635
1557 11 1 -1.1794 3.679775 46.164393 11.887500
1558 11 2 0.5897 3.869586 47.114877 11.991847
1559 11 2 0.5897 4.546334 45.730958 11.999636
1560 11 1 -1.1794 8.207725 46.164393 11.887500
1561 11 2 0.5897 8.122284 47.140758 11.804074
1562 11 2 0.5897 8.687717 45.939357 11.060137
1563 11 1 -1.1794 9.623525 41.606250 16.445643
1564 11 2 0.5897 9.813335 41.710598 17.396127
1565 11 2 0.5897 10.490084 41.718385 16.012208
1566 11 1 -1.1794 2.263975 41.606250 16.445643
1567 11 2 0.5897 2.178531 41.522824 17.422008
1568 11 2 0.5897 2.743967 40.778887 16.220608
1569 11 1 -1.1794 9.623525 41.606250 19.216857
1570 11 2 0.5897 9.125238 42.409478 19.491333
1571 11 2 0.5897 10.409160 41.644243 19.803561
1572 11 1 -1.1794 2.263975 41.606250 19.216857
1573 11 2 0.5897 2.837102 42.375767 19.446105
1574 11 2 0.5897 2.848293 40.858386 19.484739
1575 11 1 -1.1794 5.943750 42.991857 14.151475
1576 11 2 0.5897 5.185122 43.343606 14.675593
1577 11 2 0.5897 6.703124 43.276622 14.723575
1578 11 1 -1.1794 5.943750 42.991857 21.511025
1579 11 2 0.5897 5.979250 43.595706 22.290318
1580 11 2 0.5897 6.742237 43.278002 21.010342
1581 11 1 -1.1794 5.943750 40.220643 14.151475
1582 11 2 0.5897 6.149264 41.188742 14.218161
1583 11 2 0.5897 5.164278 40.306661 13.573181
1584 11 1 -1.1794 5.943750 40.220643 21.511025
1585 11 2 0.5897 5.899383 41.188213 21.683144
1586 11 2 0.5897 5.925192 39.828692 22.409389
1587 11 1 -1.1794 7.329357 45.286025 17.831250
1588 11 2 0.5897 6.361476 45.427384 17.736590
1589 11 2 0.5897 7.698320 46.188218 17.731822
1590 11 1 -1.1794 7.329357 37.926475 17.831250
1591 11 2 0.5897 7.660588 38.476785 18.578003
1592 11 2 0.5897 7.658458 38.445699 17.060206
1593 11 1 -1.1794 4.558143 45.286025 17.831250
1594 11 2 0.5897 3.973056 46.078729 17.837916
1595 11 2 0.5897 4.240588 44.807985 18.630514
1596 11 1 -1.1794 4.558143 37.926475 17.831250
1597 11 2 0.5897 4.361890 38.467872 18.630125
1598 11 2 0.5897 5.537178 37.835428 17.897742
1599 11 3 0.0 0.000000 35.662500 11.887500
1600 11 3 0.0 5.943750 41.606250 17.831250
1601 11 3 0.0 0.000000 38.634375 17.831250
1602 11 3 0.0 0.000000 44.578125 17.831250
1603 11 3 0.0 5.943750 35.662500 14.859375
1604 11 3 0.0 5.943750 35.662500 20.803125
1605 11 3 0.0 2.971875 41.606250 11.887500
1606 11 3 0.0 8.915625 41.606250 11.887500
1607 12 1 -1.1794 0.000000 41.606250 26.746875
1608 12 2 0.5897 0.009656 42.408882 26.176692
1609 12 2 0.5897 0.819206 41.741305 27.275477
1610 12 1 -1.1794 0.000000 41.606250 32.690625
1611 12 2 0.5897 0.281067 42.470936 33.052971
1612 12 2 0.5897 0.723234 41.475273 32.029920
1613 12 1 -1.1794 2.971875 35.662500 29.718750
1614 12 2 0.5897 2.409366 35.775295 30.516859
1615 12 2 0.5897 3.506404 36.488596 29.730505
1616 12 1 -1.1794 8.915625 35.662500 29.718750
1617 12 2 0.5897 8.353117 36.460610 29.831546
1618 12 2 0.5897 9.450153 35.674253 30.544848
1619 12 1 -1.1794 5.943750 38.634375 23.775000
1620 12 2 0.5897 6.224823 38.996727 24.639683
1621 12 2 0.5897 6.666985 37.973672 23.644021
1622 12 1 -1.1794 5.943750 44.578125 23.775000
1623 12 2 0.5897 5.953409 44.007941 24.577632
1624 12 2 0.5897 6.762955 45.106727 23.910054
1625 12 1 -1.1794 2.195740 37.858240 25.970740
1626 12 2 0.5897 1.930743 37.065281 26.496735
1627 12 2 0.5897 2.708046 38.370572 26.637811
1628 12 1 -1.1794 9.691760 45.354260 25.970740
1629 12 2 0.5897 9.978388 46.179281 26.423501
1630 12 2 0.5897 9.116718 45.706314 25.255933
1631 12 1 -1.1794 9.691760 37.858240 33.466760
1632 12 2 0.5897 9.154281 38.444808 32.879938
1633 12 2 0.5897 10.452871 38.444832 33.680926
1634 12 1 -1.1794 2.195740 45.354260 33.466760
1635 12 2 0.5897 1.433515 44.851365 33.825449
1636 12 2 0.5897 2.654073 45.612280 34.308970
1637 12 1 -1.1794 8.139490 43.801990 27.523010
1638 12 2 0.5897 8.055452 44.269415 28.376005
1639 12 2 0.5897 8.845452 44.306810 27.069149
1640 12 1 -1.1794 3.748010 39.410510 27.523010
1641 12 2 0.5897 4.002365 38.847288 28.294697
1642 12 2 0.5897 4.639981 39.633336 27.185372
1643 12 1 -1.1794 8.139490 39.410510 31.914490
1644 12 2 0.5897 7.353136 39.773445 32.384681
1645 12 2 0.5897 8.567214 40.235492 31.585198
1646 12 1 -1.1794 3.748010 43.801990 31.914490
1647 12 2 0.5897 3.235613 44.394046 32.517287
1648 12 2 0.5897 4.491456 43.531971 32.500499
1649 12 1 -1.1794 9.691760 45.354260 33.466760
1650 12 2 0.5897 9.946137 46.125942 32.903541
1651 12 2 0.5897 10.583721 45.016596 33.689592
1652 12 1 -1.1794 2.195740 37.858240 33.466760
1653 12 2 0.5897 1.409385 38.328429 33.829694
1654 12 2 0.5897 2.623464 37.528947 34.291742
1655 12 1 -1.1794 2.195740 45.354260 25.970740
1656 12 2 0.5897 2.111703 46.207255 26.438166
1657 12 2 0.5897 2.901702 44.900398 26.475560
1658 12 1 -1.1794 9.691760 37.858240 25.970740
1659 12 2 0.5897 9.179361 38.461035 26.562796
1660 12 2 0.5897 10.435205 38.444250 25.700722
1661 12 1 -1.1794 3.748010 39.410510 31.914490
1662 12 2 0.5897 3.210531 38.823688 32.501058
1663 12 2 0.5897 4.509120 39.624677 32.501082
1664 12 1 -1.1794 8.139490 43.801990 31.914490
1665 12 2 0.5897 7.874494 44.327984 31.121530
1666 12 2 0.5897 8.651795 44.469063 32.426821
1667 12 1 -1.1794 3.748010 43.801990 27.523010
1668 12 2 0.5897 4.034637 44.254751 28.348031
1669 12 2 0.5897 3.172969 43.087181 27.875063
1670 12 1 -1.1794 8.139490 39.410510 27.523010
1671 12 2 0.5897 7.377269 39.769205 27.020111
1672 12 2 0.5897 8.597826 40.252718 27.781031
1673 12 1 -1.1794 0.000000 39.342275 25.160607
1674 12 2 0.5897 0.035498 40.121567 25.764457
1675 12 2 0.5897 0.798485 38.841590 25.446756
1676 12 1 -1.1794 0.000000 43.870225 25.160607
1677 12 2 0.5897 -0.758631 44.394342 25.512352
1678 12 2 0.5897 0.759372 44.442326 25.445376
1679 12 1 -1.1794 0.000000 39.342275 34.276893
1680 12 2 0.5897 -0.044368 39.514390 35.244464
1681 12 2 0.5897 -0.018559 40.240641 33.884946
1682 12 1 -1.1794 0.000000 43.870225 34.276893
1683 12 2 0.5897 0.205529 43.936938 35.244986
1684 12 2 0.5897 -0.779451 43.291897 34.362942
1685 12 1 -1.1794 1.385607 35.662500 27.454775
1686 12 2 0.5897 0.417726 35.567841 27.596134
1687 12 2 0.5897 1.754570 35.563072 28.356968
1688 12 1 -1.1794 1.385607 35.662500 31.982725
1689 12 2 0.5897 1.716836 36.409254 32.533036
1690 12 2 0.5897 1.714706 34.891457 32.501950
1691 12 1 -1.1794 10.501893 35.662500 27.454775
1692 12 2 0.5897 9.916808 35.669167 28.247479
1693 12 2 0.5897 10.184338 36.461764 26.976735
1694 12 1 -1.1794 10.501893 35.662500 31.982725
1695 12 2 0.5897 10.305638 36.461373 32.524125
1696 12 2 0.5897 11.480928 35.728994 31.891678
1697 12 1 -1.1794 3.679775 37.048107 23.775000
1698 12 2 0.5897 3.181486 37.322580 24.578227
1699 12 2 0.5897 4.465410 37.634811 23.812997
1700 12 1 -1.1794 8.207725 37.048107 23.775000
1701 12 2 0.5897 8.780854 37.277355 24.544515
1702 12 2 0.5897 8.792041 37.315988 23.027135
1703 12 1 -1.1794 3.679775 46.164393 23.775000
1704 12 2 0.5897 3.869586 47.114877 23.879347
1705 12 2 0.5897 4.546334 45.730958 23.887136
1706 12 1 -1.1794 8.207725 46.164393 23.775000
1707 12 2 0.5897 8.122284 47.140758 23.691574
1708 12 2 0.5897 8.687717 45.939357 22.947637
1709 12 1 -1.1794 9.623525 41.606250 28.333143
1710 12 2 0.5897 9.813335 41.710598 29.283627
1711 12 2 0.5897 10.490084 41.718385 27.899708
1712 12 1 -1.1794 2.263975 41.606250 28.333143
1713 12 2 0.5897 2.178531 41.522824 29.309508
1714 12 2 0.5897 2.743967 40.778887 28.108108
1715 12 1 -1.1794 9.623525 41.606250 31.104357
1716 12 2 0.5897 9.125238 42.409478 31.378833
1717 12 2 0.5897 10.409160 41.644243 31.691061
1718 12 1 -1.1794 2.263975 41.606250 31.104357
1719 12 2 0.5897 2.837102 42.375767 31.333605
1720 12 2 0.5897 2.848293 40.858386 31.372239
1721 12 1 -1.1794 5.943750 42.991857 26.038975
1722 12 2 0.5897 5.185122 43.343606 26.563093
1723 12 2 0.5897 6.703124 43.276622 26.611075
1724 12 1 -1.1794 5.943750 42.991857 33.398525
1725 12 2 0.5897 5.979250 43.595706 34.177818
1726 12 2 0.5897 6.742237 43.278002 32.897842
1727 12 1 -1.1794 5.943750 40.220643 26.038975
1728 12 2 0.5897 6.149264 41.188742 26.105661
1729 12 2 0.5897 5.164278 40.306661 25.460681
1730 12 1 -1.1794 5.943750 40.220643 33.398525
1731 12 2 0.5897 5.899383 41.188213 33.570644
1732 12 2 0.5897 5.925192 39.828692 34.296889
1733 12 1 -1.1794 7.329357 45.286025 29.718750
1734 12 2 0.5897 6.361476 45.427384 29.624090
1735 12 2 0.5897 7.698320 46.188218 29.619322
1736 12 1 -1.1794 7.329357 37.926475 29.718750
1737 12 2 0.5897 7.660588 38.476785 30.465503
1738 12 2 0.5897 7.658458 38.445699 28.947706
1739 12 1 -1.1794 4.558143 45.286025 29.718750
1740 12 2 0.5897 3.973056 46.078729 29.725416
1741 12 2 0.5897 4.240588 44.807985 30.518014
1742 12 1 -1.1794 4.558143 37.926475 29.718750
1743 12 2 0.5897 4.361890 38.467872 30.517625
1744 12 2 0.5897 5.537178 37.835428 29.785242
1745 12 3 0.0 0.000000 35.662500 23.775000
1746 12 3 0.0 5.943750 41.606250 29.718750
1747 12 3 0.0 0.000000 38.634375 29.718750
1748 12 3 0.0 0.000000 44.578125 29.718750
1749 12 3 0.0 5.943750 35.662500 26.746875
1750 12 3 0.0 5.943750 35.662500 32.690625
1751 12 3 0.0 2.971875 41.606250 23.775000
1752 12 3 0.0 8.915625 41.606250 23.775000
1753 13 1 -1.1794 11.887500 5.943750 2.971875
1754 13 2 0.5897 11.897156 6.746382 2.401692
1755 13 2 0.5897 12.706706 6.078805 3.500477
1756 13 1 -1.1794 11.887500 5.943750 8.915625
1757 13 2 0.5897 12.168567 6.808436 9.277971
1758 13 2 0.5897 12.610734 5.812773 8.254920
1759 13 1 -1.1794 14.859375 0.000000 5.943750
1760 13 2 0.5897 14.296866 0.112795 6.741859
1761 13 2 0.5897 15.393904 0.826096 5.955505
1762 13 1 -1.1794 20.803125 0.000000 5.943750
1763 13 2 0.5897 20.240617 0.798110 6.056546
1764 13 2 0.5897 21.337653 0.011753 6.769848
1765 13 1 -1.1794 17.831250 2.971875 0.000000
1766 13 2 0.5897 18.112323 3.334227 0.864683
1767 13 2 0.5897 18.554485 2.311172 -0.130979
1768 13 1 -1.1794 17.831250 8.915625 0.000000
1769 13 2 0.5897 17.840909 8.345441 0.802632
1770 13 2 0.5897 18.650455 9.444227 0.135054
1771 13 1 -1.1794 14.083240 2.195740 2.195740
1772 13 2 0.5897 13.818243 1.402781 2.721735
1773 13 2 0.5897 14.595546 2.708072 2.862811
1774 13 1 -1.1794 21.579260 9.691760 2.195740
1775 13 2 0.5897 21.865888 10.516781 2.648501
1776 13 2 0.5897 21.004218 10.043814 1.480933
1777 13 1 -1.1794 21.579260 2.195740 9.691760
1778 13 2 0.5897 21.041781 2.782308 9.104938
1779 13 2 0.5897 22.340371 2.782332 9.905926
1780 13 1 -1.1794 14.083240 9.691760 9.691760
1781 13 2 0.5897 13.321015 9.188865 10.050449
1782 13 2 0.5897 14.541573 9.949780 10.533970
1783 13 1 -1.1794 20.026990 8.139490 3.748010
1784 13 2 0.5897 19.942952 8.606915 4.601005
1785 13 2 0.5897 20.732952 8.644310 3.294149
1786 13 1 -1.1794 15.635510 3.748010 3.748010
1787 13 2 0.5897 15.889865 3.184788 4.519697
1788 13 2 0.5897 16.527481 3.970836 3.410372
1789 13 1 -1.1794 20.026990 3.748010 8.139490
1790 13 2 0.5897 19.240636 4.110945 8.609681
1791 13 2 0.5897 20.454714 4.572992 7.810198
1792 13 1 -1.1794 15.635510 8.139490 8.139490
1793 13 2 0.5897 15.123113 8.731546 8.742287
1794 13 2 0.5897 16.378956 7.869471 8.725499
1795 13 1 -1.1794 21.579260 9.691760 9.691760
1796 13 2 0.5897 21.833637 10.463442 9.128541
1797 13 2 0.5897 22.471221 9.354096 9.914592
1798 13 1 -1.1794 14.083240 2.195740 9.691760
1799 13 2 0.5897 13.296885 2.665929 10.054694
1800 13 2 0.5897 14.510964 1.866447 10.516742
1801 13 1 -1.1794 14.083240 9.691760 2.195740
1802 13 2 0.5897 13.999203 10.544755 2.663166
1803 13 2 0.5897 14.789202 9.237898 2.700560
1804 13 1 -1.1794 21.579260 2.195740 2.195740
1805 13 2 0.5897 21.066861 2.798535 2.787796
1806 13 2 0.5897 22.322705 2.781750 1.925722
1807 13 1 -1.1794 15.635510 3.748010 8.139490
1808 13 2 0.5897 15.098031 3.161188 8.726058
1809 13 2 0.5897 16.396620 3.962177 8.726082
1810 13 1 -1.1794 20.026990 8.139490 8.139490
1811 13 2 0.5897 19.761994 8.665484 7.346530
1812 13 2 0.5897 20.539295 8.806563 8.651821
1813 13 1 -1.1794 15.635510 8.139490 3.748010
1814 13 2 0.5897 15.922137 8.592251 4.573031
1815 13 2 0.5897 15.060469 7.424681 4.100063
1816 13 1 -1.1794 20.026990 3.748010 3.748010
1817 13 2 0.5897 19.264769 4.106705 3.245111
1818 13 2 0.5897 20.485326 4.590218 4.006031
1819 13 1 -1.1794 11.887500 3.679775 1.385607
1820 13 2 0.5897 11.922998 4.459067 1.989457
1821 13 2 0.5897 12.685985 3.179090 1.671756
1822 13 1 -1.1794 11.887500 8.207725 1.385607
1823 13 2 0.5897 11.128869 8.731842 1.737352
1824 13 2 0.5897 12.646872 8.779826 1.670376
1825 13 1 -1.1794 11.887500 3.679775 10.501893
1826 13 2 0.5897 11.843132 3.851890 11.469464
1827 13 2 0.5897 11.868941 4.578141 10.109946
1828 13 1 -1.1794 11.887500 8.207725 10.501893
1829 13 2 0.5897 12.093029 8.274438 11.469986
1830 13 2 0.5897 11.108049 7.629397 10.587942
1831 13 1 -1.1794 13.273107 0.000000 3.679775
1832 13 2 0.5897 12.305226 -0.094659 3.821134
1833 13 2 0.5897 13.642070 -0.099428 4.581968
1834 13 1 -1.1794 13.273107 0.000000 8.207725
1835 13 2 0.5897 13.604336 0.746754 8.758036
1836 13 2 0.5897 13.602206 -0.771043 8.726950
1837 13 1 -1.1794 22.389393 0.000000 3.679775
1838 13 2 0.5897 21.804308 0.006667 4.472479
1839 13 2 0.5897 22.071838 0.799264 3.201735
1840 13 1 -1.1794 22.389393 0.000000 8.207725
1841 13 2 0.5897 22.193138 0.798873 8.749125
1842 13 2 0.5897 23.368428 0.066494 8.116678
1843 13 1 -1.1794 15.567275 1.385607 0.000000
1844 13 2 0.5897 15.068986 1.660080 0.803227
1845 13 2 0.5897 16.352910 1.972311 0.037997
1846 13 1 -1.1794 20.095225 1.385607 0.000000
1847 13 2 0.5897 20.668354 1.614855 0.769515
1848 13 2 0.5897 20.679541 1.653488 -0.747865
1849 13 1 -1.1794 15.567275 10.501893 0.000000
1850 13 2 0.5897 15.757086 11.452377 0.104347
1851 13 2 0.5897 16.433834 10.068458 0.112136
1852 13 1 -1.1794 20.095225 10.501893 0.000000
1853 13 2 0.5897 20.009784 11.478258 -0.083426
1854 13 2 0.5897 20.575217 10.276857 -0.827363
1855 13 1 -1.1794 21.511025 5.943750 4.558143
1856 13 2 0.5897 21.700835 6.048098 5.508627
1857 13 2 0.5897 22.377584 6.055885 4.124708
1858 13 1 -1.1794 14.151475 5.943750 4.558143
1859 13 2 0.5897 14.066031 5.860324 5.534508
1860 13 2 0.5897 14.631467 5.116387 4.333108
1861 13 1 -1.1794 21.511025 5.943750 7.329357
1862 13 2 0.5897 21.012738 6.746978 7.603833
1863 13 2 0.5897 22.296660 5.981743 7.916061
1864 13 1 -1.1794 14.151475 5.943750 7.329357
1865 13 2 0.5897 14.724602 6.713267 7.558605
1866 13 2 0.5897 14.735793 5.195886 7.597239
1867 13 1 -1.1794 17.831250 7.329357 2.263975
1868 13 2 0.5897 17.072622 7.681106 2.788093
1869 13 2 0.5897 18.590624 7.614122 2.836075
1870 13 1 -1.1794 17.831250 7.329357 9.623525
1871 13 2 0.5897 17.866750 7.933206 10.402818
1872 13 2 0.5897 18.629737 7.615502 9.122842
1873 13 1 -1.1794 17.831250 4.558143 2.263975
1874 13 2 0.5897 18.036764 5.526242 2.330661
1875 13 2 0.5897 17.051778 4.644161 1.685681
1876 13 1 -1.1794 17.831250 4.558143 9.623525
1877 13 2 0.5897 17.786883 5.525713 9.795644
1878 13 2 0.5897 17.812692 4.166192 10.521889
1879 13 1 -1.1794 19.216857 9.623525 5.943750
1880 13 2 0.5897 18.248976 9.764884 5.849090
1881 13 2 0.5897 19.585820 10.525718 5.844322
1882 13 1 -1.1794 19.216857 2.263975 5.943750
1883 13 2 0.5897 19.548088 2.814285 6.690503
1884 13 2 0.5897 19.545958 2.783199 5.172706
1885 13 1 -1.1794 16.445643 9.623525 5.943750
1886 13 2 0.5897 15.860556 10.416229 5.950416
1887 13 2 0.5897 16.128088 9.145485 6.743014
1888 13 1 -1.1794 16.445643 2.263975 5.943750
1889 13 2 0.5897 16.249390 2.805372 6.742625
1890 13 2 0.5897 17.424678 2.172928 6.010242
1891 13 3 0.0 11.887500 0.000000 0.000000
1892 13 3 0.0 17.831250 5.943750 5.943750
1893 13 3 0.0 11.887500 2.971875 5.943750
1894 13 3 0.0 11.887500 8.915625 5.943750
1895 13 3 0.0 17.831250 0.000000 2.971875
1896 13 3 0.0 17.831250 0.000000 8.915625
1897 13 3 0.0 14.859375 5.943750 0.000000
1898 13 3 0.0 20.803125 5.943750 0.000000
1899 14 1 -1.1794 11.887500 5.943750 14.859375
1900 14 2 0.5897 11.897156 6.746382 14.289192
1901 14 2 0.5897 12.706706 6.078805 15.387977
1902 14 1 -1.1794 11.887500 5.943750 20.803125
1903 14 2 0.5897 12.168567 6.808436 21.165471
1904 14 2 0.5897 12.610734 5.812773 20.142420
1905 14 1 -1.1794 14.859375 0.000000 17.831250
1906 14 2 0.5897 14.296866 0.112795 18.629359
1907 14 2 0.5897 15.393904 0.826096 17.843005
1908 14 1 -1.1794 20.803125 0.000000 17.831250
1909 14 2 0.5897 20.240617 0.798110 17.944046
1910 14 2 0.5897 21.337653 0.011753 18.657348
1911 14 1 -1.1794 17.831250 2.971875 11.887500
1912 14 2 0.5897 18.112323 3.334227 12.752183
1913 14 2 0.5897 18.554485 2.311172 11.756521
1914 14 1 -1.1794 17.831250 8.915625 11.887500
1915 14 2 0.5897 17.840909 8.345441 12.690132
1916 14 2 0.5897 18.650455 9.444227 12.022554
1917 14 1 -1.1794 14.083240 2.195740 14.083240
1918 14 2 0.5897 13.818243 1.402781 14.609235
1919 14 2 0.5897 14.595546 2.708072 14.750311
1920 14 1 -1.1794 21.579260 9.691760 14.083240
1921 14 2 0.5897 21.865888 10.516781 14.536001
1922 14 2 0.5897 21.004218 10.043814 13.368433
1923 14 1 -1.1794 21.579260 2.195740 21.579260
1924 14 2 0.5897 21.041781 2.782308 20.992438
1925 14 2 0.5897 22.340371 2.782332 21.793426
1926 14 1 -1.1794 14.083240 9.691760 21.579260
1927 14 2 0.5897 13.321015 9.188865 21.937949
1928 14 2 0.5897 14.541573 9.949780 22.421470
1929 14 1 -1.1794 20.026990 8.139490 15.635510
1930 14 2 0.5897 19.942952 8.606915 16.488505
1931 14 2 0.5897 20.732952 8.644310 15.181649
1932 14 1 -1.1794 15.635510 3.748010 15.635510
1933 14 2 0.5897 15.889865 3.184788 16.407197
1934 14 2 0.5897 16.527481 3.970836 15.297872
1935 14 1 -1.1794 20.026990 3.748010 20.026990
1936 14 2 0.5897 19.240636 4.110945 20.497181
1937 14 2 0.5897 20.454714 4.572992 19.697698
1938 14 1 -1.1794 15.635510 8.139490 20.026990
1939 14 2 0.5897 15.123113 8.731546 20.629787
1940 14 2 0.5897 16.378956 7.869471 20.612999
1941 14 1 -1.1794 21.579260 9.691760 21.579260
1942 14 2 0.5897 21.833637 10.463442 21.016041
1943 14 2 0.5897 22.471221 9.354096 21.802092
1944 14 1 -1.1794 14.083240 2.195740 21.579260
1945 14 2 0.5897 13.296885 2.665929 21.942194
1946 14 2 0.5897 14.510964 1.866447 22.404242
1947 14 1 -1.1794 14.083240 9.691760 14.083240
1948 14 2 0.5897 13.999203 10.544755 14.550666
1949 14 2 0.5897 14.789202 9.237898 14.588060
1950 14 1 -1.1794 21.579260 2.195740 14.083240
1951 14 2 0.5897 21.066861 2.798535 14.675296
1952 14 2 0.5897 22.322705 2.781750 13.813222
1953 14 1 -1.1794 15.635510 3.748010 20.026990
1954 14 2 0.5897 15.098031 3.161188 20.613558
1955 14 2 0.5897 16.396620 3.962177 20.613582
1956 14 1 -1.1794 20.026990 8.139490 20.026990
1957 14 2 0.5897 19.761994 8.665484 19.234030
1958 14 2 0.5897 20.539295 8.806563 20.539321
1959 14 1 -1.1794 15.635510 8.139490 15.635510
1960 14 2 0.5897 15.922137 8.592251 16.460531
1961 14 2 0.5897 15.060469 7.424681 15.987563
1962 14 1 -1.1794 20.026990 3.748010 15.635510
1963 14 2 0.5897 19.264769 4.106705 15.132611
1964 14 2 0.5897 20.485326 4.590218 15.893531
1965 14 1 -1.1794 11.887500 3.679775 13.273107
1966 14 2 0.5897 11.922998 4.459067 13.876957
1967 14 2 0.5897 12.685985 3.179090 13.559256
1968 14 1 -1.1794 11.887500 8.207725 13.273107
1969 14 2 0.5897 11.128869 8.731842 13.624852
1970 14 2 0.5897 12.646872 8.779826 13.557876
1971 14 1 -1.1794 11.887500 3.679775 22.389393
1972 14 2 0.5897 11.843132 3.851890 23.356964
1973 14 2 0.5897 11.868941 4.578141 21.997446
1974 14 1 -1.1794 11.887500 8.207725 22.389393
1975 14 2 0.5897 12.093029 8.274438 23.357486
1976 14 2 0.5897 11.108049 7.629397 22.475442
1977 14 1 -1.1794 13.273107 0.000000 15.567275
1978 14 2 0.5897 12.305226 -0.094659 15.708634
1979 14 2 0.5897 13.642070 -0.099428 16.469468
1980 14 1 -1.1794 13.273107 0.000000 20.095225
1981 14 2 0.5897 13.604336 0.746754 20.645536
1982 14 2 0.5897 13.602206 -0.771043 20.614450
1983 14 1 -1.1794 22.389393 0.000000 15.567275
1984 14 2 0.5897 21.804308 0.006667 16.359979
1985 14 2 0.5897 22.071838 0.799264 15.089235
1986 14 1 -1.1794 22.389393 0.000000 20.095225
1987 14 2 0.5897 22.193138 0.798873 20.636625
1988 14 2 0.5897 23.368428 0.066494 20.004178
1989 14 1 -1.1794 15.567275 1.385607 11.887500
1990 14 2 0.5897 15.068986 1.660080 12.690727
1991 14 2 0.5897 16.352910 1.972311 11.925497
1992 14 1 -1.1794 20.095225 1.385607 11.887500
1993 14 2 0.5897 20.668354 1.614855 12.657015
1994 14 2 0.5897 20.679541 1.653488 11.139635
1995 14 1 -1.1794 15.567275 10.501893 11.887500
1996 14 2 0.5897 15.757086 11.452377 11.991847
1997 14 2 0.5897 16.433834 10.068458 11.999636
1998 14 1 -1.1794 20.095225 10.501893 11.887500
1999 14 2 0.5897 20.009784 11.478258 11.804074
2000 14 2 0.5897 20.575217 10.276857 11.060137
2001 14 1 -1.1794 21.511025 5.943750 16.445643
2002 14 2 0.5897 21.700835 6.048098 17.396127
2003 14 2 0.5897 22.377584 6.055885 16.012208
2004 14 1 -1.1794 14.151475 5.943750 16.445643
2005 14 2 0.5897 14.066031 5.860324 17.422008
2006 14 2 0.5897 14.631467 5.116387 16.220608
2007 14 1 -1.1794 21.511025 5.943750 19.216857
2008 14 2 0.5897 21.012738 6.746978 19.491333
2009 14 2 0.5897 22.296660 5.981743 19.803561
2010 14 1 -1.1794 14.151475 5.943750 19.216857
2011 14 2 0.5897 14.724602 6.713267 19.446105
2012 14 2 0.5897 14.735793 5.195886 19.484739
2013 14 1 -1.1794 17.831250 7.329357 14.151475
2014 14 2 0.5897 17.072622 7.681106 14.675593
2015 14 2 0.5897 18.590624 7.614122 14.723575
2016 14 1 -1.1794 17.831250 7.329357 21.511025
2017 14 2 0.5897 17.866750 7.933206 22.290318
2018 14 2 0.5897 18.629737 7.615502 21.010342
2019 14 1 -1.1794 17.831250 4.558143 14.151475
2020 14 2 0.5897 18.036764 5.526242 14.218161
2021 14 2 0.5897 17.051778 4.644161 13.573181
2022 14 1 -1.1794 17.831250 4.558143 21.511025
2023 14 2 0.5897 17.786883 5.525713 21.683144
2024 14 2 0.5897 17.812692 4.166192 22.409389
2025 14 1 -1.1794 19.216857 9.623525 17.831250
2026 14 2 0.5897 18.248976 9.764884 17.736590
2027 14 2 0.5897 19.585820 10.525718 17.731822
2028 14 1 -1.1794 19.216857 2.263975 17.831250
2029 14 2 0.5897 19.548088 2.814285 18.578003
2030 14 2 0.5897 19.545958 2.783199 17.060206
2031 14 1 -1.1794 16.445643 9.623525 17.831250
2032 14 2 0.5897 15.860556 10.416229 17.837916
2033 14 2 0.5897 16.128088 9.145485 18.630514
2034 14 1 -1.1794 16.445643 2.263975 17.831250
2035 14 2 0.5897 16.249390 2.805372 18.630125
2036 14 2 0.5897 17.424678 2.172928 17.897742
2037 14 3 0.0 11.887500 0.000000 11.887500
2038 14 3 0.0 17.831250 5.943750 17.831250
2039 14 3 0.0 11.887500 2.971875 17.831250
2040 14 3 0.0 11.887500 8.915625 17.831250
2041 14 3 0.0 17.831250 0.000000 14.859375
2042 14 3 0.0 17.831250 0.000000 20.803125
2043 14 3 0.0 14.859375 5.943750 11.887500
2044 14 3 0.0 20.803125 5.943750 11.887500
2045 15 1 -1.1794 11.887500 5.943750 26.746875
2046 15 2 0.5897 11.897156 6.746382 26.176692
2047 15 2 0.5897 12.706706 6.078805 27.275477
2048 15 1 -1.1794 11.887500 5.943750 32.690625
2049 15 2 0.5897 12.168567 6.808436 33.052971
2050 15 2 0.5897 12.610734 5.812773 32.029920
2051 15 1 -1.1794 14.859375 0.000000 29.718750
2052 15 2 0.5897 14.296866 0.112795 30.516859
2053 15 2 0.5897 15.393904 0.826096 29.730505
2054 15 1 -1.1794 20.803125 0.000000 29.718750
2055 15 2 0.5897 20.240617 0.798110 29.831546
2056 15 2 0.5897 21.337653 0.011753 30.544848
2057 15 1 -1.1794 17.831250 2.971875 23.775000
2058 15 2 0.5897 18.112323 3.334227 24.639683
2059 15 2 0.5897 18.554485 2.311172 23.644021
2060 15 1 -1.1794 17.831250 8.915625 23.775000
2061 15 2 0.5897 17.840909 8.345441 24.577632
2062 15 2 0.5897 18.650455 9.444227 23.910054
2063 15 1 -1.1794 14.083240 2.195740 25.970740
2064 15 2 0.5897 13.818243 1.402781 26.496735
2065 15 2 0.5897 14.595546 2.708072 26.637811
2066 15 1 -1.1794 21.579260 9.691760 25.970740
2067 15 2 0.5897 21.865888 10.516781 26.423501
2068 15 2 0.5897 21.004218 10.043814 25.255933
2069 15 1 -1.1794 21.579260 2.195740 33.466760
2070 15 2 0.5897 21.041781 2.782308 32.879938
2071 15 2 0.5897 22.340371 2.782332 33.680926
2072 15 1 -1.1794 14.083240 9.691760 33.466760
2073 15 2 0.5897 13.321015 9.188865 33.825449
2074 15 2 0.5897 14.541573 9.949780 34.308970
2075 15 1 -1.1794 20.026990 8.139490 27.523010
2076 15 2 0.5897 19.942952 8.606915 28.376005
2077 15 2 0.5897 20.732952 8.644310 27.069149
2078 15 1 -1.1794 15.635510 3.748010 27.523010
2079 15 2 0.5897 15.889865 3.184788 28.294697
2080 15 2 0.5897 16.527481 3.970836 27.185372
2081 15 1 -1.1794 20.026990 3.748010 31.914490
2082 15 2 0.5897 19.240636 4.110945 32.384681
2083 15 2 0.5897 20.454714 4.572992 31.585198
2084 15 1 -1.1794 15.635510 8.139490 31.914490
2085 15 2 0.5897 15.123113 8.731546 32.517287
2086 15 2 0.5897 16.378956 7.869471 32.500499
2087 15 1 -1.1794 21.579260 9.691760 33.466760
2088 15 2 0.5897 21.833637 10.463442 32.903541
2089 15 2 0.5897 22.471221 9.354096 33.689592
2090 15 1 -1.1794 14.083240 2.195740 33.466760
2091 15 2 0.5897 13.296885 2.665929 33.829694
2092 15 2 0.5897 14.510964 1.866447 34.291742
2093 15 1 -1.1794 14.083240 9.691760 25.970740
2094 15 2 0.5897 13.999203 10.544755 26.438166
2095 15 2 0.5897 14.789202 9.237898 26.475560
2096 15 1 -1.1794 21.579260 2.195740 25.970740
2097 15 2 0.5897 21.066861 2.798535 26.562796
2098 15 2 0.5897 22.322705 2.781750 25.700722
2099 15 1 -1.1794 15.635510 3.748010 31.914490
2100 15 2 0.5897 15.098031 3.161188 32.501058
2101 15 2 0.5897 16.396620 3.962177 32.501082
2102 15 1 -1.1794 20.026990 8.139490 31.914490
2103 15 2 0.5897 19.761994 8.665484 31.121530
2104 15 2 0.5897 20.539295 8.806563 32.426821
2105 15 1 -1.1794 15.635510 8.139490 27.523010
2106 15 2 0.5897 15.922137 8.592251 28.348031
2107 15 2 0.5897 15.060469 7.424681 27.875063
2108 15 1 -1.1794 20.026990 3.748010 27.523010
2109 15 2 0.5897 19.264769 4.106705 27.020111
2110 15 2 0.5897 20.485326 4.590218 27.781031
2111 15 1 -1.1794 11.887500 3.679775 25.160607
2112 15 2 0.5897 11.922998 4.459067 25.764457
2113 15 2 0.5897 12.685985 3.179090 25.446756
2114 15 1 -1.1794 11.887500 8.207725 25.160607
2115 15 2 0.5897 11.128869 8.731842 25.512352
2116 15 2 0.5897 12.646872 8.779826 25.445376
2117 15 1 -1.1794 11.887500 3.679775 34.276893
2118 15 2 0.5897 11.843132 3.851890 35.244464
2119 15 2 0.5897 11.868941 4.578141 33.884946
2120 15 1 -1.1794 11.887500 8.207725 34.276893
2121 15 2 0.5897 12.093029 8.274438 35.244986
2122 15 2 0.5897 11.108049 7.629397 34.362942
2123 15 1 -1.1794 13.273107 0.000000 27.454775
2124 15 2 0.5897 12.305226 -0.094659 27.596134
2125 15 2 0.5897 13.642070 -0.099428 28.356968
2126 15 1 -1.1794 13.273107 0.000000 31.982725
2127 15 2 0.5897 13.604336 0.746754 32.533036
2128 15 2 0.5897 13.602206 -0.771043 32.501950
2129 15 1 -1.1794 22.389393 0.000000 27.454775
2130 15 2 0.5897 21.804308 0.006667 28.247479
2131 15 2 0.5897 22.071838 0.799264 26.976735
2132 15 1 -1.1794 22.389393 0.000000 31.982725
2133 15 2 0.5897 22.193138 0.798873 32.524125
2134 15 2 0.5897 23.368428 0.066494 31.891678
2135 15 1 -1.1794 15.567275 1.385607 23.775000
2136 15 2 0.5897 15.068986 1.660080 24.578227
2137 15 2 0.5897 16.352910 1.972311 23.812997
2138 15 1 -1.1794 20.095225 1.385607 23.775000
2139 15 2 0.5897 20.668354 1.614855 24.544515
2140 15 2 0.5897 20.679541 1.653488 23.027135
2141 15 1 -1.1794 15.567275 10.501893 23.775000
2142 15 2 0.5897 15.757086 11.452377 23.879347
2143 15 2 0.5897 16.433834 10.068458 23.887136
2144 15 1 -1.1794 20.095225 10.501893 23.775000
2145 15 2 0.5897 20.009784 11.478258 23.691574
2146 15 2 0.5897 20.575217 10.276857 22.947637
2147 15 1 -1.1794 21.511025 5.943750 28.333143
2148 15 2 0.5897 21.700835 6.048098 29.283627
2149 15 2 0.5897 22.377584 6.055885 27.899708
2150 15 1 -1.1794 14.151475 5.943750 28.333143
2151 15 2 0.5897 14.066031 5.860324 29.309508
2152 15 2 0.5897 14.631467 5.116387 28.108108
2153 15 1 -1.1794 21.511025 5.943750 31.104357
2154 15 2 0.5897 21.012738 6.746978 31.378833
2155 15 2 0.5897 22.296660 5.981743 31.691061
2156 15 1 -1.1794 14.151475 5.943750 31.104357
2157 15 2 0.5897 14.724602 6.713267 31.333605
2158 15 2 0.5897 14.735793 5.195886 31.372239
2159 15 1 -1.1794 17.831250 7.329357 26.038975
2160 15 2 0.5897 17.072622 7.681106 26.563093
2161 15 2 0.5897 18.590624 7.614122 26.611075
2162 15 1 -1.1794 17.831250 7.329357 33.398525
2163 15 2 0.5897 17.866750 7.933206 34.177818
2164 15 2 0.5897 18.629737 7.615502 32.897842
2165 15 1 -1.1794 17.831250 4.558143 26.038975
2166 15 2 0.5897 18.036764 5.526242 26.105661
2167 15 2 0.5897 17.051778 4.644161 25.460681
2168 15 1 -1.1794 17.831250 4.558143 33.398525
2169 15 2 0.5897 17.786883 5.525713 33.570644
2170 15 2 0.5897 17.812692 4.166192 34.296889
2171 15 1 -1.1794 19.216857 9.623525 29.718750
2172 15 2 0.5897 18.248976 9.764884 29.624090
2173 15 2 0.5897 19.585820 10.525718 29.619322
2174 15 1 -1.1794 19.216857 2.263975 29.718750
2175 15 2 0.5897 19.548088 2.814285 30.465503
2176 15 2 0.5897 19.545958 2.783199 28.947706
2177 15 1 -1.1794 16.445643 9.623525 29.718750
2178 15 2 0.5897 15.860556 10.416229 29.725416
2179 15 2 0.5897 16.128088 9.145485 30.518014
2180 15 1 -1.1794 16.445643 2.263975 29.718750
2181 15 2 0.5897 16.249390 2.805372 30.517625
2182 15 2 0.5897 17.424678 2.172928 29.785242
2183 15 3 0.0 11.887500 0.000000 23.775000
2184 15 3 0.0 17.831250 5.943750 29.718750
2185 15 3 0.0 11.887500 2.971875 29.718750
2186 15 3 0.0 11.887500 8.915625 29.718750
2187 15 3 0.0 17.831250 0.000000 26.746875
2188 15 3 0.0 17.831250 0.000000 32.690625
2189 15 3 0.0 14.859375 5.943750 23.775000
2190 15 3 0.0 20.803125 5.943750 23.775000
2191 16 1 -1.1794 11.887500 17.831250 2.971875
2192 16 2 0.5897 11.897156 18.633882 2.401692
2193 16 2 0.5897 12.706706 17.966305 3.500477
2194 16 1 -1.1794 11.887500 17.831250 8.915625
2195 16 2 0.5897 12.168567 18.695936 9.277971
2196 16 2 0.5897 12.610734 17.700273 8.254920
2197 16 1 -1.1794 14.859375 11.887500 5.943750
2198 16 2 0.5897 14.296866 12.000295 6.741859
2199 16 2 0.5897 15.393904 12.713596 5.955505
2200 16 1 -1.1794 20.803125 11.887500 5.943750
2201 16 2 0.5897 20.240617 12.685610 6.056546
2202 16 2 0.5897 21.337653 11.899253 6.769848
2203 16 1 -1.1794 17.831250 14.859375 0.000000
2204 16 2 0.5897 18.112323 15.221727 0.864683
2205 16 2 0.5897 18.554485 14.198672 -0.130979
2206 16 1 -1.1794 17.831250 20.803125 0.000000
2207 16 2 0.5897 17.840909 20.232941 0.802632
2208 16 2 0.5897 18.650455 21.331727 0.135054
2209 16 1 -1.1794 14.083240 14.083240 2.195740
2210 16 2 0.5897 13.818243 13.290281 2.721735
2211 16 2 0.5897 14.595546 14.595572 2.862811
2212 16 1 -1.1794 21.579260 21.579260 2.195740
2213 16 2 0.5897 21.865888 22.404281 2.648501
2214 16 2 0.5897 21.004218 21.931314 1.480933
2215 16 1 -1.1794 21.579260 14.083240 9.691760
2216 16 2 0.5897 21.041781 14.669808 9.104938
2217 16 2 0.5897 22.340371 14.669832 9.905926
2218 16 1 -1.1794 14.083240 21.579260 9.691760
2219 16 2 0.5897 13.321015 21.076365 10.050449
2220 16 2 0.5897 14.541573 21.837280 10.533970
2221 16 1 -1.1794 20.026990 20.026990 3.748010
2222 16 2 0.5897 19.942952 20.494415 4.601005
2223 16 2 0.5897 20.732952 20.531810 3.294149
2224 16 1 -1.1794 15.635510 15.635510 3.748010
2225 16 2 0.5897 15.889865 15.072288 4.519697
2226 16 2 0.5897 16.527481 15.858336 3.410372
2227 16 1 -1.1794 20.026990 15.635510 8.139490
2228 16 2 0.5897 19.240636 15.998445 8.609681
2229 16 2 0.5897 20.454714 16.460492 7.810198
2230 16 1 -1.1794 15.635510 20.026990 8.139490
2231 16 2 0.5897 15.123113 20.619046 8.742287
2232 16 2 0.5897 16.378956 19.756971 8.725499
2233 16 1 -1.1794 21.579260 21.579260 9.691760
2234 16 2 0.5897 21.833637 22.350942 9.128541
2235 16 2 0.5897 22.471221 21.241596 9.914592
2236 16 1 -1.1794 14.083240 14.083240 9.691760
2237 16 2 0.5897 13.296885 14.553429 10.054694
2238 16 2 0.5897 14.510964 13.753947 10.516742
2239 16 1 -1.1794 14.083240 21.579260 2.195740
2240 16 2 0.5897 13.999203 22.432255 2.663166
2241 16 2 0.5897 14.789202 21.125398 2.700560
2242 16 1 -1.1794 21.579260 14.083240 2.195740
2243 16 2 0.5897 21.066861 14.686035 2.787796
2244 16 2 0.5897 22.322705 14.669250 1.925722
2245 16 1 -1.1794 15.635510 15.635510 8.139490
2246 16 2 0.5897 15.098031 15.048688 8.726058
2247 16 2 0.5897 16.396620 15.849677 8.726082
2248 16 1 -1.1794 20.026990 20.026990 8.139490
2249 16 2 0.5897 19.761994 20.552984 7.346530
2250 16 2 0.5897 20.539295 20.694063 8.651821
2251 16 1 -1.1794 15.635510 20.026990 3.748010
2252 16 2 0.5897 15.922137 20.479751 4.573031
2253 16 2 0.5897 15.060469 19.312181 4.100063
2254 16 1 -1.1794 20.026990 15.635510 3.748010
2255 16 2 0.5897 19.264769 15.994205 3.245111
2256 16 2 0.5897 20.485326 16.477718 4.006031
2257 16 1 -1.1794 11.887500 15.567275 1.385607
2258 16 2 0.5897 11.922998 16.346567 1.989457
2259 16 2 0.5897 12.685985 15.066590 1.671756
2260 16 1 -1.1794 11.887500 20.095225 1.385607
2261 16 2 0.5897 11.128869 20.619342 1.737352
2262 16 2 0.5897 12.646872 20.667326 1.670376
2263 16 1 -1.1794 11.887500 15.567275 10.501893
2264 16 2 0.5897 11.843132 15.739390 11.469464
2265 16 2 0.5897 11.868941 16.465641 10.109946
2266 16 1 -1.1794 11.887500 20.095225 10.501893
2267 16 2 0.5897 12.093029 20.161938 11.469986
2268 16 2 0.5897 11.108049 19.516897 10.587942
2269 16 1 -1.1794 13.273107 11.887500 3.679775
2270 16 2 0.5897 12.305226 11.792841 3.821134
2271 16 2 0.5897 13.642070 11.788072 4.581968
2272 16 1 -1.1794 13.273107 11.887500 8.207725
2273 16 2 0.5897 13.604336 12.634254 8.758036
2274 16 2 0.5897 13.602206 11.116457 8.726950
2275 16 1 -1.1794 22.389393 11.887500 3.679775
2276 16 2 0.5897 21.804308 11.894167 4.472479
2277 16 2 0.5897 22.071838 12.686764 3.201735
2278 16 1 -1.1794 22.389393 11.887500 8.207725
2279 16 2 0.5897 22.193138 12.686373 8.749125
2280 16 2 0.5897 23.368428 11.953994 8.116678
2281 16 1 -1.1794 15.567275 13.273107 0.000000
2282 16 2 0.5897 15.068986 13.547580 0.803227
2283 16 2 0.5897 16.352910 13.859811 0.037997
2284 16 1 -1.1794 20.095225 13.273107 0.000000
2285 16 2 0.5897 20.668354 13.502355 0.769515
2286 16 2 0.5897 20.679541 13.540988 -0.747865
2287 16 1 -1.1794 15.567275 22.389393 0.000000
2288 16 2 0.5897 15.757086 23.339877 0.104347
2289 16 2 0.5897 16.433834 21.955958 0.112136
2290 16 1 -1.1794 20.095225 22.389393 0.000000
2291 16 2 0.5897 20.009784 23.365758 -0.083426
2292 16 2 0.5897 20.575217 22.164357 -0.827363
2293 16 1 -1.1794 21.511025 17.831250 4.558143
2294 16 2 0.5897 21.700835 17.935598 5.508627
2295 16 2 0.5897 22.377584 17.943385 4.124708
2296 16 1 -1.1794 14.151475 17.831250 4.558143
2297 16 2 0.5897 14.066031 17.747824 5.534508
2298 16 2 0.5897 14.631467 17.003887 4.333108
2299 16 1 -1.1794 21.511025 17.831250 7.329357
2300 16 2 0.5897 21.012738 18.634478 7.603833
2301 16 2 0.5897 22.296660 17.869243 7.916061
2302 16 1 -1.1794 14.151475 17.831250 7.329357
2303 16 2 0.5897 14.724602 18.600767 7.558605
2304 16 2 0.5897 14.735793 17.083386 7.597239
2305 16 1 -1.1794 17.831250 19.216857 2.263975
2306 16 2 0.5897 17.072622 19.568606 2.788093
2307 16 2 0.5897 18.590624 19.501622 2.836075
2308 16 1 -1.1794 17.831250 19.216857 9.623525
2309 16 2 0.5897 17.866750 19.820706 10.402818
2310 16 2 0.5897 18.629737 19.503002 9.122842
2311 16 1 -1.1794 17.831250 16.445643 2.263975
2312 16 2 0.5897 18.036764 17.413742 2.330661
2313 16 2 0.5897 17.051778 16.531661 1.685681
2314 16 1 -1.1794 17.831250 16.445643 9.623525
2315 16 2 0.5897 17.786883 17.413213 9.795644
2316 16 2 0.5897 17.812692 16.053692 10.521889
2317 16 1 -1.1794 19.216857 21.511025 5.943750
2318 16 2 0.5897 18.248976 21.652384 5.849090
2319 16 2 0.5897 19.585820 22.413218 5.844322
2320 16 1 -1.1794 19.216857 14.151475 5.943750
2321 16 2 0.5897 19.548088 14.701785 6.690503
2322 16 2 0.5897 19.545958 14.670699 5.172706
2323 16 1 -1.1794 16.445643 21.511025 5.943750
2324 16 2 0.5897 15.860556 22.303729 5.950416
2325 16 2 0.5897 16.128088 21.032985 6.743014
2326 16 1 -1.1794 16.445643 14.151475 5.943750
2327 16 2 0.5897 16.249390 14.692872 6.742625
2328 16 2 0.5897 17.424678 14.060428 6.010242
2329 16 3 0.0 11.887500 11.887500 0.000000
2330 16 3 0.0 17.831250 17.831250 5.943750
2331 16 3 0.0 11.887500 14.859375 5.943750
2332 16 3 0.0 11.887500 20.803125 5.943750
2333 16 3 0.0 17.831250 11.887500 2.971875
2334 16 3 0.0 17.831250 11.887500 8.915625
2335 16 3 0.0 14.859375 17.831250 0.000000
2336 16 3 0.0 20.803125 17.831250 0.000000
2337 17 1 -1.1794 11.887500 17.831250 14.859375
2338 17 2 0.5897 11.897156 18.633882 14.289192
2339 17 2 0.5897 12.706706 17.966305 15.387977
2340 17 1 -1.1794 11.887500 17.831250 20.803125
2341 17 2 0.5897 12.168567 18.695936 21.165471
2342 17 2 0.5897 12.610734 17.700273 20.142420
2343 17 1 -1.1794 14.859375 11.887500 17.831250
2344 17 2 0.5897 14.296866 12.000295 18.629359
2345 17 2 0.5897 15.393904 12.713596 17.843005
2346 17 1 -1.1794 20.803125 11.887500 17.831250
2347 17 2 0.5897 20.240617 12.685610 17.944046
2348 17 2 0.5897 21.337653 11.899253 18.657348
2349 17 1 -1.1794 17.831250 14.859375 11.887500
2350 17 2 0.5897 18.112323 15.221727 12.752183
2351 17 2 0.5897 18.554485 14.198672 11.756521
2352 17 1 -1.1794 17.831250 20.803125 11.887500
2353 17 2 0.5897 17.840909 20.232941 12.690132
2354 17 2 0.5897 18.650455 21.331727 12.022554
2355 17 1 -1.1794 14.083240 14.083240 14.083240
2356 17 2 0.5897 13.818243 13.290281 14.609235
2357 17 2 0.5897 14.595546 14.595572 14.750311
2358 17 1 -1.1794 21.579260 21.579260 14.083240
2359 17 2 0.5897 21.865888 22.404281 14.536001
2360 17 2 0.5897 21.004218 21.931314 13.368433
2361 17 1 -1.1794 21.579260 14.083240 21.579260
2362 17 2 0.5897 21.041781 14.669808 20.992438
2363 17 2 0.5897 22.340371 14.669832 21.793426
2364 17 1 -1.1794 14.083240 21.579260 21.579260
2365 17 2 0.5897 13.321015 21.076365 21.937949
2366 17 2 0.5897 14.541573 21.837280 22.421470
2367 17 1 -1.1794 20.026990 20.026990 15.635510
2368 17 2 0.5897 19.942952 20.494415 16.488505
2369 17 2 0.5897 20.732952 20.531810 15.181649
2370 17 1 -1.1794 15.635510 15.635510 15.635510
2371 17 2 0.5897 15.889865 15.072288 16.407197
2372 17 2 0.5897 16.527481 15.858336 15.297872
2373 17 1 -1.1794 20.026990 15.635510 20.026990
2374 17 2 0.5897 19.240636 15.998445 20.497181
2375 17 2 0.5897 20.454714 16.460492 19.697698
2376 17 1 -1.1794 15.635510 20.026990 20.026990
2377 17 2 0.5897 15.123113 20.619046 20.629787
2378 17 2 0.5897 16.378956 19.756971 20.612999
2379 17 1 -1.1794 21.579260 21.579260 21.579260
2380 17 2 0.5897 21.833637 22.350942 21.016041
2381 17 2 0.5897 22.471221 21.241596 21.802092
2382 17 1 -1.1794 14.083240 14.083240 21.579260
2383 17 2 0.5897 13.296885 14.553429 21.942194
2384 17 2 0.5897 14.510964 13.753947 22.404242
2385 17 1 -1.1794 14.083240 21.579260 14.083240
2386 17 2 0.5897 13.999203 22.432255 14.550666
2387 17 2 0.5897 14.789202 21.125398 14.588060
2388 17 1 -1.1794 21.579260 14.083240 14.083240
2389 17 2 0.5897 21.066861 14.686035 14.675296
2390 17 2 0.5897 22.322705 14.669250 13.813222
2391 17 1 -1.1794 15.635510 15.635510 20.026990
2392 17 2 0.5897 15.098031 15.048688 20.613558
2393 17 2 0.5897 16.396620 15.849677 20.613582
2394 17 1 -1.1794 20.026990 20.026990 20.026990
2395 17 2 0.5897 19.761994 20.552984 19.234030
2396 17 2 0.5897 20.539295 20.694063 20.539321
2397 17 1 -1.1794 15.635510 20.026990 15.635510
2398 17 2 0.5897 15.922137 20.479751 16.460531
2399 17 2 0.5897 15.060469 19.312181 15.987563
2400 17 1 -1.1794 20.026990 15.635510 15.635510
2401 17 2 0.5897 19.264769 15.994205 15.132611
2402 17 2 0.5897 20.485326 16.477718 15.893531
2403 17 1 -1.1794 11.887500 15.567275 13.273107
2404 17 2 0.5897 11.922998 16.346567 13.876957
2405 17 2 0.5897 12.685985 15.066590 13.559256
2406 17 1 -1.1794 11.887500 20.095225 13.273107
2407 17 2 0.5897 11.128869 20.619342 13.624852
2408 17 2 0.5897 12.646872 20.667326 13.557876
2409 17 1 -1.1794 11.887500 15.567275 22.389393
2410 17 2 0.5897 11.843132 15.739390 23.356964
2411 17 2 0.5897 11.868941 16.465641 21.997446
2412 17 1 -1.1794 11.887500 20.095225 22.389393
2413 17 2 0.5897 12.093029 20.161938 23.357486
2414 17 2 0.5897 11.108049 19.516897 22.475442
2415 17 1 -1.1794 13.273107 11.887500 15.567275
2416 17 2 0.5897 12.305226 11.792841 15.708634
2417 17 2 0.5897 13.642070 11.788072 16.469468
2418 17 1 -1.1794 13.273107 11.887500 20.095225
2419 17 2 0.5897 13.604336 12.634254 20.645536
2420 17 2 0.5897 13.602206 11.116457 20.614450
2421 17 1 -1.1794 22.389393 11.887500 15.567275
2422 17 2 0.5897 21.804308 11.894167 16.359979
2423 17 2 0.5897 22.071838 12.686764 15.089235
2424 17 1 -1.1794 22.389393 11.887500 20.095225
2425 17 2 0.5897 22.193138 12.686373 20.636625
2426 17 2 0.5897 23.368428 11.953994 20.004178
2427 17 1 -1.1794 15.567275 13.273107 11.887500
2428 17 2 0.5897 15.068986 13.547580 12.690727
2429 17 2 0.5897 16.352910 13.859811 11.925497
2430 17 1 -1.1794 20.095225 13.273107 11.887500
2431 17 2 0.5897 20.668354 13.502355 12.657015
2432 17 2 0.5897 20.679541 13.540988 11.139635
2433 17 1 -1.1794 15.567275 22.389393 11.887500
2434 17 2 0.5897 15.757086 23.339877 11.991847
2435 17 2 0.5897 16.433834 21.955958 11.999636
2436 17 1 -1.1794 20.095225 22.389393 11.887500
2437 17 2 0.5897 20.009784 23.365758 11.804074
2438 17 2 0.5897 20.575217 22.164357 11.060137
2439 17 1 -1.1794 21.511025 17.831250 16.445643
2440 17 2 0.5897 21.700835 17.935598 17.396127
2441 17 2 0.5897 22.377584 17.943385 16.012208
2442 17 1 -1.1794 14.151475 17.831250 16.445643
2443 17 2 0.5897 14.066031 17.747824 17.422008
2444 17 2 0.5897 14.631467 17.003887 16.220608
2445 17 1 -1.1794 21.511025 17.831250 19.216857
2446 17 2 0.5897 21.012738 18.634478 19.491333
2447 17 2 0.5897 22.296660 17.869243 19.803561
2448 17 1 -1.1794 14.151475 17.831250 19.216857
2449 17 2 0.5897 14.724602 18.600767 19.446105
2450 17 2 0.5897 14.735793 17.083386 19.484739
2451 17 1 -1.1794 17.831250 19.216857 14.151475
2452 17 2 0.5897 17.072622 19.568606 14.675593
2453 17 2 0.5897 18.590624 19.501622 14.723575
2454 17 1 -1.1794 17.831250 19.216857 21.511025
2455 17 2 0.5897 17.866750 19.820706 22.290318
2456 17 2 0.5897 18.629737 19.503002 21.010342
2457 17 1 -1.1794 17.831250 16.445643 14.151475
2458 17 2 0.5897 18.036764 17.413742 14.218161
2459 17 2 0.5897 17.051778 16.531661 13.573181
2460 17 1 -1.1794 17.831250 16.445643 21.511025
2461 17 2 0.5897 17.786883 17.413213 21.683144
2462 17 2 0.5897 17.812692 16.053692 22.409389
2463 17 1 -1.1794 19.216857 21.511025 17.831250
2464 17 2 0.5897 18.248976 21.652384 17.736590
2465 17 2 0.5897 19.585820 22.413218 17.731822
2466 17 1 -1.1794 19.216857 14.151475 17.831250
2467 17 2 0.5897 19.548088 14.701785 18.578003
2468 17 2 0.5897 19.545958 14.670699 17.060206
2469 17 1 -1.1794 16.445643 21.511025 17.831250
2470 17 2 0.5897 15.860556 22.303729 17.837916
2471 17 2 0.5897 16.128088 21.032985 18.630514
2472 17 1 -1.1794 16.445643 14.151475 17.831250
2473 17 2 0.5897 16.249390 14.692872 18.630125
2474 17 2 0.5897 17.424678 14.060428 17.897742
2475 17 3 0.0 11.887500 11.887500 11.887500
2476 17 3 0.0 17.831250 17.831250 17.831250
2477 17 3 0.0 11.887500 14.859375 17.831250
2478 17 3 0.0 11.887500 20.803125 17.831250
2479 17 3 0.0 17.831250 11.887500 14.859375
2480 17 3 0.0 17.831250 11.887500 20.803125
2481 17 3 0.0 14.859375 17.831250 11.887500
2482 17 3 0.0 20.803125 17.831250 11.887500
2483 18 1 -1.1794 11.887500 17.831250 26.746875
2484 18 2 0.5897 11.897156 18.633882 26.176692
2485 18 2 0.5897 12.706706 17.966305 27.275477
2486 18 1 -1.1794 11.887500 17.831250 32.690625
2487 18 2 0.5897 12.168567 18.695936 33.052971
2488 18 2 0.5897 12.610734 17.700273 32.029920
2489 18 1 -1.1794 14.859375 11.887500 29.718750
2490 18 2 0.5897 14.296866 12.000295 30.516859
2491 18 2 0.5897 15.393904 12.713596 29.730505
2492 18 1 -1.1794 20.803125 11.887500 29.718750
2493 18 2 0.5897 20.240617 12.685610 29.831546
2494 18 2 0.5897 21.337653 11.899253 30.544848
2495 18 1 -1.1794 17.831250 14.859375 23.775000
2496 18 2 0.5897 18.112323 15.221727 24.639683
2497 18 2 0.5897 18.554485 14.198672 23.644021
2498 18 1 -1.1794 17.831250 20.803125 23.775000
2499 18 2 0.5897 17.840909 20.232941 24.577632
2500 18 2 0.5897 18.650455 21.331727 23.910054
2501 18 1 -1.1794 14.083240 14.083240 25.970740
2502 18 2 0.5897 13.818243 13.290281 26.496735
2503 18 2 0.5897 14.595546 14.595572 26.637811
2504 18 1 -1.1794 21.579260 21.579260 25.970740
2505 18 2 0.5897 21.865888 22.404281 26.423501
2506 18 2 0.5897 21.004218 21.931314 25.255933
2507 18 1 -1.1794 21.579260 14.083240 33.466760
2508 18 2 0.5897 21.041781 14.669808 32.879938
2509 18 2 0.5897 22.340371 14.669832 33.680926
2510 18 1 -1.1794 14.083240 21.579260 33.466760
2511 18 2 0.5897 13.321015 21.076365 33.825449
2512 18 2 0.5897 14.541573 21.837280 34.308970
2513 18 1 -1.1794 20.026990 20.026990 27.523010
2514 18 2 0.5897 19.942952 20.494415 28.376005
2515 18 2 0.5897 20.732952 20.531810 27.069149
2516 18 1 -1.1794 15.635510 15.635510 27.523010
2517 18 2 0.5897 15.889865 15.072288 28.294697
2518 18 2 0.5897 16.527481 15.858336 27.185372
2519 18 1 -1.1794 20.026990 15.635510 31.914490
2520 18 2 0.5897 19.240636 15.998445 32.384681
2521 18 2 0.5897 20.454714 16.460492 31.585198
2522 18 1 -1.1794 15.635510 20.026990 31.914490
2523 18 2 0.5897 15.123113 20.619046 32.517287
2524 18 2 0.5897 16.378956 19.756971 32.500499
2525 18 1 -1.1794 21.579260 21.579260 33.466760
2526 18 2 0.5897 21.833637 22.350942 32.903541
2527 18 2 0.5897 22.471221 21.241596 33.689592
2528 18 1 -1.1794 14.083240 14.083240 33.466760
2529 18 2 0.5897 13.296885 14.553429 33.829694
2530 18 2 0.5897 14.510964 13.753947 34.291742
2531 18 1 -1.1794 14.083240 21.579260 25.970740
2532 18 2 0.5897 13.999203 22.432255 26.438166
2533 18 2 0.5897 14.789202 21.125398 26.475560
2534 18 1 -1.1794 21.579260 14.083240 25.970740
2535 18 2 0.5897 21.066861 14.686035 26.562796
2536 18 2 0.5897 22.322705 14.669250 25.700722
2537 18 1 -1.1794 15.635510 15.635510 31.914490
2538 18 2 0.5897 15.098031 15.048688 32.501058
2539 18 2 0.5897 16.396620 15.849677 32.501082
2540 18 1 -1.1794 20.026990 20.026990 31.914490
2541 18 2 0.5897 19.761994 20.552984 31.121530
2542 18 2 0.5897 20.539295 20.694063 32.426821
2543 18 1 -1.1794 15.635510 20.026990 27.523010
2544 18 2 0.5897 15.922137 20.479751 28.348031
2545 18 2 0.5897 15.060469 19.312181 27.875063
2546 18 1 -1.1794 20.026990 15.635510 27.523010
2547 18 2 0.5897 19.264769 15.994205 27.020111
2548 18 2 0.5897 20.485326 16.477718 27.781031
2549 18 1 -1.1794 11.887500 15.567275 25.160607
2550 18 2 0.5897 11.922998 16.346567 25.764457
2551 18 2 0.5897 12.685985 15.066590 25.446756
2552 18 1 -1.1794 11.887500 20.095225 25.160607
2553 18 2 0.5897 11.128869 20.619342 25.512352
2554 18 2 0.5897 12.646872 20.667326 25.445376
2555 18 1 -1.1794 11.887500 15.567275 34.276893
2556 18 2 0.5897 11.843132 15.739390 35.244464
2557 18 2 0.5897 11.868941 16.465641 33.884946
2558 18 1 -1.1794 11.887500 20.095225 34.276893
2559 18 2 0.5897 12.093029 20.161938 35.244986
2560 18 2 0.5897 11.108049 19.516897 34.362942
2561 18 1 -1.1794 13.273107 11.887500 27.454775
2562 18 2 0.5897 12.305226 11.792841 27.596134
2563 18 2 0.5897 13.642070 11.788072 28.356968
2564 18 1 -1.1794 13.273107 11.887500 31.982725
2565 18 2 0.5897 13.604336 12.634254 32.533036
2566 18 2 0.5897 13.602206 11.116457 32.501950
2567 18 1 -1.1794 22.389393 11.887500 27.454775
2568 18 2 0.5897 21.804308 11.894167 28.247479
2569 18 2 0.5897 22.071838 12.686764 26.976735
2570 18 1 -1.1794 22.389393 11.887500 31.982725
2571 18 2 0.5897 22.193138 12.686373 32.524125
2572 18 2 0.5897 23.368428 11.953994 31.891678
2573 18 1 -1.1794 15.567275 13.273107 23.775000
2574 18 2 0.5897 15.068986 13.547580 24.578227
2575 18 2 0.5897 16.352910 13.859811 23.812997
2576 18 1 -1.1794 20.095225 13.273107 23.775000
2577 18 2 0.5897 20.668354 13.502355 24.544515
2578 18 2 0.5897 20.679541 13.540988 23.027135
2579 18 1 -1.1794 15.567275 22.389393 23.775000
2580 18 2 0.5897 15.757086 23.339877 23.879347
2581 18 2 0.5897 16.433834 21.955958 23.887136
2582 18 1 -1.1794 20.095225 22.389393 23.775000
2583 18 2 0.5897 20.009784 23.365758 23.691574
2584 18 2 0.5897 20.575217 22.164357 22.947637
2585 18 1 -1.1794 21.511025 17.831250 28.333143
2586 18 2 0.5897 21.700835 17.935598 29.283627
2587 18 2 0.5897 22.377584 17.943385 27.899708
2588 18 1 -1.1794 14.151475 17.831250 28.333143
2589 18 2 0.5897 14.066031 17.747824 29.309508
2590 18 2 0.5897 14.631467 17.003887 28.108108
2591 18 1 -1.1794 21.511025 17.831250 31.104357
2592 18 2 0.5897 21.012738 18.634478 31.378833
2593 18 2 0.5897 22.296660 17.869243 31.691061
2594 18 1 -1.1794 14.151475 17.831250 31.104357
2595 18 2 0.5897 14.724602 18.600767 31.333605
2596 18 2 0.5897 14.735793 17.083386 31.372239
2597 18 1 -1.1794 17.831250 19.216857 26.038975
2598 18 2 0.5897 17.072622 19.568606 26.563093
2599 18 2 0.5897 18.590624 19.501622 26.611075
2600 18 1 -1.1794 17.831250 19.216857 33.398525
2601 18 2 0.5897 17.866750 19.820706 34.177818
2602 18 2 0.5897 18.629737 19.503002 32.897842
2603 18 1 -1.1794 17.831250 16.445643 26.038975
2604 18 2 0.5897 18.036764 17.413742 26.105661
2605 18 2 0.5897 17.051778 16.531661 25.460681
2606 18 1 -1.1794 17.831250 16.445643 33.398525
2607 18 2 0.5897 17.786883 17.413213 33.570644
2608 18 2 0.5897 17.812692 16.053692 34.296889
2609 18 1 -1.1794 19.216857 21.511025 29.718750
2610 18 2 0.5897 18.248976 21.652384 29.624090
2611 18 2 0.5897 19.585820 22.413218 29.619322
2612 18 1 -1.1794 19.216857 14.151475 29.718750
2613 18 2 0.5897 19.548088 14.701785 30.465503
2614 18 2 0.5897 19.545958 14.670699 28.947706
2615 18 1 -1.1794 16.445643 21.511025 29.718750
2616 18 2 0.5897 15.860556 22.303729 29.725416
2617 18 2 0.5897 16.128088 21.032985 30.518014
2618 18 1 -1.1794 16.445643 14.151475 29.718750
2619 18 2 0.5897 16.249390 14.692872 30.517625
2620 18 2 0.5897 17.424678 14.060428 29.785242
2621 18 3 0.0 11.887500 11.887500 23.775000
2622 18 3 0.0 17.831250 17.831250 29.718750
2623 18 3 0.0 11.887500 14.859375 29.718750
2624 18 3 0.0 11.887500 20.803125 29.718750
2625 18 3 0.0 17.831250 11.887500 26.746875
2626 18 3 0.0 17.831250 11.887500 32.690625
2627 18 3 0.0 14.859375 17.831250 23.775000
2628 18 3 0.0 20.803125 17.831250 23.775000
2629 19 1 -1.1794 11.887500 29.718750 2.971875
2630 19 2 0.5897 11.897156 30.521382 2.401692
2631 19 2 0.5897 12.706706 29.853805 3.500477
2632 19 1 -1.1794 11.887500 29.718750 8.915625
2633 19 2 0.5897 12.168567 30.583436 9.277971
2634 19 2 0.5897 12.610734 29.587773 8.254920
2635 19 1 -1.1794 14.859375 23.775000 5.943750
2636 19 2 0.5897 14.296866 23.887795 6.741859
2637 19 2 0.5897 15.393904 24.601096 5.955505
2638 19 1 -1.1794 20.803125 23.775000 5.943750
2639 19 2 0.5897 20.240617 24.573110 6.056546
2640 19 2 0.5897 21.337653 23.786753 6.769848
2641 19 1 -1.1794 17.831250 26.746875 0.000000
2642 19 2 0.5897 18.112323 27.109227 0.864683
2643 19 2 0.5897 18.554485 26.086172 -0.130979
2644 19 1 -1.1794 17.831250 32.690625 0.000000
2645 19 2 0.5897 17.840909 32.120441 0.802632
2646 19 2 0.5897 18.650455 33.219227 0.135054
2647 19 1 -1.1794 14.083240 25.970740 2.195740
2648 19 2 0.5897 13.818243 25.177781 2.721735
2649 19 2 0.5897 14.595546 26.483072 2.862811
2650 19 1 -1.1794 21.579260 33.466760 2.195740
2651 19 2 0.5897 21.865888 34.291781 2.648501
2652 19 2 0.5897 21.004218 33.818814 1.480933
2653 19 1 -1.1794 21.579260 25.970740 9.691760
2654 19 2 0.5897 21.041781 26.557308 9.104938
2655 19 2 0.5897 22.340371 26.557332 9.905926
2656 19 1 -1.1794 14.083240 33.466760 9.691760
2657 19 2 0.5897 13.321015 32.963865 10.050449
2658 19 2 0.5897 14.541573 33.724780 10.533970
2659 19 1 -1.1794 20.026990 31.914490 3.748010
2660 19 2 0.5897 19.942952 32.381915 4.601005
2661 19 2 0.5897 20.732952 32.419310 3.294149
2662 19 1 -1.1794 15.635510 27.523010 3.748010
2663 19 2 0.5897 15.889865 26.959788 4.519697
2664 19 2 0.5897 16.527481 27.745836 3.410372
2665 19 1 -1.1794 20.026990 27.523010 8.139490
2666 19 2 0.5897 19.240636 27.885945 8.609681
2667 19 2 0.5897 20.454714 28.347992 7.810198
2668 19 1 -1.1794 15.635510 31.914490 8.139490
2669 19 2 0.5897 15.123113 32.506546 8.742287
2670 19 2 0.5897 16.378956 31.644471 8.725499
2671 19 1 -1.1794 21.579260 33.466760 9.691760
2672 19 2 0.5897 21.833637 34.238442 9.128541
2673 19 2 0.5897 22.471221 33.129096 9.914592
2674 19 1 -1.1794 14.083240 25.970740 9.691760
2675 19 2 0.5897 13.296885 26.440929 10.054694
2676 19 2 0.5897 14.510964 25.641447 10.516742
2677 19 1 -1.1794 14.083240 33.466760 2.195740
2678 19 2 0.5897 13.999203 34.319755 2.663166
2679 19 2 0.5897 14.789202 33.012898 2.700560
2680 19 1 -1.1794 21.579260 25.970740 2.195740
2681 19 2 0.5897 21.066861 26.573535 2.787796
2682 19 2 0.5897 22.322705 26.556750 1.925722
2683 19 1 -1.1794 15.635510 27.523010 8.139490
2684 19 2 0.5897 15.098031 26.936188 8.726058
2685 19 2 0.5897 16.396620 27.737177 8.726082
2686 19 1 -1.1794 20.026990 31.914490 8.139490
2687 19 2 0.5897 19.761994 32.440484 7.346530
2688 19 2 0.5897 20.539295 32.581563 8.651821
2689 19 1 -1.1794 15.635510 31.914490 3.748010
2690 19 2 0.5897 15.922137 32.367251 4.573031
2691 19 2 0.5897 15.060469 31.199681 4.100063
2692 19 1 -1.1794 20.026990 27.523010 3.748010
2693 19 2 0.5897 19.264769 27.881705 3.245111
2694 19 2 0.5897 20.485326 28.365218 4.006031
2695 19 1 -1.1794 11.887500 27.454775 1.385607
2696 19 2 0.5897 11.922998 28.234067 1.989457
2697 19 2 0.5897 12.685985 26.954090 1.671756
2698 19 1 -1.1794 11.887500 31.982725 1.385607
2699 19 2 0.5897 11.128869 32.506842 1.737352
2700 19 2 0.5897 12.646872 32.554826 1.670376
2701 19 1 -1.1794 11.887500 27.454775 10.501893
2702 19 2 0.5897 11.843132 27.626890 11.469464
2703 19 2 0.5897 11.868941 28.353141 10.109946
2704 19 1 -1.1794 11.887500 31.982725 10.501893
2705 19 2 0.5897 12.093029 32.049438 11.469986
2706 19 2 0.5897 11.108049 31.404397 10.587942
2707 19 1 -1.1794 13.273107 23.775000 3.679775
2708 19 2 0.5897 12.305226 23.680341 3.821134
2709 19 2 0.5897 13.642070 23.675572 4.581968
2710 19 1 -1.1794 13.273107 23.775000 8.207725
2711 19 2 0.5897 13.604336 24.521754 8.758036
2712 19 2 0.5897 13.602206 23.003957 8.726950
2713 19 1 -1.1794 22.389393 23.775000 3.679775
2714 19 2 0.5897 21.804308 23.781667 4.472479
2715 19 2 0.5897 22.071838 24.574264 3.201735
2716 19 1 -1.1794 22.389393 23.775000 8.207725
2717 19 2 0.5897 22.193138 24.573873 8.749125
2718 19 2 0.5897 23.368428 23.841494 8.116678
2719 19 1 -1.1794 15.567275 25.160607 0.000000
2720 19 2 0.5897 15.068986 25.435080 0.803227
2721 19 2 0.5897 16.352910 25.747311 0.037997
2722 19 1 -1.1794 20.095225 25.160607 0.000000
2723 19 2 0.5897 20.668354 25.389855 0.769515
2724 19 2 0.5897 20.679541 25.428488 -0.747865
2725 19 1 -1.1794 15.567275 34.276893 0.000000
2726 19 2 0.5897 15.757086 35.227377 0.104347
2727 19 2 0.5897 16.433834 33.843458 0.112136
2728 19 1 -1.1794 20.095225 34.276893 0.000000
2729 19 2 0.5897 20.009784 35.253258 -0.083426
2730 19 2 0.5897 20.575217 34.051857 -0.827363
2731 19 1 -1.1794 21.511025 29.718750 4.558143
2732 19 2 0.5897 21.700835 29.823098 5.508627
2733 19 2 0.5897 22.377584 29.830885 4.124708
2734 19 1 -1.1794 14.151475 29.718750 4.558143
2735 19 2 0.5897 14.066031 29.635324 5.534508
2736 19 2 0.5897 14.631467 28.891387 4.333108
2737 19 1 -1.1794 21.511025 29.718750 7.329357
2738 19 2 0.5897 21.012738 30.521978 7.603833
2739 19 2 0.5897 22.296660 29.756743 7.916061
2740 19 1 -1.1794 14.151475 29.718750 7.329357
2741 19 2 0.5897 14.724602 30.488267 7.558605
2742 19 2 0.5897 14.735793 28.970886 7.597239
2743 19 1 -1.1794 17.831250 31.104357 2.263975
2744 19 2 0.5897 17.072622 31.456106 2.788093
2745 19 2 0.5897 18.590624 31.389122 2.836075
2746 19 1 -1.1794 17.831250 31.104357 9.623525
2747 19 2 0.5897 17.866750 31.708206 10.402818
2748 19 2 0.5897 18.629737 31.390502 9.122842
2749 19 1 -1.1794 17.831250 28.333143 2.263975
2750 19 2 0.5897 18.036764 29.301242 2.330661
2751 19 2 0.5897 17.051778 28.419161 1.685681
2752 19 1 -1.1794 17.831250 28.333143 9.623525
2753 19 2 0.5897 17.786883 29.300713 9.795644
2754 19 2 0.5897 17.812692 27.941192 10.521889
2755 19 1 -1.1794 19.216857 33.398525 5.943750
2756 19 2 0.5897 18.248976 33.539884 5.849090
2757 19 2 0.5897 19.585820 34.300718 5.844322
2758 19 1 -1.1794 19.216857 26.038975 5.943750
2759 19 2 0.5897 19.548088 26.589285 6.690503
2760 19 2 0.5897 19.545958 26.558199 5.172706
2761 19 1 -1.1794 16.445643 33.398525 5.943750
2762 19 2 0.5897 15.860556 34.191229 5.950416
2763 19 2 0.5897 16.128088 32.920485 6.743014
2764 19 1 -1.1794 16.445643 26.038975 5.943750
2765 19 2 0.5897 16.249390 26.580372 6.742625
2766 19 2 0.5897 17.424678 25.947928 6.010242
2767 19 3 0.0 11.887500 23.775000 0.000000
2768 19 3 0.0 17.831250 29.718750 5.943750
2769 19 3 0.0 11.887500 26.746875 5.943750
2770 19 3 0.0 11.887500 32.690625 5.943750
2771 19 3 0.0 17.831250 23.775000 2.971875
2772 19 3 0.0 17.831250 23.775000 8.915625
2773 19 3 0.0 14.859375 29.718750 0.000000
2774 19 3 0.0 20.803125 29.718750 0.000000
2775 20 1 -1.1794 11.887500 29.718750 14.859375
2776 20 2 0.5897 11.897156 30.521382 14.289192
2777 20 2 0.5897 12.706706 29.853805 15.387977
2778 20 1 -1.1794 11.887500 29.718750 20.803125
2779 20 2 0.5897 12.168567 30.583436 21.165471
2780 20 2 0.5897 12.610734 29.587773 20.142420
2781 20 1 -1.1794 14.859375 23.775000 17.831250
2782 20 2 0.5897 14.296866 23.887795 18.629359
2783 20 2 0.5897 15.393904 24.601096 17.843005
2784 20 1 -1.1794 20.803125 23.775000 17.831250
2785 20 2 0.5897 20.240617 24.573110 17.944046
2786 20 2 0.5897 21.337653 23.786753 18.657348
2787 20 1 -1.1794 17.831250 26.746875 11.887500
2788 20 2 0.5897 18.112323 27.109227 12.752183
2789 20 2 0.5897 18.554485 26.086172 11.756521
2790 20 1 -1.1794 17.831250 32.690625 11.887500
2791 20 2 0.5897 17.840909 32.120441 12.690132
2792 20 2 0.5897 18.650455 33.219227 12.022554
2793 20 1 -1.1794 14.083240 25.970740 14.083240
2794 20 2 0.5897 13.818243 25.177781 14.609235
2795 20 2 0.5897 14.595546 26.483072 14.750311
2796 20 1 -1.1794 21.579260 33.466760 14.083240
2797 20 2 0.5897 21.865888 34.291781 14.536001
2798 20 2 0.5897 21.004218 33.818814 13.368433
2799 20 1 -1.1794 21.579260 25.970740 21.579260
2800 20 2 0.5897 21.041781 26.557308 20.992438
2801 20 2 0.5897 22.340371 26.557332 21.793426
2802 20 1 -1.1794 14.083240 33.466760 21.579260
2803 20 2 0.5897 13.321015 32.963865 21.937949
2804 20 2 0.5897 14.541573 33.724780 22.421470
2805 20 1 -1.1794 20.026990 31.914490 15.635510
2806 20 2 0.5897 19.942952 32.381915 16.488505
2807 20 2 0.5897 20.732952 32.419310 15.181649
2808 20 1 -1.1794 15.635510 27.523010 15.635510
2809 20 2 0.5897 15.889865 26.959788 16.407197
2810 20 2 0.5897 16.527481 27.745836 15.297872
2811 20 1 -1.1794 20.026990 27.523010 20.026990
2812 20 2 0.5897 19.240636 27.885945 20.497181
2813 20 2 0.5897 20.454714 28.347992 19.697698
2814 20 1 -1.1794 15.635510 31.914490 20.026990
2815 20 2 0.5897 15.123113 32.506546 20.629787
2816 20 2 0.5897 16.378956 31.644471 20.612999
2817 20 1 -1.1794 21.579260 33.466760 21.579260
2818 20 2 0.5897 21.833637 34.238442 21.016041
2819 20 2 0.5897 22.471221 33.129096 21.802092
2820 20 1 -1.1794 14.083240 25.970740 21.579260
2821 20 2 0.5897 13.296885 26.440929 21.942194
2822 20 2 0.5897 14.510964 25.641447 22.404242
2823 20 1 -1.1794 14.083240 33.466760 14.083240
2824 20 2 0.5897 13.999203 34.319755 14.550666
2825 20 2 0.5897 14.789202 33.012898 14.588060
2826 20 1 -1.1794 21.579260 25.970740 14.083240
2827 20 2 0.5897 21.066861 26.573535 14.675296
2828 20 2 0.5897 22.322705 26.556750 13.813222
2829 20 1 -1.1794 15.635510 27.523010 20.026990
2830 20 2 0.5897 15.098031 26.936188 20.613558
2831 20 2 0.5897 16.396620 27.737177 20.613582
2832 20 1 -1.1794 20.026990 31.914490 20.026990
2833 20 2 0.5897 19.761994 32.440484 19.234030
2834 20 2 0.5897 20.539295 32.581563 20.539321
2835 20 1 -1.1794 15.635510 31.914490 15.635510
2836 20 2 0.5897 15.922137 32.367251 16.460531
2837 20 2 0.5897 15.060469 31.199681 15.987563
2838 20 1 -1.1794 20.026990 27.523010 15.635510
2839 20 2 0.5897 19.264769 27.881705 15.132611
2840 20 2 0.5897 20.485326 28.365218 15.893531
2841 20 1 -1.1794 11.887500 27.454775 13.273107
2842 20 2 0.5897 11.922998 28.234067 13.876957
2843 20 2 0.5897 12.685985 26.954090 13.559256
2844 20 1 -1.1794 11.887500 31.982725 13.273107
2845 20 2 0.5897 11.128869 32.506842 13.624852
2846 20 2 0.5897 12.646872 32.554826 13.557876
2847 20 1 -1.1794 11.887500 27.454775 22.389393
2848 20 2 0.5897 11.843132 27.626890 23.356964
2849 20 2 0.5897 11.868941 28.353141 21.997446
2850 20 1 -1.1794 11.887500 31.982725 22.389393
2851 20 2 0.5897 12.093029 32.049438 23.357486
2852 20 2 0.5897 11.108049 31.404397 22.475442
2853 20 1 -1.1794 13.273107 23.775000 15.567275
2854 20 2 0.5897 12.305226 23.680341 15.708634
2855 20 2 0.5897 13.642070 23.675572 16.469468
2856 20 1 -1.1794 13.273107 23.775000 20.095225
2857 20 2 0.5897 13.604336 24.521754 20.645536
2858 20 2 0.5897 13.602206 23.003957 20.614450
2859 20 1 -1.1794 22.389393 23.775000 15.567275
2860 20 2 0.5897 21.804308 23.781667 16.359979
2861 20 2 0.5897 22.071838 24.574264 15.089235
2862 20 1 -1.1794 22.389393 23.775000 20.095225
2863 20 2 0.5897 22.193138 24.573873 20.636625
2864 20 2 0.5897 23.368428 23.841494 20.004178
2865 20 1 -1.1794 15.567275 25.160607 11.887500
2866 20 2 0.5897 15.068986 25.435080 12.690727
2867 20 2 0.5897 16.352910 25.747311 11.925497
2868 20 1 -1.1794 20.095225 25.160607 11.887500
2869 20 2 0.5897 20.668354 25.389855 12.657015
2870 20 2 0.5897 20.679541 25.428488 11.139635
2871 20 1 -1.1794 15.567275 34.276893 11.887500
2872 20 2 0.5897 15.757086 35.227377 11.991847
2873 20 2 0.5897 16.433834 33.843458 11.999636
2874 20 1 -1.1794 20.095225 34.276893 11.887500
2875 20 2 0.5897 20.009784 35.253258 11.804074
2876 20 2 0.5897 20.575217 34.051857 11.060137
2877 20 1 -1.1794 21.511025 29.718750 16.445643
2878 20 2 0.5897 21.700835 29.823098 17.396127
2879 20 2 0.5897 22.377584 29.830885 16.012208
2880 20 1 -1.1794 14.151475 29.718750 16.445643
2881 20 2 0.5897 14.066031 29.635324 17.422008
2882 20 2 0.5897 14.631467 28.891387 16.220608
2883 20 1 -1.1794 21.511025 29.718750 19.216857
2884 20 2 0.5897 21.012738 30.521978 19.491333
2885 20 2 0.5897 22.296660 29.756743 19.803561
2886 20 1 -1.1794 14.151475 29.718750 19.216857
2887 20 2 0.5897 14.724602 30.488267 19.446105
2888 20 2 0.5897 14.735793 28.970886 19.484739
2889 20 1 -1.1794 17.831250 31.104357 14.151475
2890 20 2 0.5897 17.072622 31.456106 14.675593
2891 20 2 0.5897 18.590624 31.389122 14.723575
2892 20 1 -1.1794 17.831250 31.104357 21.511025
2893 20 2 0.5897 17.866750 31.708206 22.290318
2894 20 2 0.5897 18.629737 31.390502 21.010342
2895 20 1 -1.1794 17.831250 28.333143 14.151475
2896 20 2 0.5897 18.036764 29.301242 14.218161
2897 20 2 0.5897 17.051778 28.419161 13.573181
2898 20 1 -1.1794 17.831250 28.333143 21.511025
2899 20 2 0.5897 17.786883 29.300713 21.683144
2900 20 2 0.5897 17.812692 27.941192 22.409389
2901 20 1 -1.1794 19.216857 33.398525 17.831250
2902 20 2 0.5897 18.248976 33.539884 17.736590
2903 20 2 0.5897 19.585820 34.300718 17.731822
2904 20 1 -1.1794 19.216857 26.038975 17.831250
2905 20 2 0.5897 19.548088 26.589285 18.578003
2906 20 2 0.5897 19.545958 26.558199 17.060206
2907 20 1 -1.1794 16.445643 33.398525 17.831250
2908 20 2 0.5897 15.860556 34.191229 17.837916
2909 20 2 0.5897 16.128088 32.920485 18.630514
2910 20 1 -1.1794 16.445643 26.038975 17.831250
2911 20 2 0.5897 16.249390 26.580372 18.630125
2912 20 2 0.5897 17.424678 25.947928 17.897742
2913 20 3 0.0 11.887500 23.775000 11.887500
2914 20 3 0.0 17.831250 29.718750 17.831250
2915 20 3 0.0 11.887500 26.746875 17.831250
2916 20 3 0.0 11.887500 32.690625 17.831250
2917 20 3 0.0 17.831250 23.775000 14.859375
2918 20 3 0.0 17.831250 23.775000 20.803125
2919 20 3 0.0 14.859375 29.718750 11.887500
2920 20 3 0.0 20.803125 29.718750 11.887500
2921 21 1 -1.1794 11.887500 29.718750 26.746875
2922 21 2 0.5897 11.897156 30.521382 26.176692
2923 21 2 0.5897 12.706706 29.853805 27.275477
2924 21 1 -1.1794 11.887500 29.718750 32.690625
2925 21 2 0.5897 12.168567 30.583436 33.052971
2926 21 2 0.5897 12.610734 29.587773 32.029920
2927 21 1 -1.1794 14.859375 23.775000 29.718750
2928 21 2 0.5897 14.296866 23.887795 30.516859
2929 21 2 0.5897 15.393904 24.601096 29.730505
2930 21 1 -1.1794 20.803125 23.775000 29.718750
2931 21 2 0.5897 20.240617 24.573110 29.831546
2932 21 2 0.5897 21.337653 23.786753 30.544848
2933 21 1 -1.1794 17.831250 26.746875 23.775000
2934 21 2 0.5897 18.112323 27.109227 24.639683
2935 21 2 0.5897 18.554485 26.086172 23.644021
2936 21 1 -1.1794 17.831250 32.690625 23.775000
2937 21 2 0.5897 17.840909 32.120441 24.577632
2938 21 2 0.5897 18.650455 33.219227 23.910054
2939 21 1 -1.1794 14.083240 25.970740 25.970740
2940 21 2 0.5897 13.818243 25.177781 26.496735
2941 21 2 0.5897 14.595546 26.483072 26.637811
2942 21 1 -1.1794 21.579260 33.466760 25.970740
2943 21 2 0.5897 21.865888 34.291781 26.423501
2944 21 2 0.5897 21.004218 33.818814 25.255933
2945 21 1 -1.1794 21.579260 25.970740 33.466760
2946 21 2 0.5897 21.041781 26.557308 32.879938
2947 21 2 0.5897 22.340371 26.557332 33.680926
2948 21 1 -1.1794 14.083240 33.466760 33.466760
2949 21 2 0.5897 13.321015 32.963865 33.825449
2950 21 2 0.5897 14.541573 33.724780 34.308970
2951 21 1 -1.1794 20.026990 31.914490 27.523010
2952 21 2 0.5897 19.942952 32.381915 28.376005
2953 21 2 0.5897 20.732952 32.419310 27.069149
2954 21 1 -1.1794 15.635510 27.523010 27.523010
2955 21 2 0.5897 15.889865 26.959788 28.294697
2956 21 2 0.5897 16.527481 27.745836 27.185372
2957 21 1 -1.1794 20.026990 27.523010 31.914490
2958 21 2 0.5897 19.240636 27.885945 32.384681
2959 21 2 0.5897 20.454714 28.347992 31.585198
2960 21 1 -1.1794 15.635510 31.914490 31.914490
2961 21 2 0.5897 15.123113 32.506546 32.517287
2962 21 2 0.5897 16.378956 31.644471 32.500499
2963 21 1 -1.1794 21.579260 33.466760 33.466760
2964 21 2 0.5897 21.833637 34.238442 32.903541
2965 21 2 0.5897 22.471221 33.129096 33.689592
2966 21 1 -1.1794 14.083240 25.970740 33.466760
2967 21 2 0.5897 13.296885 26.440929 33.829694
2968 21 2 0.5897 14.510964 25.641447 34.291742
2969 21 1 -1.1794 14.083240 33.466760 25.970740
2970 21 2 0.5897 13.999203 34.319755 26.438166
2971 21 2 0.5897 14.789202 33.012898 26.475560
2972 21 1 -1.1794 21.579260 25.970740 25.970740
2973 21 2 0.5897 21.066861 26.573535 26.562796
2974 21 2 0.5897 22.322705 26.556750 25.700722
2975 21 1 -1.1794 15.635510 27.523010 31.914490
2976 21 2 0.5897 15.098031 26.936188 32.501058
2977 21 2 0.5897 16.396620 27.737177 32.501082
2978 21 1 -1.1794 20.026990 31.914490 31.914490
2979 21 2 0.5897 19.761994 32.440484 31.121530
2980 21 2 0.5897 20.539295 32.581563 32.426821
2981 21 1 -1.1794 15.635510 31.914490 27.523010
2982 21 2 0.5897 15.922137 32.367251 28.348031
2983 21 2 0.5897 15.060469 31.199681 27.875063
2984 21 1 -1.1794 20.026990 27.523010 27.523010
2985 21 2 0.5897 19.264769 27.881705 27.020111
2986 21 2 0.5897 20.485326 28.365218 27.781031
2987 21 1 -1.1794 11.887500 27.454775 25.160607
2988 21 2 0.5897 11.922998 28.234067 25.764457
2989 21 2 0.5897 12.685985 26.954090 25.446756
2990 21 1 -1.1794 11.887500 31.982725 25.160607
2991 21 2 0.5897 11.128869 32.506842 25.512352
2992 21 2 0.5897 12.646872 32.554826 25.445376
2993 21 1 -1.1794 11.887500 27.454775 34.276893
2994 21 2 0.5897 11.843132 27.626890 35.244464
2995 21 2 0.5897 11.868941 28.353141 33.884946
2996 21 1 -1.1794 11.887500 31.982725 34.276893
2997 21 2 0.5897 12.093029 32.049438 35.244986
2998 21 2 0.5897 11.108049 31.404397 34.362942
2999 21 1 -1.1794 13.273107 23.775000 27.454775
3000 21 2 0.5897 12.305226 23.680341 27.596134
3001 21 2 0.5897 13.642070 23.675572 28.356968
3002 21 1 -1.1794 13.273107 23.775000 31.982725
3003 21 2 0.5897 13.604336 24.521754 32.533036
3004 21 2 0.5897 13.602206 23.003957 32.501950
3005 21 1 -1.1794 22.389393 23.775000 27.454775
3006 21 2 0.5897 21.804308 23.781667 28.247479
3007 21 2 0.5897 22.071838 24.574264 26.976735
3008 21 1 -1.1794 22.389393 23.775000 31.982725
3009 21 2 0.5897 22.193138 24.573873 32.524125
3010 21 2 0.5897 23.368428 23.841494 31.891678
3011 21 1 -1.1794 15.567275 25.160607 23.775000
3012 21 2 0.5897 15.068986 25.435080 24.578227
3013 21 2 0.5897 16.352910 25.747311 23.812997
3014 21 1 -1.1794 20.095225 25.160607 23.775000
3015 21 2 0.5897 20.668354 25.389855 24.544515
3016 21 2 0.5897 20.679541 25.428488 23.027135
3017 21 1 -1.1794 15.567275 34.276893 23.775000
3018 21 2 0.5897 15.757086 35.227377 23.879347
3019 21 2 0.5897 16.433834 33.843458 23.887136
3020 21 1 -1.1794 20.095225 34.276893 23.775000
3021 21 2 0.5897 20.009784 35.253258 23.691574
3022 21 2 0.5897 20.575217 34.051857 22.947637
3023 21 1 -1.1794 21.511025 29.718750 28.333143
3024 21 2 0.5897 21.700835 29.823098 29.283627
3025 21 2 0.5897 22.377584 29.830885 27.899708
3026 21 1 -1.1794 14.151475 29.718750 28.333143
3027 21 2 0.5897 14.066031 29.635324 29.309508
3028 21 2 0.5897 14.631467 28.891387 28.108108
3029 21 1 -1.1794 21.511025 29.718750 31.104357
3030 21 2 0.5897 21.012738 30.521978 31.378833
3031 21 2 0.5897 22.296660 29.756743 31.691061
3032 21 1 -1.1794 14.151475 29.718750 31.104357
3033 21 2 0.5897 14.724602 30.488267 31.333605
3034 21 2 0.5897 14.735793 28.970886 31.372239
3035 21 1 -1.1794 17.831250 31.104357 26.038975
3036 21 2 0.5897 17.072622 31.456106 26.563093
3037 21 2 0.5897 18.590624 31.389122 26.611075
3038 21 1 -1.1794 17.831250 31.104357 33.398525
3039 21 2 0.5897 17.866750 31.708206 34.177818
3040 21 2 0.5897 18.629737 31.390502 32.897842
3041 21 1 -1.1794 17.831250 28.333143 26.038975
3042 21 2 0.5897 18.036764 29.301242 26.105661
3043 21 2 0.5897 17.051778 28.419161 25.460681
3044 21 1 -1.1794 17.831250 28.333143 33.398525
3045 21 2 0.5897 17.786883 29.300713 33.570644
3046 21 2 0.5897 17.812692 27.941192 34.296889
3047 21 1 -1.1794 19.216857 33.398525 29.718750
3048 21 2 0.5897 18.248976 33.539884 29.624090
3049 21 2 0.5897 19.585820 34.300718 29.619322
3050 21 1 -1.1794 19.216857 26.038975 29.718750
3051 21 2 0.5897 19.548088 26.589285 30.465503
3052 21 2 0.5897 19.545958 26.558199 28.947706
3053 21 1 -1.1794 16.445643 33.398525 29.718750
3054 21 2 0.5897 15.860556 34.191229 29.725416
3055 21 2 0.5897 16.128088 32.920485 30.518014
3056 21 1 -1.1794 16.445643 26.038975 29.718750
3057 21 2 0.5897 16.249390 26.580372 30.517625
3058 21 2 0.5897 17.424678 25.947928 29.785242
3059 21 3 0.0 11.887500 23.775000 23.775000
3060 21 3 0.0 17.831250 29.718750 29.718750
3061 21 3 0.0 11.887500 26.746875 29.718750
3062 21 3 0.0 11.887500 32.690625 29.718750
3063 21 3 0.0 17.831250 23.775000 26.746875
3064 21 3 0.0 17.831250 23.775000 32.690625
3065 21 3 0.0 14.859375 29.718750 23.775000
3066 21 3 0.0 20.803125 29.718750 23.775000
3067 22 1 -1.1794 11.887500 41.606250 2.971875
3068 22 2 0.5897 11.897156 42.408882 2.401692
3069 22 2 0.5897 12.706706 41.741305 3.500477
3070 22 1 -1.1794 11.887500 41.606250 8.915625
3071 22 2 0.5897 12.168567 42.470936 9.277971
3072 22 2 0.5897 12.610734 41.475273 8.254920
3073 22 1 -1.1794 14.859375 35.662500 5.943750
3074 22 2 0.5897 14.296866 35.775295 6.741859
3075 22 2 0.5897 15.393904 36.488596 5.955505
3076 22 1 -1.1794 20.803125 35.662500 5.943750
3077 22 2 0.5897 20.240617 36.460610 6.056546
3078 22 2 0.5897 21.337653 35.674253 6.769848
3079 22 1 -1.1794 17.831250 38.634375 0.000000
3080 22 2 0.5897 18.112323 38.996727 0.864683
3081 22 2 0.5897 18.554485 37.973672 -0.130979
3082 22 1 -1.1794 17.831250 44.578125 0.000000
3083 22 2 0.5897 17.840909 44.007941 0.802632
3084 22 2 0.5897 18.650455 45.106727 0.135054
3085 22 1 -1.1794 14.083240 37.858240 2.195740
3086 22 2 0.5897 13.818243 37.065281 2.721735
3087 22 2 0.5897 14.595546 38.370572 2.862811
3088 22 1 -1.1794 21.579260 45.354260 2.195740
3089 22 2 0.5897 21.865888 46.179281 2.648501
3090 22 2 0.5897 21.004218 45.706314 1.480933
3091 22 1 -1.1794 21.579260 37.858240 9.691760
3092 22 2 0.5897 21.041781 38.444808 9.104938
3093 22 2 0.5897 22.340371 38.444832 9.905926
3094 22 1 -1.1794 14.083240 45.354260 9.691760
3095 22 2 0.5897 13.321015 44.851365 10.050449
3096 22 2 0.5897 14.541573 45.612280 10.533970
3097 22 1 -1.1794 20.026990 43.801990 3.748010
3098 22 2 0.5897 19.942952 44.269415 4.601005
3099 22 2 0.5897 20.732952 44.306810 3.294149
3100 22 1 -1.1794 15.635510 39.410510 3.748010
3101 22 2 0.5897 15.889865 38.847288 4.519697
3102 22 2 0.5897 16.527481 39.633336 3.410372
3103 22 1 -1.1794 20.026990 39.410510 8.139490
3104 22 2 0.5897 19.240636 39.773445 8.609681
3105 22 2 0.5897 20.454714 40.235492 7.810198
3106 22 1 -1.1794 15.635510 43.801990 8.139490
3107 22 2 0.5897 15.123113 44.394046 8.742287
3108 22 2 0.5897 16.378956 43.531971 8.725499
3109 22 1 -1.1794 21.579260 45.354260 9.691760
3110 22 2 0.5897 21.833637 46.125942 9.128541
3111 22 2 0.5897 22.471221 45.016596 9.914592
3112 22 1 -1.1794 14.083240 37.858240 9.691760
3113 22 2 0.5897 13.296885 38.328429 10.054694
3114 22 2 0.5897 14.510964 37.528947 10.516742
3115 22 1 -1.1794 14.083240 45.354260 2.195740
3116 22 2 0.5897 13.999203 46.207255 2.663166
3117 22 2 0.5897 14.789202 44.900398 2.700560
3118 22 1 -1.1794 21.579260 37.858240 2.195740
3119 22 2 0.5897 21.066861 38.461035 2.787796
3120 22 2 0.5897 22.322705 38.444250 1.925722
3121 22 1 -1.1794 15.635510 39.410510 8.139490
3122 22 2 0.5897 15.098031 38.823688 8.726058
3123 22 2 0.5897 16.396620 39.624677 8.726082
3124 22 1 -1.1794 20.026990 43.801990 8.139490
3125 22 2 0.5897 19.761994 44.327984 7.346530
3126 22 2 0.5897 20.539295 44.469063 8.651821
3127 22 1 -1.1794 15.635510 43.801990 3.748010
3128 22 2 0.5897 15.922137 44.254751 4.573031
3129 22 2 0.5897 15.060469 43.087181 4.100063
3130 22 1 -1.1794 20.026990 39.410510 3.748010
3131 22 2 0.5897 19.264769 39.769205 3.245111
3132 22 2 0.5897 20.485326 40.252718 4.006031
3133 22 1 -1.1794 11.887500 39.342275 1.385607
3134 22 2 0.5897 11.922998 40.121567 1.989457
3135 22 2 0.5897 12.685985 38.841590 1.671756
3136 22 1 -1.1794 11.887500 43.870225 1.385607
3137 22 2 0.5897 11.128869 44.394342 1.737352
3138 22 2 0.5897 12.646872 44.442326 1.670376
3139 22 1 -1.1794 11.887500 39.342275 10.501893
3140 22 2 0.5897 11.843132 39.514390 11.469464
3141 22 2 0.5897 11.868941 40.240641 10.109946
3142 22 1 -1.1794 11.887500 43.870225 10.501893
3143 22 2 0.5897 12.093029 43.936938 11.469986
3144 22 2 0.5897 11.108049 43.291897 10.587942
3145 22 1 -1.1794 13.273107 35.662500 3.679775
3146 22 2 0.5897 12.305226 35.567841 3.821134
3147 22 2 0.5897 13.642070 35.563072 4.581968
3148 22 1 -1.1794 13.273107 35.662500 8.207725
3149 22 2 0.5897 13.604336 36.409254 8.758036
3150 22 2 0.5897 13.602206 34.891457 8.726950
3151 22 1 -1.1794 22.389393 35.662500 3.679775
3152 22 2 0.5897 21.804308 35.669167 4.472479
3153 22 2 0.5897 22.071838 36.461764 3.201735
3154 22 1 -1.1794 22.389393 35.662500 8.207725
3155 22 2 0.5897 22.193138 36.461373 8.749125
3156 22 2 0.5897 23.368428 35.728994 8.116678
3157 22 1 -1.1794 15.567275 37.048107 0.000000
3158 22 2 0.5897 15.068986 37.322580 0.803227
3159 22 2 0.5897 16.352910 37.634811 0.037997
3160 22 1 -1.1794 20.095225 37.048107 0.000000
3161 22 2 0.5897 20.668354 37.277355 0.769515
3162 22 2 0.5897 20.679541 37.315988 -0.747865
3163 22 1 -1.1794 15.567275 46.164393 0.000000
3164 22 2 0.5897 15.757086 47.114877 0.104347
3165 22 2 0.5897 16.433834 45.730958 0.112136
3166 22 1 -1.1794 20.095225 46.164393 0.000000
3167 22 2 0.5897 20.009784 47.140758 -0.083426
3168 22 2 0.5897 20.575217 45.939357 -0.827363
3169 22 1 -1.1794 21.511025 41.606250 4.558143
3170 22 2 0.5897 21.700835 41.710598 5.508627
3171 22 2 0.5897 22.377584 41.718385 4.124708
3172 22 1 -1.1794 14.151475 41.606250 4.558143
3173 22 2 0.5897 14.066031 41.522824 5.534508
3174 22 2 0.5897 14.631467 40.778887 4.333108
3175 22 1 -1.1794 21.511025 41.606250 7.329357
3176 22 2 0.5897 21.012738 42.409478 7.603833
3177 22 2 0.5897 22.296660 41.644243 7.916061
3178 22 1 -1.1794 14.151475 41.606250 7.329357
3179 22 2 0.5897 14.724602 42.375767 7.558605
3180 22 2 0.5897 14.735793 40.858386 7.597239
3181 22 1 -1.1794 17.831250 42.991857 2.263975
3182 22 2 0.5897 17.072622 43.343606 2.788093
3183 22 2 0.5897 18.590624 43.276622 2.836075
3184 22 1 -1.1794 17.831250 42.991857 9.623525
3185 22 2 0.5897 17.866750 43.595706 10.402818
3186 22 2 0.5897 18.629737 43.278002 9.122842
3187 22 1 -1.1794 17.831250 40.220643 2.263975
3188 22 2 0.5897 18.036764 41.188742 2.330661
3189 22 2 0.5897 17.051778 40.306661 1.685681
3190 22 1 -1.1794 17.831250 40.220643 9.623525
3191 22 2 0.5897 17.786883 41.188213 9.795644
3192 22 2 0.5897 17.812692 39.828692 10.521889
3193 22 1 -1.1794 19.216857 45.286025 5.943750
3194 22 2 0.5897 18.248976 45.427384 5.849090
3195 22 2 0.5897 19.585820 46.188218 5.844322
3196 22 1 -1.1794 19.216857 37.926475 5.943750
3197 22 2 0.5897 19.548088 38.476785 6.690503
3198 22 2 0.5897 19.545958 38.445699 5.172706
3199 22 1 -1.1794 16.445643 45.286025 5.943750
3200 22 2 0.5897 15.860556 46.078729 5.950416
3201 22 2 0.5897 16.128088 44.807985 6.743014
3202 22 1 -1.1794 16.445643 37.926475 5.943750
3203 22 2 0.5897 16.249390 38.467872 6.742625
3204 22 2 0.5897 17.424678 37.835428 6.010242
3205 22 3 0.0 11.887500 35.662500 0.000000
3206 22 3 0.0 17.831250 41.606250 5.943750
3207 22 3 0.0 11.887500 38.634375 5.943750
3208 22 3 0.0 11.887500 44.578125 5.943750
3209 22 3 0.0 17.831250 35.662500 2.971875
3210 22 3 0.0 17.831250 35.662500 8.915625
3211 22 3 0.0 14.859375 41.606250 0.000000
3212 22 3 0.0 20.803125 41.606250 0.000000
3213 23 1 -1.1794 11.887500 41.606250 14.859375
3214 23 2 0.5897 11.897156 42.408882 14.289192
3215 23 2 0.5897 12.706706 41.741305 15.387977
3216 23 1 -1.1794 11.887500 41.606250 20.803125
3217 23 2 0.5897 12.168567 42.470936 21.165471
3218 23 2 0.5897 12.610734 41.475273 20.142420
3219 23 1 -1.1794 14.859375 35.662500 17.831250
3220 23 2 0.5897 14.296866 35.775295 18.629359
3221 23 2 0.5897 15.393904 36.488596 17.843005
3222 23 1 -1.1794 20.803125 35.662500 17.831250
3223 23 2 0.5897 20.240617 36.460610 17.944046
3224 23 2 0.5897 21.337653 35.674253 18.657348
3225 23 1 -1.1794 17.831250 38.634375 11.887500
3226 23 2 0.5897 18.112323 38.996727 12.752183
3227 23 2 0.5897 18.554485 37.973672 11.756521
3228 23 1 -1.1794 17.831250 44.578125 11.887500
3229 23 2 0.5897 17.840909 44.007941 12.690132
3230 23 2 0.5897 18.650455 45.106727 12.022554
3231 23 1 -1.1794 14.083240 37.858240 14.083240
3232 23 2 0.5897 13.818243 37.065281 14.609235
3233 23 2 0.5897 14.595546 38.370572 14.750311
3234 23 1 -1.1794 21.579260 45.354260 14.083240
3235 23 2 0.5897 21.865888 46.179281 14.536001
3236 23 2 0.5897 21.004218 45.706314 13.368433
3237 23 1 -1.1794 21.579260 37.858240 21.579260
3238 23 2 0.5897 21.041781 38.444808 20.992438
3239 23 2 0.5897 22.340371 38.444832 21.793426
3240 23 1 -1.1794 14.083240 45.354260 21.579260
3241 23 2 0.5897 13.321015 44.851365 21.937949
3242 23 2 0.5897 14.541573 45.612280 22.421470
3243 23 1 -1.1794 20.026990 43.801990 15.635510
3244 23 2 0.5897 19.942952 44.269415 16.488505
3245 23 2 0.5897 20.732952 44.306810 15.181649
3246 23 1 -1.1794 15.635510 39.410510 15.635510
3247 23 2 0.5897 15.889865 38.847288 16.407197
3248 23 2 0.5897 16.527481 39.633336 15.297872
3249 23 1 -1.1794 20.026990 39.410510 20.026990
3250 23 2 0.5897 19.240636 39.773445 20.497181
3251 23 2 0.5897 20.454714 40.235492 19.697698
3252 23 1 -1.1794 15.635510 43.801990 20.026990
3253 23 2 0.5897 15.123113 44.394046 20.629787
3254 23 2 0.5897 16.378956 43.531971 20.612999
3255 23 1 -1.1794 21.579260 45.354260 21.579260
3256 23 2 0.5897 21.833637 46.125942 21.016041
3257 23 2 0.5897 22.471221 45.016596 21.802092
3258 23 1 -1.1794 14.083240 37.858240 21.579260
3259 23 2 0.5897 13.296885 38.328429 21.942194
3260 23 2 0.5897 14.510964 37.528947 22.404242
3261 23 1 -1.1794 14.083240 45.354260 14.083240
3262 23 2 0.5897 13.999203 46.207255 14.550666
3263 23 2 0.5897 14.789202 44.900398 14.588060
3264 23 1 -1.1794 21.579260 37.858240 14.083240
3265 23 2 0.5897 21.066861 38.461035 14.675296
3266 23 2 0.5897 22.322705 38.444250 13.813222
3267 23 1 -1.1794 15.635510 39.410510 20.026990
3268 23 2 0.5897 15.098031 38.823688 20.613558
3269 23 2 0.5897 16.396620 39.624677 20.613582
3270 23 1 -1.1794 20.026990 43.801990 20.026990
3271 23 2 0.5897 19.761994 44.327984 19.234030
3272 23 2 0.5897 20.539295 44.469063 20.539321
3273 23 1 -1.1794 15.635510 43.801990 15.635510
3274 23 2 0.5897 15.922137 44.254751 16.460531
3275 23 2 0.5897 15.060469 43.087181 15.987563
3276 23 1 -1.1794 20.026990 39.410510 15.635510
3277 23 2 0.5897 19.264769 39.769205 15.132611
3278 23 2 0.5897 20.485326 40.252718 15.893531
3279 23 1 -1.1794 11.887500 39.342275 13.273107
3280 23 2 0.5897 11.922998 40.121567 13.876957
3281 23 2 0.5897 12.685985 38.841590 13.559256
3282 23 1 -1.1794 11.887500 43.870225 13.273107
3283 23 2 0.5897 11.128869 44.394342 13.624852
3284 23 2 0.5897 12.646872 44.442326 13.557876
3285 23 1 -1.1794 11.887500 39.342275 22.389393
3286 23 2 0.5897 11.843132 39.514390 23.356964
3287 23 2 0.5897 11.868941 40.240641 21.997446
3288 23 1 -1.1794 11.887500 43.870225 22.389393
3289 23 2 0.5897 12.093029 43.936938 23.357486
3290 23 2 0.5897 11.108049 43.291897 22.475442
3291 23 1 -1.1794 13.273107 35.662500 15.567275
3292 23 2 0.5897 12.305226 35.567841 15.708634
3293 23 2 0.5897 13.642070 35.563072 16.469468
3294 23 1 -1.1794 13.273107 35.662500 20.095225
3295 23 2 0.5897 13.604336 36.409254 20.645536
3296 23 2 0.5897 13.602206 34.891457 20.614450
3297 23 1 -1.1794 22.389393 35.662500 15.567275
3298 23 2 0.5897 21.804308 35.669167 16.359979
3299 23 2 0.5897 22.071838 36.461764 15.089235
3300 23 1 -1.1794 22.389393 35.662500 20.095225
3301 23 2 0.5897 22.193138 36.461373 20.636625
3302 23 2 0.5897 23.368428 35.728994 20.004178
3303 23 1 -1.1794 15.567275 37.048107 11.887500
3304 23 2 0.5897 15.068986 37.322580 12.690727
3305 23 2 0.5897 16.352910 37.634811 11.925497
3306 23 1 -1.1794 20.095225 37.048107 11.887500
3307 23 2 0.5897 20.668354 37.277355 12.657015
3308 23 2 0.5897 20.679541 37.315988 11.139635
3309 23 1 -1.1794 15.567275 46.164393 11.887500
3310 23 2 0.5897 15.757086 47.114877 11.991847
3311 23 2 0.5897 16.433834 45.730958 11.999636
3312 23 1 -1.1794 20.095225 46.164393 11.887500
3313 23 2 0.5897 20.009784 47.140758 11.804074
3314 23 2 0.5897 20.575217 45.939357 11.060137
3315 23 1 -1.1794 21.511025 41.606250 16.445643
3316 23 2 0.5897 21.700835 41.710598 17.396127
3317 23 2 0.5897 22.377584 41.718385 16.012208
3318 23 1 -1.1794 14.151475 41.606250 16.445643
3319 23 2 0.5897 14.066031 41.522824 17.422008
3320 23 2 0.5897 14.631467 40.778887 16.220608
3321 23 1 -1.1794 21.511025 41.606250 19.216857
3322 23 2 0.5897 21.012738 42.409478 19.491333
3323 23 2 0.5897 22.296660 41.644243 19.803561
3324 23 1 -1.1794 14.151475 41.606250 19.216857
3325 23 2 0.5897 14.724602 42.375767 19.446105
3326 23 2 0.5897 14.735793 40.858386 19.484739
3327 23 1 -1.1794 17.831250 42.991857 14.151475
3328 23 2 0.5897 17.072622 43.343606 14.675593
3329 23 2 0.5897 18.590624 43.276622 14.723575
3330 23 1 -1.1794 17.831250 42.991857 21.511025
3331 23 2 0.5897 17.866750 43.595706 22.290318
3332 23 2 0.5897 18.629737 43.278002 21.010342
3333 23 1 -1.1794 17.831250 40.220643 14.151475
3334 23 2 0.5897 18.036764 41.188742 14.218161
3335 23 2 0.5897 17.051778 40.306661 13.573181
3336 23 1 -1.1794 17.831250 40.220643 21.511025
3337 23 2 0.5897 17.786883 41.188213 21.683144
3338 23 2 0.5897 17.812692 39.828692 22.409389
3339 23 1 -1.1794 19.216857 45.286025 17.831250
3340 23 2 0.5897 18.248976 45.427384 17.736590
3341 23 2 0.5897 19.585820 46.188218 17.731822
3342 23 1 -1.1794 19.216857 37.926475 17.831250
3343 23 2 0.5897 19.548088 38.476785 18.578003
3344 23 2 0.5897 19.545958 38.445699 17.060206
3345 23 1 -1.1794 16.445643 45.286025 17.831250
3346 23 2 0.5897 15.860556 46.078729 17.837916
3347 23 2 0.5897 16.128088 44.807985 18.630514
3348 23 1 -1.1794 16.445643 37.926475 17.831250
3349 23 2 0.5897 16.249390 38.467872 18.630125
3350 23 2 0.5897 17.424678 37.835428 17.897742
3351 23 3 0.0 11.887500 35.662500 11.887500
3352 23 3 0.0 17.831250 41.606250 17.831250
3353 23 3 0.0 11.887500 38.634375 17.831250
3354 23 3 0.0 11.887500 44.578125 17.831250
3355 23 3 0.0 17.831250 35.662500 14.859375
3356 23 3 0.0 17.831250 35.662500 20.803125
3357 23 3 0.0 14.859375 41.606250 11.887500
3358 23 3 0.0 20.803125 41.606250 11.887500
3359 24 1 -1.1794 11.887500 41.606250 26.746875
3360 24 2 0.5897 11.897156 42.408882 26.176692
3361 24 2 0.5897 12.706706 41.741305 27.275477
3362 24 1 -1.1794 11.887500 41.606250 32.690625
3363 24 2 0.5897 12.168567 42.470936 33.052971
3364 24 2 0.5897 12.610734 41.475273 32.029920
3365 24 1 -1.1794 14.859375 35.662500 29.718750
3366 24 2 0.5897 14.296866 35.775295 30.516859
3367 24 2 0.5897 15.393904 36.488596 29.730505
3368 24 1 -1.1794 20.803125 35.662500 29.718750
3369 24 2 0.5897 20.240617 36.460610 29.831546
3370 24 2 0.5897 21.337653 35.674253 30.544848
3371 24 1 -1.1794 17.831250 38.634375 23.775000
3372 24 2 0.5897 18.112323 38.996727 24.639683
3373 24 2 0.5897 18.554485 37.973672 23.644021
3374 24 1 -1.1794 17.831250 44.578125 23.775000
3375 24 2 0.5897 17.840909 44.007941 24.577632
3376 24 2 0.5897 18.650455 45.106727 23.910054
3377 24 1 -1.1794 14.083240 37.858240 25.970740
3378 24 2 0.5897 13.818243 37.065281 26.496735
3379 24 2 0.5897 14.595546 38.370572 26.637811
3380 24 1 -1.1794 21.579260 45.354260 25.970740
3381 24 2 0.5897 21.865888 46.179281 26.423501
3382 24 2 0.5897 21.004218 45.706314 25.255933
3383 24 1 -1.1794 21.579260 37.858240 33.466760
3384 24 2 0.5897 21.041781 38.444808 32.879938
3385 24 2 0.5897 22.340371 38.444832 33.680926
3386 24 1 -1.1794 14.083240 45.354260 33.466760
3387 24 2 0.5897 13.321015 44.851365 33.825449
3388 24 2 0.5897 14.541573 45.612280 34.308970
3389 24 1 -1.1794 20.026990 43.801990 27.523010
3390 24 2 0.5897 19.942952 44.269415 28.376005
3391 24 2 0.5897 20.732952 44.306810 27.069149
3392 24 1 -1.1794 15.635510 39.410510 27.523010
3393 24 2 0.5897 15.889865 38.847288 28.294697
3394 24 2 0.5897 16.527481 39.633336 27.185372
3395 24 1 -1.1794 20.026990 39.410510 31.914490
3396 24 2 0.5897 19.240636 39.773445 32.384681
3397 24 2 0.5897 20.454714 40.235492 31.585198
3398 24 1 -1.1794 15.635510 43.801990 31.914490
3399 24 2 0.5897 15.123113 44.394046 32.517287
3400 24 2 0.5897 16.378956 43.531971 32.500499
3401 24 1 -1.1794 21.579260 45.354260 33.466760
3402 24 2 0.5897 21.833637 46.125942 32.903541
3403 24 2 0.5897 22.471221 45.016596 33.689592
3404 24 1 -1.1794 14.083240 37.858240 33.466760
3405 24 2 0.5897 13.296885 38.328429 33.829694
3406 24 2 0.5897 14.510964 37.528947 34.291742
3407 24 1 -1.1794 14.083240 45.354260 25.970740
3408 24 2 0.5897 13.999203 46.207255 26.438166
3409 24 2 0.5897 14.789202 44.900398 26.475560
3410 24 1 -1.1794 21.579260 37.858240 25.970740
3411 24 2 0.5897 21.066861 38.461035 26.562796
3412 24 2 0.5897 22.322705 38.444250 25.700722
3413 24 1 -1.1794 15.635510 39.410510 31.914490
3414 24 2 0.5897 15.098031 38.823688 32.501058
3415 24 2 0.5897 16.396620 39.624677 32.501082
3416 24 1 -1.1794 20.026990 43.801990 31.914490
3417 24 2 0.5897 19.761994 44.327984 31.121530
3418 24 2 0.5897 20.539295 44.469063 32.426821
3419 24 1 -1.1794 15.635510 43.801990 27.523010
3420 24 2 0.5897 15.922137 44.254751 28.348031
3421 24 2 0.5897 15.060469 43.087181 27.875063
3422 24 1 -1.1794 20.026990 39.410510 27.523010
3423 24 2 0.5897 19.264769 39.769205 27.020111
3424 24 2 0.5897 20.485326 40.252718 27.781031
3425 24 1 -1.1794 11.887500 39.342275 25.160607
3426 24 2 0.5897 11.922998 40.121567 25.764457
3427 24 2 0.5897 12.685985 38.841590 25.446756
3428 24 1 -1.1794 11.887500 43.870225 25.160607
3429 24 2 0.5897 11.128869 44.394342 25.512352
3430 24 2 0.5897 12.646872 44.442326 25.445376
3431 24 1 -1.1794 11.887500 39.342275 34.276893
3432 24 2 0.5897 11.843132 39.514390 35.244464
3433 24 2 0.5897 11.868941 40.240641 33.884946
3434 24 1 -1.1794 11.887500 43.870225 34.276893
3435 24 2 0.5897 12.093029 43.936938 35.244986
3436 24 2 0.5897 11.108049 43.291897 34.362942
3437 24 1 -1.1794 13.273107 35.662500 27.454775
3438 24 2 0.5897 12.305226 35.567841 27.596134
3439 24 2 0.5897 13.642070 35.563072 28.356968
3440 24 1 -1.1794 13.273107 35.662500 31.982725
3441 24 2 0.5897 13.604336 36.409254 32.533036
3442 24 2 0.5897 13.602206 34.891457 32.501950
3443 24 1 -1.1794 22.389393 35.662500 27.454775
3444 24 2 0.5897 21.804308 35.669167 28.247479
3445 24 2 0.5897 22.071838 36.461764 26.976735
3446 24 1 -1.1794 22.389393 35.662500 31.982725
3447 24 2 0.5897 22.193138 36.461373 32.524125
3448 24 2 0.5897 23.368428 35.728994 31.891678
3449 24 1 -1.1794 15.567275 37.048107 23.775000
3450 24 2 0.5897 15.068986 37.322580 24.578227
3451 24 2 0.5897 16.352910 37.634811 23.812997
3452 24 1 -1.1794 20.095225 37.048107 23.775000
3453 24 2 0.5897 20.668354 37.277355 24.544515
3454 24 2 0.5897 20.679541 37.315988 23.027135
3455 24 1 -1.1794 15.567275 46.164393 23.775000
3456 24 2 0.5897 15.757086 47.114877 23.879347
3457 24 2 0.5897 16.433834 45.730958 23.887136
3458 24 1 -1.1794 20.095225 46.164393 23.775000
3459 24 2 0.5897 20.009784 47.140758 23.691574
3460 24 2 0.5897 20.575217 45.939357 22.947637
3461 24 1 -1.1794 21.511025 41.606250 28.333143
3462 24 2 0.5897 21.700835 41.710598 29.283627
3463 24 2 0.5897 22.377584 41.718385 27.899708
3464 24 1 -1.1794 14.151475 41.606250 28.333143
3465 24 2 0.5897 14.066031 41.522824 29.309508
3466 24 2 0.5897 14.631467 40.778887 28.108108
3467 24 1 -1.1794 21.511025 41.606250 31.104357
3468 24 2 0.5897 21.012738 42.409478 31.378833
3469 24 2 0.5897 22.296660 41.644243 31.691061
3470 24 1 -1.1794 14.151475 41.606250 31.104357
3471 24 2 0.5897 14.724602 42.375767 31.333605
3472 24 2 0.5897 14.735793 40.858386 31.372239
3473 24 1 -1.1794 17.831250 42.991857 26.038975
3474 24 2 0.5897 17.072622 43.343606 26.563093
3475 24 2 0.5897 18.590624 43.276622 26.611075
3476 24 1 -1.1794 17.831250 42.991857 33.398525
3477 24 2 0.5897 17.866750 43.595706 34.177818
3478 24 2 0.5897 18.629737 43.278002 32.897842
3479 24 1 -1.1794 17.831250 40.220643 26.038975
3480 24 2 0.5897 18.036764 41.188742 26.105661
3481 24 2 0.5897 17.051778 40.306661 25.460681
3482 24 1 -1.1794 17.831250 40.220643 33.398525
3483 24 2 0.5897 17.786883 41.188213 33.570644
3484 24 2 0.5897 17.812692 39.828692 34.296889
3485 24 1 -1.1794 19.216857 45.286025 29.718750
3486 24 2 0.5897 18.248976 45.427384 29.624090
3487 24 2 0.5897 19.585820 46.188218 29.619322
3488 24 1 -1.1794 19.216857 37.926475 29.718750
3489 24 2 0.5897 19.548088 38.476785 30.465503
3490 24 2 0.5897 19.545958 38.445699 28.947706
3491 24 1 -1.1794 16.445643 45.286025 29.718750
3492 24 2 0.5897 15.860556 46.078729 29.725416
3493 24 2 0.5897 16.128088 44.807985 30.518014
3494 24 1 -1.1794 16.445643 37.926475 29.718750
3495 24 2 0.5897 16.249390 38.467872 30.517625
3496 24 2 0.5897 17.424678 37.835428 29.785242
3497 24 3 0.0 11.887500 35.662500 23.775000
3498 24 3 0.0 17.831250 41.606250 29.718750
3499 24 3 0.0 11.887500 38.634375 29.718750
3500 24 3 0.0 11.887500 44.578125 29.718750
3501 24 3 0.0 17.831250 35.662500 26.746875
3502 24 3 0.0 17.831250 35.662500 32.690625
3503 24 3 0.0 14.859375 41.606250 23.775000
3504 24 3 0.0 20.803125 41.606250 23.775000
3505 25 1 -1.1794 3.516411 82.224779 10.224470
3506 25 2 0.5897 4.406108 82.498755 10.589678
3507 25 2 0.5897 3.564717 81.278834 9.903763
3508 26 1 -1.1794 17.503920 66.946631 21.174436
3509 26 2 0.5897 18.349288 67.451759 21.348212
3510 26 2 0.5897 16.993619 67.393564 20.439695
3511 27 1 -1.1794 8.923313 66.056818 28.193161
3512 27 2 0.5897 9.061822 65.279200 28.806451
3513 27 2 0.5897 9.638125 66.737901 28.351816
3514 28 1 -1.1794 21.661161 93.194128 32.492021
3515 28 2 0.5897 21.774933 93.987526 33.089997
3516 28 2 0.5897 21.261858 92.439193 33.012243
3517 29 1 -1.1794 11.028710 64.491466 3.711488
3518 29 2 0.5897 11.729038 64.930836 4.274066
3519 29 2 0.5897 10.362794 64.036875 4.303014
3520 30 1 -1.1794 14.030858 57.227597 27.104844
3521 30 2 0.5897 13.073561 57.261831 27.391917
3522 30 2 0.5897 14.621521 57.242896 27.911617
3523 31 1 -1.1794 9.386144 74.050556 24.428881
3524 31 2 0.5897 10.368743 74.137744 24.592885
3525 31 2 0.5897 9.120647 73.088955 24.498412
3526 32 1 -1.1794 4.244047 80.158536 5.910880
3527 32 2 0.5897 4.204368 80.430273 6.872433
3528 32 2 0.5897 3.403782 79.674653 5.666312
3529 33 1 -1.1794 19.711256 81.075285 31.141046
3530 33 2 0.5897 19.163409 81.113482 30.305340
3531 33 2 0.5897 19.785391 80.126426 31.447918
3532 34 1 -1.1794 10.365437 66.787981 31.089421
3533 34 2 0.5897 10.248248 67.598154 30.515063
3534 34 2 0.5897 10.235822 65.965352 30.535814
3535 35 1 -1.1794 2.037368 78.572932 6.992598
3536 35 2 0.5897 1.620282 79.145110 7.698751
3537 35 2 0.5897 1.379636 78.421628 6.254698
3538 36 1 -1.1794 1.767041 82.443066 12.682643
3539 36 2 0.5897 1.604786 81.989406 13.558922
3540 36 2 0.5897 2.653867 82.904606 12.705422
3541 37 1 -1.1794 12.191211 97.028747 19.726649
3542 37 2 0.5897 11.641028 96.193705 19.728542
3543 37 2 0.5897 12.876139 96.974979 19.000026
3544 38 1 -1.1794 10.697849 63.867198 24.110481
3545 38 2 0.5897 11.617181 63.560910 23.863468
3546 38 2 0.5897 10.177985 64.065210 23.279498
3547 39 1 -1.1794 17.823634 79.823608 22.087495
3548 39 2 0.5897 17.048107 79.484811 21.554791
3549 39 2 0.5897 18.548940 80.122359 21.467269
3550 40 1 -1.1794 9.755809 88.986842 15.642203
3551 40 2 0.5897 10.055703 89.720770 15.032766
3552 40 2 0.5897 10.459716 88.277633 15.681424
3553 41 1 -1.1794 2.852991 54.162913 17.838117
3554 41 2 0.5897 2.771584 53.335131 18.393229
3555 41 2 0.5897 3.015283 54.949307 18.434142
3556 42 1 -1.1794 17.429834 59.688367 31.712176
3557 42 2 0.5897 18.252590 59.795384 31.153948
3558 42 2 0.5897 16.633757 59.584276 31.115999
3559 43 1 -1.1794 16.129924 67.392549 1.772882
3560 43 2 0.5897 16.826891 67.999174 2.155299
3561 43 2 0.5897 15.549140 67.046009 2.509495
3562 44 1 -1.1794 8.873352 79.579226 24.513721
3563 44 2 0.5897 8.626751 79.592947 23.544701
3564 44 2 0.5897 9.809772 79.912294 24.624101
3565 45 1 -1.1794 3.232993 89.107211 26.013920
3566 45 2 0.5897 2.466910 88.863078 26.608492
3567 45 2 0.5897 4.055018 88.623036 26.313670
3568 46 1 -1.1794 12.061187 67.526504 10.658155
3569 46 2 0.5897 11.423100 68.128968 11.137615
3570 46 2 0.5897 12.343712 66.786611 11.268678
3571 47 1 -1.1794 2.500837 54.730564 23.779131
3572 47 2 0.5897 2.963655 54.077746 24.378822
3573 47 2 0.5897 3.155633 55.419173 23.467589
3574 48 1 -1.1794 0.812362 83.675057 23.260517
3575 48 2 0.5897 0.060427 84.318615 23.403443
3576 48 2 0.5897 1.589710 84.155561 22.854506
3577 49 1 -1.1794 19.507393 65.836024 8.643717
3578 49 2 0.5897 18.898314 65.061123 8.474747
3579 49 2 0.5897 20.439684 65.591490 8.377190
3580 50 1 -1.1794 1.237843 78.861881 31.802768
3581 50 2 0.5897 1.641729 78.460908 30.980517
3582 50 2 0.5897 1.354099 78.233296 32.571771
3583 51 1 -1.1794 8.292444 78.984027 10.063037
3584 51 2 0.5897 8.590221 79.227178 10.986187
3585 51 2 0.5897 7.805198 79.756464 9.655690
3586 52 1 -1.1794 4.646434 85.893008 29.186605
3587 52 2 0.5897 5.220713 86.252139 28.450923
3588 52 2 0.5897 3.721075 85.736926 28.841136
3589 53 1 -1.1794 13.994475 56.531815 5.863918
3590 53 2 0.5897 14.419090 55.904015 5.211561
3591 53 2 0.5897 13.619127 57.318382 5.373585
3592 54 1 -1.1794 9.565899 62.221319 6.909509
3593 54 2 0.5897 9.468537 62.374833 5.926170
3594 54 2 0.5897 9.670631 63.100007 7.375276
3595 55 1 -1.1794 6.160085 52.837627 23.013067
3596 55 2 0.5897 5.416392 52.256091 22.683313
3597 55 2 0.5897 7.012388 52.314690 23.023889
3598 56 1 -1.1794 5.227834 81.836200 25.697868
3599 56 2 0.5897 4.826109 81.887887 26.612169
3600 56 2 0.5897 6.216123 81.975721 25.759659
3601 57 1 -1.1794 3.600539 95.290464 0.679787
3602 57 2 0.5897 4.583039 95.440927 0.569996
3603 57 2 0.5897 3.393197 95.133733 1.645419
3604 58 1 -1.1794 19.984978 50.960502 5.721857
3605 58 2 0.5897 20.648610 50.593129 6.373494
3606 58 2 0.5897 19.151780 51.224516 6.207735
3607 59 1 -1.1794 0.811399 63.010349 27.608743
3608 59 2 0.5897 0.000000 63.369889 27.147916
3609 59 2 0.5897 0.894114 62.031322 27.422555
3610 60 1 -1.1794 13.630551 98.550113 23.255945
3611 60 2 0.5897 12.741184 98.096001 23.202949
3612 60 2 0.5897 14.356232 97.882106 23.091164
3613 61 1 -1.1794 17.198418 56.387580 2.345276
3614 61 2 0.5897 16.370327 56.626609 2.852355
3615 61 2 0.5897 17.669628 55.638326 2.810658
3616 62 1 -1.1794 4.422323 52.416545 26.590184
3617 62 2 0.5897 4.991128 51.611129 26.423555
3618 62 2 0.5897 3.513989 52.126545 26.891565
3619 63 1 -1.1794 19.112434 52.649400 12.806931
3620 63 2 0.5897 18.861786 51.864503 12.240263
3621 63 2 0.5897 19.216967 53.458345 12.228414
3622 64 1 -1.1794 3.546469 85.811571 12.443425
3623 64 2 0.5897 4.123389 85.250110 13.036658
3624 64 2 0.5897 4.114734 86.260563 11.753874
3625 65 1 -1.1794 3.742708 57.469217 22.007737
3626 65 2 0.5897 3.461275 57.539010 22.964776
3627 65 2 0.5897 4.381470 56.706990 21.902886
3628 66 1 -1.1794 21.612179 77.083685 10.428475
3629 66 2 0.5897 20.932921 76.564999 9.909271
3630 66 2 0.5897 21.774998 77.962346 9.979648
3631 67 1 -1.1794 6.725298 75.336453 15.953005
3632 67 2 0.5897 6.617866 76.019411 16.675518
3633 67 2 0.5897 5.839079 75.163788 15.523117
3634 68 1 -1.1794 13.743622 63.532614 2.403047
3635 68 2 0.5897 12.780504 63.371158 2.187791
3636 68 2 0.5897 14.185690 63.989292 1.631024
3637 69 1 -1.1794 5.279170 67.988093 8.616037
3638 69 2 0.5897 5.240607 67.853446 7.625894
3639 69 2 0.5897 4.443665 68.443667 8.923256
3640 70 1 -1.1794 15.540404 53.872821 8.313262
3641 70 2 0.5897 16.181396 54.028753 7.561721
3642 70 2 0.5897 16.047675 53.618345 9.136621
3643 71 1 -1.1794 0.620873 78.885817 24.733688
3644 71 2 0.5897 0.552915 79.599570 24.036596
3645 71 2 0.5897 0.002467 78.134596 24.502946
3646 72 1 -1.1794 6.938719 71.829265 23.158889
3647 72 2 0.5897 7.106074 72.633256 23.729495
3648 72 2 0.5897 6.759994 71.037426 23.742882
3649 73 1 -1.1794 17.143289 49.639187 19.347120
3650 73 2 0.5897 17.249643 50.465427 19.900308
3651 73 2 0.5897 17.051537 48.845213 19.948107
3652 74 1 -1.1794 4.138566 93.049933 0.577076
3653 74 2 0.5897 3.327029 92.961027 -0.000422
3654 74 2 0.5897 4.950292 93.138913 -0.000144
3655 75 1 -1.1794 20.736348 59.095288 23.361889
3656 75 2 0.5897 20.246993 58.528546 22.699066
3657 75 2 0.5897 21.299005 59.764777 22.876914
3658 76 1 -1.1794 2.397688 50.117908 8.691864
3659 76 2 0.5897 2.729874 49.432972 9.340336
3660 76 2 0.5897 1.865907 50.809456 9.180711
3661 77 1 -1.1794 20.117948 56.129476 29.387037
3662 77 2 0.5897 19.119186 56.178062 29.397772
3663 77 2 0.5897 20.421024 55.371736 29.964943
3664 78 1 -1.1794 0.384829 80.109617 21.903099
3665 78 2 0.5897 -0.000016 79.845777 21.018631
3666 78 2 0.5897 0.410434 81.106960 21.971299
3667 79 1 -1.1794 14.181184 60.142645 22.977528
3668 79 2 0.5897 14.118986 59.505928 23.746112
3669 79 2 0.5897 14.673517 60.964397 23.264461
3670 80 1 -1.1794 0.556805 80.722442 18.139365
3671 80 2 0.5897 0.572535 80.825441 19.133922
3672 80 2 0.5897 -0.000397 81.449249 17.737771
3673 81 1 -1.1794 2.254838 80.314800 1.980017
3674 81 2 0.5897 1.388786 80.430058 1.493530
3675 81 2 0.5897 2.160732 79.588132 2.660529
3676 82 1 -1.1794 7.392439 50.092497 11.836771
3677 82 2 0.5897 6.428204 50.283284 12.020758
3678 82 2 0.5897 7.904845 50.107133 12.695390
3679 83 1 -1.1794 11.240732 63.819430 10.143602
3680 83 2 0.5897 12.063453 63.610839 10.672393
3681 83 2 0.5897 10.508880 63.189438 10.403413
3682 84 1 -1.1794 5.425455 71.425313 27.270069
3683 84 2 0.5897 5.430458 72.367735 26.935680
3684 84 2 0.5897 4.720870 70.904397 26.788192
3685 85 1 -1.1794 2.765733 87.718833 29.417003
3686 85 2 0.5897 3.727423 87.957832 29.282720
3687 85 2 0.5897 2.233144 88.023622 28.627413
3688 86 1 -1.1794 10.009296 53.088370 23.712477
3689 86 2 0.5897 9.137943 52.659294 23.474490
3690 86 2 0.5897 10.172154 52.989943 24.694205
3691 87 1 -1.1794 7.854989 81.778301 5.790537
3692 87 2 0.5897 8.478554 81.498586 6.520555
3693 87 2 0.5897 7.115039 82.328887 6.176967
3694 88 1 -1.1794 0.119983 83.228403 19.280086
3695 88 2 0.5897 0.120273 83.647223 20.188155
3696 88 2 0.5897 -0.001459 83.937842 18.585860
3697 89 1 -1.1794 20.491890 72.202862 19.640641
3698 89 2 0.5897 19.918503 71.623135 20.219558
3699 89 2 0.5897 21.069040 72.781963 20.216435
3700 90 1 -1.1794 9.666413 58.757914 17.220453
3701 90 2 0.5897 9.560542 58.795971 16.226801
3702 90 2 0.5897 10.545478 59.159306 17.477607
3703 91 1 -1.1794 18.039598 73.584672 13.702759
3704 91 2 0.5897 17.346989 73.077333 14.215495
3705 91 2 0.5897 18.922171 73.122145 13.787222
3706 92 1 -1.1794 19.459465 97.758259 20.515554
3707 92 2 0.5897 19.285938 96.938726 19.969427
3708 92 2 0.5897 19.549775 98.549168 19.910321
3709 93 1 -1.1794 7.431855 68.337081 24.488787
3710 93 2 0.5897 8.181752 68.141904 25.120895
3711 93 2 0.5897 6.558972 68.148431 24.938772
3712 94 1 -1.1794 20.153798 80.515399 8.210714
3713 94 2 0.5897 19.455994 81.151795 7.881972
3714 94 2 0.5897 20.257005 79.766606 7.555995
3715 95 1 -1.1794 11.310279 76.241504 30.089735
3716 95 2 0.5897 10.994876 75.514148 29.480247
3717 95 2 0.5897 12.301678 76.175270 30.202613
3718 96 1 -1.1794 15.043275 81.350862 6.616509
3719 96 2 0.5897 14.995012 80.703399 7.377075
3720 96 2 0.5897 14.167763 81.825679 6.526915
3721 97 1 -1.1794 17.867752 53.168405 20.190002
3722 97 2 0.5897 18.338072 53.041169 21.063278
3723 97 2 0.5897 16.897457 53.343951 20.356469
3724 98 1 -1.1794 21.204403 60.265457 29.690750
3725 98 2 0.5897 21.582042 61.142561 29.987530
3726 98 2 0.5897 21.774978 59.521844 30.039294
3727 99 1 -1.1794 0.080593 90.072015 28.557215
3728 99 2 0.5897 0.302285 89.096907 28.561352
3729 99 2 0.5897 -0.000071 90.399492 29.498624
3730 100 1 -1.1794 14.466259 93.535975 3.340421
3731 100 2 0.5897 13.655891 93.295602 3.874765
3732 100 2 0.5897 15.252002 93.632012 3.951474
3733 101 1 -1.1794 18.736256 95.440910 11.875460
3734 101 2 0.5897 19.144048 96.304028 12.173341
3735 101 2 0.5897 18.663276 95.433409 10.878155
3736 102 1 -1.1794 6.203182 68.641750 16.667309
3737 102 2 0.5897 5.984853 67.793588 17.149962
3738 102 2 0.5897 5.878084 68.581370 15.723559
3739 103 1 -1.1794 4.372788 76.450820 24.319574
3740 103 2 0.5897 3.974148 76.855272 25.142680
3741 103 2 0.5897 4.969236 75.690586 24.577053
3742 104 1 -1.1794 11.250385 55.660384 11.898719
3743 104 2 0.5897 12.118092 55.235457 12.156639
3744 104 2 0.5897 11.104597 56.481778 12.450133
3745 105 1 -1.1794 10.259699 68.625960 3.157256
3746 105 2 0.5897 10.869453 68.273521 2.447336
3747 105 2 0.5897 10.443792 69.598114 3.302257
3748 106 1 -1.1794 0.068337 88.871626 31.597370
3749 106 2 0.5897 0.456979 89.792848 31.579870
3750 106 2 0.5897 -0.027447 88.532441 30.661539
3751 107 1 -1.1794 15.696312 78.302769 7.915474
3752 107 2 0.5897 15.803770 77.475954 7.363361
3753 107 2 0.5897 14.850315 78.242211 8.445211
3754 108 1 -1.1794 0.421680 69.427066 19.369674
3755 108 2 0.5897 0.070468 69.669713 20.273982
3756 108 2 0.5897 -0.000002 68.572462 19.066629
3757 109 1 -1.1794 1.913291 91.040928 12.390431
3758 109 2 0.5897 2.692717 90.867909 12.992560
3759 109 2 0.5897 1.371948 91.798444 12.755283
3760 110 1 -1.1794 4.319245 64.136216 2.349258
3761 110 2 0.5897 4.462972 63.159437 2.508146
3762 110 2 0.5897 3.733111 64.260985 1.548709
3763 111 1 -1.1794 12.327421 61.926367 3.783785
3764 111 2 0.5897 12.878512 61.226408 4.238049
3765 111 2 0.5897 12.061026 62.624269 4.448590
3766 112 1 -1.1794 2.197590 63.900450 26.150594
3767 112 2 0.5897 3.085496 64.275047 26.417611
3768 112 2 0.5897 1.551463 64.648860 26.000920
3769 113 1 -1.1794 19.562883 95.418776 15.747391
3770 113 2 0.5897 19.570585 95.680601 14.782307
3771 113 2 0.5897 18.627509 95.465449 16.097961
3772 114 1 -1.1794 13.680331 53.459764 6.961401
3773 114 2 0.5897 14.465970 53.169032 6.415282
3774 114 2 0.5897 12.842719 53.346646 6.426975
3775 115 1 -1.1794 5.267134 65.823147 4.133905
3776 115 2 0.5897 4.834423 66.068421 3.266379
3777 115 2 0.5897 6.162068 66.264915 4.196634
3778 116 1 -1.1794 2.848354 59.261353 16.387465
3779 116 2 0.5897 2.305649 59.197944 15.549938
3780 116 2 0.5897 3.571522 58.570924 16.369108
3781 117 1 -1.1794 4.491760 94.914001 13.897566
3782 117 2 0.5897 5.470286 95.072230 13.765469
3783 117 2 0.5897 4.186673 95.385142 14.725182
3784 118 1 -1.1794 17.367268 69.679604 7.631909
3785 118 2 0.5897 17.251422 70.672708 7.649895
3786 118 2 0.5897 16.479526 69.238062 7.762119
3787 119 1 -1.1794 6.735008 74.135395 13.486896
3788 119 2 0.5897 6.683427 73.337945 12.885721
3789 119 2 0.5897 7.305636 73.919211 14.279138
3790 120 1 -1.1794 11.133555 49.302917 15.174992
3791 120 2 0.5897 11.584701 48.614475 14.607088
3792 120 2 0.5897 10.696566 49.984690 14.588284
3793 121 1 -1.1794 16.821192 57.949282 15.875793
3794 121 2 0.5897 17.258568 57.181206 15.408074
3795 121 2 0.5897 17.436003 58.737921 15.868271
3796 122 1 -1.1794 16.353909 63.675321 32.922642
3797 122 2 0.5897 16.257446 64.426926 33.575163
3798 122 2 0.5897 16.437266 62.811379 33.419287
3799 123 1 -1.1794 0.203475 97.507661 32.009914
3800 123 2 0.5897 0.492714 97.447758 32.965294
3801 123 2 0.5897 -0.004344 96.591750 31.666522
3802 124 1 -1.1794 7.442703 96.973623 2.308293
3803 124 2 0.5897 7.479372 96.333614 1.540801
3804 124 2 0.5897 8.109418 96.700855 3.001897
3805 125 1 -1.1794 11.646042 93.302560 10.671116
3806 125 2 0.5897 11.614229 93.157380 9.682222
3807 125 2 0.5897 11.141417 92.572292 11.131618
3808 126 1 -1.1794 21.672599 82.783934 24.443274
3809 126 2 0.5897 20.703116 82.856678 24.677395
3810 126 2 0.5897 21.775701 82.225810 23.619947
3811 127 1 -1.1794 12.302344 74.823735 33.317120
3812 127 2 0.5897 12.094992 73.965543 32.847532
3813 127 2 0.5897 12.379486 75.560842 32.645762
3814 128 1 -1.1794 21.441990 95.959504 30.076294
3815 128 2 0.5897 21.775424 95.060595 29.792068
3816 128 2 0.5897 20.443734 95.942172 30.132731
3817 129 1 -1.1794 1.647268 69.010203 15.121514
3818 129 2 0.5897 2.473436 68.847702 15.660996
3819 129 2 0.5897 1.197081 68.137969 14.930362
3820 130 1 -1.1794 6.982322 71.533868 0.839312
3821 130 2 0.5897 7.133765 70.558723 1.001048
3822 130 2 0.5897 6.011921 71.744549 0.957361
3823 131 1 -1.1794 8.496785 83.921281 4.692870
3824 131 2 0.5897 9.306411 84.495857 4.812737
3825 131 2 0.5897 8.502544 83.524558 3.774950
3826 132 1 -1.1794 19.706386 81.300244 11.412553
3827 132 2 0.5897 20.457828 80.880888 10.903166
3828 132 2 0.5897 18.987252 81.579399 10.776220
3829 133 1 -1.1794 7.503817 85.118286 33.566323
3830 133 2 0.5897 8.157556 84.368207 33.666357
3831 133 2 0.5897 7.879457 85.807405 32.946638
3832 134 1 -1.1794 3.934385 56.185581 27.665158
3833 134 2 0.5897 3.486565 57.052803 27.882836
3834 134 2 0.5897 3.488298 55.769819 26.872600
3835 135 1 -1.1794 14.746459 76.274245 0.310505
3836 135 2 0.5897 13.796046 76.290370 -0.000068
3837 135 2 0.5897 15.212682 77.102633 0.000005
3838 136 1 -1.1794 14.182649 60.784508 13.525525
3839 136 2 0.5897 14.758064 60.945271 12.723619
3840 136 2 0.5897 13.687429 61.622729 13.753870
3841 137 1 -1.1794 9.052698 62.107342 24.008383
3842 137 2 0.5897 8.729650 62.089904 23.062161
3843 137 2 0.5897 9.997662 61.782115 24.044014
3844 138 1 -1.1794 20.095203 75.665041 13.352333
3845 138 2 0.5897 19.439067 75.258256 13.987953
3846 138 2 0.5897 20.816437 76.127252 13.868262
3847 139 1 -1.1794 20.016633 93.228577 29.101139
3848 139 2 0.5897 20.379150 93.376178 30.021354
3849 139 2 0.5897 20.685605 93.538707 28.425642
3850 140 1 -1.1794 13.810713 74.220959 26.564890
3851 140 2 0.5897 13.134667 74.267146 25.829480
3852 140 2 0.5897 14.530798 73.573440 26.315499
3853 141 1 -1.1794 1.349540 78.107645 22.321652
3854 141 2 0.5897 2.108670 78.615134 21.914005
3855 141 2 0.5897 0.701691 77.845435 21.606434
3856 142 1 -1.1794 15.417841 53.085728 3.263196
3857 142 2 0.5897 14.761780 52.651022 2.646257
3858 142 2 0.5897 14.935495 53.449514 4.060067
3859 143 1 -1.1794 1.015894 49.345605 5.656109
3860 143 2 0.5897 1.150566 48.584447 5.021679
3861 143 2 0.5897 1.164871 50.210059 5.175978
3862 144 1 -1.1794 14.135015 84.332515 14.748236
3863 144 2 0.5897 13.213176 84.615129 14.483015
3864 144 2 0.5897 14.077241 83.634420 15.461906
3865 145 1 -1.1794 0.350647 94.686229 28.726036
3866 145 2 0.5897 -0.000602 93.841666 29.130186
3867 145 2 0.5897 -0.000865 95.471203 29.236188
3868 146 1 -1.1794 15.299722 67.217145 28.322429
3869 146 2 0.5897 15.448179 66.722419 27.466154
3870 146 2 0.5897 14.567045 67.886263 28.198067
3871 147 1 -1.1794 5.717110 92.509341 11.911858
3872 147 2 0.5897 6.516182 91.940623 12.106904
3873 147 2 0.5897 5.798370 93.377500 12.401446
3874 148 1 -1.1794 8.672345 94.267039 0.394921
3875 148 2 0.5897 8.540435 95.176180 -0.000125
3876 148 2 0.5897 9.423022 94.296132 1.054949
3877 149 1 -1.1794 0.862517 52.564580 16.931312
3878 149 2 0.5897 1.347935 53.311991 16.477720
3879 149 2 0.5897 0.000003 52.390448 16.456184
3880 150 1 -1.1794 4.160218 51.359558 9.130106
3881 150 2 0.5897 4.648579 50.509810 9.328680
3882 150 2 0.5897 4.819969 52.086163 8.938343
3883 151 1 -1.1794 8.900376 77.036789 19.247925
3884 151 2 0.5897 9.482649 77.549608 19.878778
3885 151 2 0.5897 8.428376 76.309610 19.746347
3886 152 1 -1.1794 6.941012 65.045247 29.354134
3887 152 2 0.5897 6.837985 64.154386 29.796572
3888 152 2 0.5897 6.048447 65.491904 29.292290
3889 153 1 -1.1794 0.150045 94.826903 26.539887
3890 153 2 0.5897 -0.004027 94.797856 25.552255
3891 153 2 0.5897 0.612709 95.680273 26.780100
3892 154 1 -1.1794 17.406098 53.165586 27.053075
3893 154 2 0.5897 17.527939 53.463676 27.999805
3894 154 2 0.5897 18.101664 53.594266 26.476515
3895 155 1 -1.1794 8.681308 49.530785 1.352295
3896 155 2 0.5897 8.533086 50.212015 0.635389
3897 155 2 0.5897 7.890864 48.920143 1.400400
3898 156 1 -1.1794 12.557879 71.425338 7.718536
3899 156 2 0.5897 11.723054 71.826589 7.341621
3900 156 2 0.5897 12.448300 70.433943 7.790154
3901 157 1 -1.1794 12.392539 78.295158 13.451962
3902 157 2 0.5897 13.079263 78.844164 13.928410
3903 157 2 0.5897 12.798252 77.426027 13.169105
3904 158 1 -1.1794 13.366969 91.305674 15.549326
3905 158 2 0.5897 13.869804 90.495114 15.849571
3906 158 2 0.5897 12.387367 91.160747 15.688523
3907 159 1 -1.1794 2.214955 92.183725 9.133471
3908 159 2 0.5897 2.054717 91.510534 9.855371
3909 159 2 0.5897 2.742987 92.948676 9.502297
3910 160 1 -1.1794 9.740151 72.814905 1.001036
3911 160 2 0.5897 10.298125 73.433796 1.553882
3912 160 2 0.5897 9.261228 72.173104 1.599971
3913 161 1 -1.1794 5.849514 60.316667 5.691025
3914 161 2 0.5897 6.303248 61.197066 5.828948
3915 161 2 0.5897 5.110591 60.214558 6.357032
3916 162 1 -1.1794 20.701409 56.566200 25.719577
3917 162 2 0.5897 21.258153 55.995877 26.323539
3918 162 2 0.5897 20.230498 57.263368 26.260132
3919 163 1 -1.1794 0.331527 58.763049 28.993382
3920 163 2 0.5897 0.096155 58.347882 28.114613
3921 163 2 0.5897 0.808570 59.627790 28.836365
3922 164 1 -1.1794 3.796382 73.886742 9.934331
3923 164 2 0.5897 2.865649 73.701244 9.619168
3924 164 2 0.5897 4.434474 73.273890 9.468229
3925 165 1 -1.1794 14.873850 55.085554 22.618470
3926 165 2 0.5897 14.722648 55.714413 23.381146
3927 165 2 0.5897 14.292863 54.279448 22.730926
3928 166 1 -1.1794 21.389028 79.684730 13.943350
3929 166 2 0.5897 20.410366 79.501351 14.036046
3930 166 2 0.5897 21.774514 79.898771 14.840895
3931 167 1 -1.1794 13.118679 70.520603 9.883735
3932 167 2 0.5897 13.366100 69.709995 10.414487
3933 167 2 0.5897 12.917991 71.277649 10.505511
3934 168 1 -1.1794 0.065308 91.502394 2.284242
3935 168 2 0.5897 0.006538 91.092601 3.194526
3936 168 2 0.5897 -0.000101 92.497240 2.361718
3937 169 1 -1.1794 7.799879 71.094901 3.121347
3938 169 2 0.5897 8.276246 71.866430 3.543030
3939 169 2 0.5897 8.469986 70.450021 2.753805
3940 170 1 -1.1794 20.505852 87.593757 3.928114
3941 170 2 0.5897 20.133227 86.756697 4.328715
3942 170 2 0.5897 19.958234 87.855362 3.133332
3943 171 1 -1.1794 11.471094 85.857109 20.513765
3944 171 2 0.5897 11.897954 85.347218 21.260627
3945 171 2 0.5897 10.613733 86.260794 20.833095
3946 172 1 -1.1794 6.941762 61.587699 12.014966
3947 172 2 0.5897 6.523079 62.375929 12.465961
3948 172 2 0.5897 7.009645 60.829714 12.663696
3949 173 1 -1.1794 17.484996 88.554958 5.092750
3950 173 2 0.5897 18.146213 89.028683 5.674451
3951 173 2 0.5897 16.713805 88.244989 5.648794
3952 174 1 -1.1794 18.316352 76.068460 16.272730
3953 174 2 0.5897 17.630562 76.340945 15.597864
3954 174 2 0.5897 19.229403 76.280836 15.924544
3955 175 1 -1.1794 14.111115 52.471448 10.350882
3956 175 2 0.5897 14.153891 53.464975 10.245644
3957 175 2 0.5897 14.346661 52.033902 9.483085
3958 176 1 -1.1794 21.775025 49.647839 18.508008
3959 176 2 0.5897 21.774684 50.462434 19.088038
3960 176 2 0.5897 21.774684 48.829462 19.082689
3961 177 1 -1.1794 17.216068 69.956351 1.122184
3962 177 2 0.5897 16.645062 70.357240 0.405775
3963 177 2 0.5897 18.050717 69.585698 0.714781
3964 178 1 -1.1794 18.942169 59.386364 13.387677
3965 178 2 0.5897 18.371211 58.727124 13.876971
3966 178 2 0.5897 18.459926 60.259828 13.320579
3967 179 1 -1.1794 17.902571 81.593813 27.963030
3968 179 2 0.5897 17.885421 81.609950 26.963307
3969 179 2 0.5897 17.027327 81.252703 28.305945
3970 180 1 -1.1794 12.281447 91.568432 33.395694
3971 180 2 0.5897 12.294325 92.342953 32.763275
3972 180 2 0.5897 11.830269 90.789682 32.959819
3973 181 1 -1.1794 20.097836 93.932092 18.253092
3974 181 2 0.5897 20.485982 93.873967 19.172855
3975 181 2 0.5897 20.688932 93.444632 17.610451
3976 182 1 -1.1794 16.116451 73.555286 7.765357
3977 182 2 0.5897 16.442310 73.013273 8.539978
3978 182 2 0.5897 16.634955 73.310902 6.945948
3979 183 1 -1.1794 2.372645 97.755214 1.589427
3980 183 2 0.5897 2.657736 97.276622 0.758961
3981 183 2 0.5897 1.377259 97.851062 1.593840
3982 184 1 -1.1794 3.778694 49.197281 7.247693
3983 184 2 0.5897 4.243400 48.549911 6.643573
3984 184 2 0.5897 3.295559 49.878553 6.697739
3985 185 1 -1.1794 17.900516 61.270042 7.329463
3986 185 2 0.5897 17.231130 62.003077 7.450217
3987 185 2 0.5897 17.662591 60.731193 6.521358
3988 186 1 -1.1794 5.765101 65.249791 13.418371
3989 186 2 0.5897 5.872864 65.618236 14.341754
3990 186 2 0.5897 6.251309 64.378769 13.348211
3991 187 1 -1.1794 17.121551 64.703128 2.621527
3992 187 2 0.5897 16.931287 64.815539 3.596803
3993 187 2 0.5897 17.319129 65.595361 2.215470
3994 188 1 -1.1794 13.443547 92.980185 8.473209
3995 188 2 0.5897 12.914269 92.285494 7.986105
3996 188 2 0.5897 13.656049 93.734033 7.851472
3997 189 1 -1.1794 6.849275 48.549693 5.736106
3998 189 2 0.5897 7.689645 48.585678 5.195289
3999 189 2 0.5897 6.058365 48.562992 5.124318
4000 190 1 -1.1794 5.500229 81.513292 30.889778
4001 190 2 0.5897 4.932512 81.569487 30.068473
4002 190 2 0.5897 5.103706 82.084112 31.608759
4003 191 1 -1.1794 16.608692 84.289961 2.674580
4004 191 2 0.5897 17.069568 83.408751 2.779758
4005 191 2 0.5897 17.120488 84.859062 2.031006
4006 192 1 -1.1794 13.492837 96.112389 1.413588
4007 192 2 0.5897 13.939859 96.369619 0.556848
4008 192 2 0.5897 12.964393 96.887616 1.759666
4009 193 1 -1.1794 -0.003315 92.183028 23.860710
4010 193 2 0.5897 0.239677 93.100909 24.174479
4011 193 2 0.5897 0.130963 91.529663 24.605749
4012 194 1 -1.1794 15.638180 61.883884 10.053463
4013 194 2 0.5897 16.524667 62.175437 9.694104
4014 194 2 0.5897 15.778563 61.228055 10.795205
4015 195 1 -1.1794 21.775028 68.234710 5.925386
4016 195 2 0.5897 21.767362 69.195775 6.201602
4017 195 2 0.5897 21.441271 67.668601 6.679129
4018 196 1 -1.1794 19.151969 78.840940 27.422630
4019 196 2 0.5897 19.054485 78.296285 28.255606
4020 196 2 0.5897 18.369553 79.457352 27.333967
4021 197 1 -1.1794 2.411087 91.276417 4.745561
4022 197 2 0.5897 1.659386 91.880321 4.480523
4023 197 2 0.5897 2.074658 90.337495 4.817958
4024 198 1 -1.1794 17.973022 52.754452 17.303744
4025 198 2 0.5897 17.506720 53.270520 18.022239
4026 198 2 0.5897 17.628212 51.815877 17.290201
4027 199 1 -1.1794 10.583096 82.425017 17.176298
4028 199 2 0.5897 9.809501 83.052127 17.085288
4029 199 2 0.5897 10.323838 81.659072 17.764613
4030 200 1 -1.1794 4.903379 87.149990 17.360172
4031 200 2 0.5897 4.716975 87.933975 16.768038
4032 200 2 0.5897 5.594817 86.566995 16.933524
4033 201 1 -1.1794 19.003370 84.380518 18.755464
4034 201 2 0.5897 18.885713 85.126701 18.100203
4035 201 2 0.5897 19.075997 83.513064 18.263277
4036 202 1 -1.1794 10.616792 90.880320 28.582821
4037 202 2 0.5897 11.408347 90.289879 28.740364
4038 202 2 0.5897 10.803513 91.489508 27.812090
4039 203 1 -1.1794 14.430948 73.949250 2.228473
4040 203 2 0.5897 15.109329 73.559919 2.851546
4041 203 2 0.5897 13.935523 74.683904 2.691979
4042 204 1 -1.1794 10.950933 60.881768 19.684499
4043 204 2 0.5897 11.722123 60.546959 19.143048
4044 204 2 0.5897 10.201046 61.137051 19.074171
4045 205 1 -1.1794 3.597452 71.965925 19.324783
4046 205 2 0.5897 4.062334 71.153966 18.971785
4047 205 2 0.5897 3.546561 72.659639 18.606333
4048 206 1 -1.1794 4.124010 68.622551 19.624585
4049 206 2 0.5897 3.494294 68.425638 20.376039
4050 206 2 0.5897 4.257211 67.796934 19.076303
4051 207 1 -1.1794 15.083723 73.540582 11.103776
4052 207 2 0.5897 16.067748 73.559536 10.926754
4053 207 2 0.5897 14.870802 74.149074 11.868238
4054 208 1 -1.1794 2.307526 98.081619 26.558878
4055 208 2 0.5897 2.051290 97.228114 26.105147
4056 208 2 0.5897 3.005366 98.550486 26.017414
4057 209 1 -1.1794 13.844200 95.087790 18.415072
4058 209 2 0.5897 13.874894 94.460306 19.193097
4059 209 2 0.5897 14.709607 95.585073 18.353585
4060 210 1 -1.1794 0.601228 92.739462 27.066012
4061 210 2 0.5897 1.512002 92.331015 27.005496
4062 210 2 0.5897 0.018529 92.170241 27.646055
4063 211 1 -1.1794 8.008368 60.664049 27.509839
4064 211 2 0.5897 8.159758 61.161364 26.655580
4065 211 2 0.5897 7.026169 60.552761 27.661166
4066 212 1 -1.1794 13.404351 96.423914 3.958551
4067 212 2 0.5897 13.902373 95.557732 3.999805
4068 212 2 0.5897 13.232673 96.754217 4.886682
4069 213 1 -1.1794 7.895008 68.199525 5.217136
4070 213 2 0.5897 6.932415 68.455855 5.129334
4071 213 2 0.5897 7.964814 67.326924 5.700554
4072 214 1 -1.1794 0.550924 66.131485 1.494646
4073 214 2 0.5897 0.091047 66.366539 2.350953
4074 214 2 0.5897 0.205642 66.715180 0.759745
4075 215 1 -1.1794 6.143315 60.759885 14.702899
4076 215 2 0.5897 5.273710 60.286838 14.844373
4077 215 2 0.5897 5.969075 61.721768 14.492137
4078 216 1 -1.1794 16.578908 50.621729 25.446875
4079 216 2 0.5897 16.736586 51.580873 25.681782
4080 216 2 0.5897 15.654290 50.358739 25.722406
4081 217 1 -1.1794 14.515497 56.490451 17.977224
4082 217 2 0.5897 14.794572 57.375612 17.604923
4083 217 2 0.5897 14.644843 56.490184 18.968824
4084 218 1 -1.1794 16.078943 86.986368 18.507877
4085 218 2 0.5897 15.219250 87.250379 18.945171
4086 218 2 0.5897 16.706403 86.624812 19.197493
4087 219 1 -1.1794 18.782660 60.143124 9.000351
4088 219 2 0.5897 19.577220 60.643577 9.344183
4089 219 2 0.5897 19.086622 59.423131 8.376479
4090 220 1 -1.1794 15.746709 85.345354 26.857698
4091 220 2 0.5897 16.492726 84.798806 26.477246
4092 220 2 0.5897 15.026527 85.449642 26.171796
4093 221 1 -1.1794 14.651033 79.684739 21.890098
4094 221 2 0.5897 15.136862 79.879701 22.742131
4095 221 2 0.5897 13.667059 79.657190 22.066265
4096 222 1 -1.1794 19.768353 92.302927 22.436053
4097 222 2 0.5897 19.741807 92.855480 23.269108
4098 222 2 0.5897 19.500579 91.363602 22.650450
4099 223 1 -1.1794 7.767456 85.356935 0.626545
4100 223 2 0.5897 8.156750 86.246957 0.863844
4101 223 2 0.5897 6.849898 85.484206 0.249862
4102 224 1 -1.1794 2.280959 68.602478 23.186786
4103 224 2 0.5897 3.061919 68.443971 22.582654
4104 224 2 0.5897 1.446468 68.675455 22.640618
4105 225 1 -1.1794 8.893933 82.499931 15.162629
4106 225 2 0.5897 8.493520 83.385208 14.926085
4107 225 2 0.5897 9.170112 82.025069 14.327026
4108 226 1 -1.1794 19.992563 94.955443 21.574850
4109 226 2 0.5897 19.361852 94.811957 22.337487
4110 226 2 0.5897 20.556094 94.138807 21.450199
4111 227 1 -1.1794 4.174466 80.685219 2.989026
4112 227 2 0.5897 4.443151 80.533632 2.037801
4113 227 2 0.5897 4.393618 81.624919 3.251582
4114 228 1 -1.1794 11.250393 91.491744 13.502406
4115 228 2 0.5897 10.711725 91.714264 14.315007
4116 228 2 0.5897 12.178246 91.848993 13.609465
4117 229 1 -1.1794 21.775010 69.553908 25.553573
4118 229 2 0.5897 21.598883 68.584910 25.726842
4119 229 2 0.5897 21.400916 69.806312 24.661190
4120 230 1 -1.1794 19.150798 60.119478 16.157149
4121 230 2 0.5897 18.737909 60.828607 15.585608
4122 230 2 0.5897 19.581383 59.430376 15.574281
4123 231 1 -1.1794 0.966935 67.601013 10.716280
4124 231 2 0.5897 1.310882 68.227047 11.416124
4125 231 2 0.5897 -0.000005 67.410431 10.885709
4126 232 1 -1.1794 11.848561 80.936232 13.571540
4127 232 2 0.5897 11.373075 80.223732 14.087539
4128 232 2 0.5897 11.753244 81.811301 14.046059
4129 233 1 -1.1794 0.199620 96.868820 11.968200
4130 233 2 0.5897 0.060021 96.530396 12.898781
4131 233 2 0.5897 0.000082 97.848189 11.936257
4132 234 1 -1.1794 21.743623 83.969538 31.228162
4133 234 2 0.5897 21.667011 84.530901 30.404146
4134 234 2 0.5897 21.787064 83.004159 30.970954
4135 235 1 -1.1794 21.079979 65.652600 22.603734
4136 235 2 0.5897 21.775017 65.064077 22.190743
4137 235 2 0.5897 20.236557 65.597943 22.069269
4138 236 1 -1.1794 21.777484 87.174483 13.631546
4139 236 2 0.5897 21.582056 87.611404 14.509560
4140 236 2 0.5897 21.723741 87.855373 12.901136
4141 237 1 -1.1794 19.630678 49.996163 18.854996
4142 237 2 0.5897 19.187332 49.127344 18.634550
4143 237 2 0.5897 19.017779 50.751456 18.622859
4144 238 1 -1.1794 18.175389 87.159498 17.649781
4145 238 2 0.5897 17.653704 87.938721 17.302424
4146 238 2 0.5897 18.635866 87.418514 18.498823
4147 239 1 -1.1794 0.838919 83.974965 0.540814
4148 239 2 0.5897 0.221474 83.617386 1.241456
4149 239 2 0.5897 1.772714 83.674072 0.734437
4150 240 1 -1.1794 5.629569 61.751849 9.636895
4151 240 2 0.5897 6.554729 61.753124 9.257320
4152 240 2 0.5897 5.009736 61.289663 9.002709
4153 241 1 -1.1794 13.987547 91.798932 31.465039
4154 241 2 0.5897 14.458300 92.391500 30.811392
4155 241 2 0.5897 13.206686 91.363096 31.017486
4156 242 1 -1.1794 11.328518 53.960251 31.810237
4157 242 2 0.5897 11.039423 53.208483 32.402917
4158 242 2 0.5897 12.231019 53.757145 31.430448
4159 243 1 -1.1794 1.528023 95.406823 33.383479
4160 243 2 0.5897 1.650659 95.228783 32.407128
4161 243 2 0.5897 0.613179 95.115476 33.663082
4162 244 1 -1.1794 5.932404 77.549727 19.427699
4163 244 2 0.5897 6.875462 77.881871 19.409700
4164 244 2 0.5897 5.796708 76.891370 18.687326
4165 245 1 -1.1794 13.310645 78.436943 6.468465
4166 245 2 0.5897 13.371260 79.259105 7.034482
4167 245 2 0.5897 12.366190 78.309798 6.165416
4168 246 1 -1.1794 15.597450 59.943147 33.023137
4169 246 2 0.5897 15.825396 59.208810 33.662503
4170 246 2 0.5897 15.172456 60.698901 33.521350
4171 247 1 -1.1794 6.933830 98.103615 30.882757
4172 247 2 0.5897 7.053739 98.324989 31.850546
4173 247 2 0.5897 7.650164 98.550961 30.347270
4174 248 1 -1.1794 7.243052 50.872576 3.506933
4175 248 2 0.5897 6.495217 50.316576 3.869709
4176 248 2 0.5897 7.282602 50.770321 2.512961
4177 249 1 -1.1794 0.948612 57.383685 5.827364
4178 249 2 0.5897 1.437984 57.797656 5.059806
4179 249 2 0.5897 0.167794 56.862576 5.482737
4180 250 1 -1.1794 20.794502 70.220253 27.841591
4181 250 2 0.5897 21.496550 70.760236 27.377320
4182 250 2 0.5897 20.285610 69.684971 27.167423
4183 251 1 -1.1794 12.014967 87.500212 22.019706
4184 251 2 0.5897 11.200129 87.438768 22.596128
4185 251 2 0.5897 12.763119 86.990692 22.444746
4186 252 1 -1.1794 1.400311 54.311910 5.388254
4187 252 2 0.5897 1.391112 55.107130 5.994506
4188 252 2 0.5897 1.378857 53.475259 5.935570
4189 253 1 -1.1794 19.076434 75.545581 9.314065
4190 253 2 0.5897 19.219165 76.189272 8.562207
4191 253 2 0.5897 19.328418 74.624645 9.016777
4192 254 1 -1.1794 3.684323 80.091751 16.831361
4193 254 2 0.5897 4.601661 79.875637 17.165705
4194 254 2 0.5897 3.056850 79.353489 17.078841
4195 255 1 -1.1794 10.504915 61.580831 26.604030
4196 255 2 0.5897 11.228850 61.229144 27.197524
4197 255 2 0.5897 10.882314 62.279258 25.995942
4198 256 1 -1.1794 19.000492 65.526351 25.291602
4199 256 2 0.5897 18.423071 64.881050 25.791773
4200 256 2 0.5897 18.968128 65.314709 24.314790
4201 257 1 -1.1794 12.281668 83.743411 30.428610
4202 257 2 0.5897 13.007653 84.289288 30.010324
4203 257 2 0.5897 11.630219 83.459943 29.724863
4204 258 1 -1.1794 8.157942 85.801465 23.219137
4205 258 2 0.5897 8.952909 85.756768 22.614134
4206 258 2 0.5897 8.201552 85.054488 23.882555
4207 259 1 -1.1794 6.614454 66.848776 12.168696
4208 259 2 0.5897 7.325193 66.737274 11.474133
4209 259 2 0.5897 7.039956 67.038571 13.053527
4210 260 1 -1.1794 0.249688 97.930127 6.412818
4211 260 2 0.5897 0.024376 98.550252 7.164270
4212 260 2 0.5897 0.974640 97.305149 6.702381
4213 261 1 -1.1794 9.313066 88.049800 23.836720
4214 261 2 0.5897 9.692196 87.193724 24.187995
4215 261 2 0.5897 9.076026 87.938175 22.871654
4216 262 1 -1.1794 16.549970 97.912197 23.393288
4217 262 2 0.5897 16.203332 97.426975 24.196035
4218 262 2 0.5897 16.843298 97.249545 22.704194
4219 263 1 -1.1794 8.454550 94.291070 33.138962
4220 263 2 0.5897 8.051396 94.560265 32.264319
4221 263 2 0.5897 8.567830 93.297777 33.162119
4222 264 1 -1.1794 7.632330 91.236393 19.178338
4223 264 2 0.5897 7.846674 92.022248 18.598262
4224 264 2 0.5897 6.890265 90.709122 18.764424
4225 265 1 -1.1794 3.854140 70.843821 30.034925
4226 265 2 0.5897 3.350200 70.594895 29.207833
4227 265 2 0.5897 3.832660 71.836690 30.152186
4228 266 1 -1.1794 17.035836 65.730046 23.348724
4229 266 2 0.5897 17.408191 66.658035 23.362447
4230 266 2 0.5897 16.422844 65.628416 22.565199
4231 267 1 -1.1794 4.428866 80.563480 20.690063
4232 267 2 0.5897 4.914485 80.145755 19.922157
4233 267 2 0.5897 4.210888 81.514103 20.469151
4234 268 1 -1.1794 15.188551 79.228922 10.435878
4235 268 2 0.5897 15.243248 78.516409 11.135401
4236 268 2 0.5897 15.951674 79.865375 10.547993
4237 269 1 -1.1794 16.429657 87.647097 32.969194
4238 269 2 0.5897 17.065515 87.309143 33.663074
4239 269 2 0.5897 15.490840 87.537114 33.295579
4240 270 1 -1.1794 1.068615 54.592346 14.710617
4241 270 2 0.5897 1.631378 53.842990 14.361671
4242 270 2 0.5897 0.205412 54.623527 14.206724
4243 271 1 -1.1794 14.439898 68.397654 31.283149
4244 271 2 0.5897 15.018010 67.941450 30.606641
4245 271 2 0.5897 14.799103 69.312904 31.465605
4246 272 1 -1.1794 5.396998 53.060394 12.870385
4247 272 2 0.5897 5.997126 52.527690 13.467104
4248 272 2 0.5897 4.885832 53.723182 13.417579
4249 273 1 -1.1794 9.087631 71.457532 16.361625
4250 273 2 0.5897 8.288654 72.052239 16.450841
4251 273 2 0.5897 9.357022 71.123487 17.264865
4252 274 1 -1.1794 21.060353 49.341804 23.921859
4253 274 2 0.5897 20.479697 48.550000 23.732426
4254 274 2 0.5897 21.397750 49.721423 23.060434
4255 275 1 -1.1794 21.684035 53.634427 32.434007
4256 275 2 0.5897 20.802564 53.881331 32.836559
4257 275 2 0.5897 21.580953 52.800578 31.891727
4258 276 1 -1.1794 16.279346 49.835577 2.612101
4259 276 2 0.5897 15.611609 49.183619 2.971376
4260 276 2 0.5897 15.868842 50.746670 2.574730
4261 277 1 -1.1794 12.863780 91.870433 1.276852
4262 277 2 0.5897 12.101615 91.493434 0.750567
4263 277 2 0.5897 12.617150 91.900969 2.245480
4264 278 1 -1.1794 20.986193 48.980356 26.615875
4265 278 2 0.5897 20.874623 49.961542 26.458312
4266 278 2 0.5897 21.775000 48.825880 27.210788
4267 279 1 -1.1794 0.623788 85.853748 21.778198
4268 279 2 0.5897 -0.003994 85.680244 21.019392
4269 279 2 0.5897 1.560851 85.898633 21.431936
4270 280 1 -1.1794 3.074880 52.563832 7.595503
4271 280 2 0.5897 2.638454 51.965936 6.923154
4272 280 2 0.5897 2.430795 53.275222 7.876712
4273 281 1 -1.1794 12.949691 61.216497 24.607927
4274 281 2 0.5897 12.175114 61.420120 24.009122
4275 281 2 0.5897 13.329985 62.070477 24.963026
4276 282 1 -1.1794 11.666836 67.829505 6.084830
4277 282 2 0.5897 10.883109 67.381422 6.514939
4278 282 2 0.5897 11.371064 68.284394 5.244833
4279 283 1 -1.1794 13.283628 82.835390 12.767929
4280 283 2 0.5897 12.521556 82.856189 12.120770
4281 283 2 0.5897 14.065680 82.375559 12.347274
4282 284 1 -1.1794 2.144914 60.220162 30.792346
4283 284 2 0.5897 2.607537 61.055030 31.090635
4284 284 2 0.5897 1.210305 60.211769 31.147924
4285 285 1 -1.1794 21.774297 64.045078 30.677540
4286 285 2 0.5897 21.377590 63.147492 30.869799
4287 285 2 0.5897 21.059505 64.742730 30.726058
4288 286 1 -1.1794 19.212548 66.269370 5.386280
4289 286 2 0.5897 19.457662 66.892020 6.129399
4290 286 2 0.5897 19.425618 65.329908 5.654630
4291 287 1 -1.1794 5.801539 86.148409 5.319763
4292 287 2 0.5897 6.270145 85.492048 5.911032
4293 287 2 0.5897 5.568551 86.965259 5.847467
4294 288 1 -1.1794 1.341545 61.019173 6.892485
4295 288 2 0.5897 0.855698 61.889646 6.813570
4296 288 2 0.5897 1.814298 60.822259 6.033572
4297 289 1 -1.1794 11.383140 80.390469 27.115209
4298 289 2 0.5897 11.383174 80.463016 26.117844
4299 289 2 0.5897 10.472063 80.608263 27.465214
4300 290 1 -1.1794 12.657463 65.023105 16.276233
4301 290 2 0.5897 13.464830 64.490200 16.529551
4302 290 2 0.5897 11.984383 64.979785 17.014533
4303 291 1 -1.1794 17.240850 80.283803 31.443438
4304 291 2 0.5897 17.122873 81.266217 31.298716
4305 291 2 0.5897 17.388218 79.832563 30.563287
4306 292 1 -1.1794 21.430235 59.975626 16.657399
4307 292 2 0.5897 21.775000 59.773130 17.573987
4308 292 2 0.5897 21.342913 60.965476 16.545280
4309 293 1 -1.1794 17.347694 58.932619 11.940455
4310 293 2 0.5897 18.142717 58.526474 11.489919
4311 293 2 0.5897 16.720825 59.292667 11.249513
4312 294 1 -1.1794 14.636757 55.203222 1.948744
4313 294 2 0.5897 15.142836 55.585466 1.175586
4314 294 2 0.5897 13.953743 54.554935 1.612268
4315 295 1 -1.1794 16.801488 60.413033 18.648483
4316 295 2 0.5897 16.139608 61.154608 18.757949
4317 295 2 0.5897 16.356434 59.630651 18.212816
4318 296 1 -1.1794 7.294604 52.961644 25.671616
4319 296 2 0.5897 6.558938 52.508816 25.167888
4320 296 2 0.5897 6.969262 53.211881 26.583501
4321 297 1 -1.1794 12.137905 84.335994 33.355295
4322 297 2 0.5897 13.066066 84.707617 33.334967
4323 297 2 0.5897 12.081566 83.546370 32.744296
4324 298 1 -1.1794 20.029074 84.145272 22.520857
4325 298 2 0.5897 20.135197 84.569121 23.420351
4326 298 2 0.5897 19.967916 83.152619 22.625262
4327 299 1 -1.1794 16.788652 95.768596 26.634676
4328 299 2 0.5897 16.588095 94.817151 26.401163
4329 299 2 0.5897 17.109556 96.251273 25.819787
4330 300 1 -1.1794 21.185467 59.210379 33.574312
4331 300 2 0.5897 21.658347 58.936553 32.736813
4332 300 2 0.5897 20.266132 59.532241 33.347976
4333 301 1 -1.1794 11.983912 74.831068 16.852928
4334 301 2 0.5897 11.845257 74.531682 17.796932
4335 301 2 0.5897 11.123656 75.184712 16.485646
4336 302 1 -1.1794 9.451883 85.238229 28.114423
4337 302 2 0.5897 9.229063 85.334936 27.144372
4338 302 2 0.5897 10.434839 85.085689 28.217035
4339 303 1 -1.1794 17.812499 78.542158 7.364003
4340 303 2 0.5897 18.066069 79.459672 7.670384
4341 303 2 0.5897 17.874798 77.905108 8.132304
4342 304 1 -1.1794 14.879761 75.840144 27.978677
4343 304 2 0.5897 15.024229 76.805238 28.197131
4344 304 2 0.5897 15.764534 75.385584 27.875947
4345 305 1 -1.1794 7.795623 81.933919 11.150800
4346 305 2 0.5897 7.412677 81.043413 11.396467
4347 305 2 0.5897 8.135064 82.389301 11.973847
4348 306 1 -1.1794 16.202575 98.418413 20.954012
4349 306 2 0.5897 15.413943 98.549996 20.353391
4350 306 2 0.5897 17.045051 98.549998 20.431594
4351 307 1 -1.1794 1.616978 61.021569 13.215537
4352 307 2 0.5897 1.488942 60.030042 13.193601
4353 307 2 0.5897 1.880943 61.343757 12.306406
4354 308 1 -1.1794 5.164295 89.520789 1.945652
4355 308 2 0.5897 5.319673 89.897066 2.859037
4356 308 2 0.5897 4.945138 90.262948 1.312273
4357 309 1 -1.1794 13.697521 90.367677 24.987787
4358 309 2 0.5897 14.583204 90.482295 24.537867
4359 309 2 0.5897 13.222531 89.581112 24.593201
4360 310 1 -1.1794 3.061260 95.095265 29.225548
4361 310 2 0.5897 3.018719 94.445888 28.466272
4362 310 2 0.5897 2.250870 95.680924 29.209051
4363 311 1 -1.1794 21.775000 56.404953 9.406860
4364 311 2 0.5897 21.525640 56.620962 8.462847
4365 311 2 0.5897 21.474310 55.476993 9.627032
4366 312 1 -1.1794 10.343222 55.976943 19.263685
4367 312 2 0.5897 10.105485 55.714971 20.199020
4368 312 2 0.5897 9.518042 55.981376 18.698832
4369 313 1 -1.1794 7.728366 49.892597 23.511928
4370 313 2 0.5897 6.777295 50.196277 23.568869
4371 313 2 0.5897 8.333408 50.636872 23.794734
4372 314 1 -1.1794 11.105059 62.556983 21.974466
4373 314 2 0.5897 11.439505 61.650194 21.717793
4374 314 2 0.5897 10.653040 62.980116 21.189204
4375 315 1 -1.1794 15.120151 83.916265 21.057054
4376 315 2 0.5897 15.523755 83.027024 20.841753
4377 315 2 0.5897 14.510456 83.823769 21.844274
4378 316 1 -1.1794 3.272603 91.311849 17.776495
4379 316 2 0.5897 4.242758 91.502755 17.626981
4380 316 2 0.5897 3.168477 90.722471 18.577614
4381 317 1 -1.1794 8.206214 98.552155 6.736322
4382 317 2 0.5897 8.162353 97.942669 5.944740
4383 317 2 0.5897 7.371391 98.455272 7.278248
4384 318 1 -1.1794 1.051333 62.764088 19.445796
4385 318 2 0.5897 1.610452 63.283084 18.799245
4386 318 2 0.5897 0.478209 62.115436 18.945018
4387 319 1 -1.1794 10.096081 98.454515 -0.000045
4388 319 2 0.5897 9.146403 98.550033 0.298265
4389 319 2 0.5897 10.703897 98.543934 0.788982
4390 320 1 -1.1794 10.546568 93.017563 4.527545
4391 320 2 0.5897 10.708449 92.670985 3.603598
4392 320 2 0.5897 10.429373 92.248725 5.156157
4393 321 1 -1.1794 1.392365 63.855859 23.880678
4394 321 2 0.5897 0.644826 63.203892 24.007662
4395 321 2 0.5897 2.202162 63.373533 23.546626
4396 322 1 -1.1794 17.854007 85.045656 21.384257
4397 322 2 0.5897 18.681533 84.766687 20.897044
4398 322 2 0.5897 17.091575 85.104248 20.739848
4399 323 1 -1.1794 13.814444 78.162951 1.948170
4400 323 2 0.5897 14.301248 77.324123 2.191869
4401 323 2 0.5897 13.113672 77.955338 1.265664
4402 324 1 -1.1794 20.539446 66.929424 31.290871
4403 324 2 0.5897 21.062393 66.924140 30.438522
4404 324 2 0.5897 19.589064 67.172963 31.097319
4405 325 1 -1.1794 6.018919 81.449987 16.271152
4406 325 2 0.5897 6.849057 81.717840 15.782146
4407 325 2 0.5897 5.221626 81.847733 15.817145
4408 326 1 -1.1794 4.292714 59.112380 4.155353
4409 326 2 0.5897 4.642628 59.965161 3.767635
4410 326 2 0.5897 3.411137 59.283306 4.595360
4411 327 1 -1.1794 11.570575 74.136394 3.238371
4412 327 2 0.5897 12.094008 74.678640 3.895628
4413 327 2 0.5897 10.762232 73.756686 3.688264
4414 328 1 -1.1794 10.299639 96.298095 0.803200
4415 328 2 0.5897 9.641023 96.725061 1.422816
4416 328 2 0.5897 11.046129 95.897699 1.334647
4417 329 1 -1.1794 1.447807 88.878484 20.904067
4418 329 2 0.5897 1.193146 89.274765 20.021962
4419 329 2 0.5897 1.848186 87.973561 20.759809
4420 330 1 -1.1794 21.285551 50.680762 14.730564
4421 330 2 0.5897 20.954901 49.860339 15.197015
4422 330 2 0.5897 21.024394 51.490788 15.255592
4423 331 1 -1.1794 17.944230 78.918457 11.110182
4424 331 2 0.5897 17.667955 78.525523 10.233098
4425 331 2 0.5897 17.329604 78.593981 11.829174
4426 332 1 -1.1794 14.144965 80.387311 4.286350
4427 332 2 0.5897 14.694853 80.105893 3.499948
4428 332 2 0.5897 13.965434 81.369623 4.233134
4429 333 1 -1.1794 0.788998 64.066318 14.150369
4430 333 2 0.5897 0.583360 65.037380 14.028914
4431 333 2 0.5897 -0.000058 63.520674 13.868120
4432 334 1 -1.1794 2.301928 91.673435 28.950043
4433 334 2 0.5897 2.183902 90.812999 29.445744
4434 334 2 0.5897 1.606027 92.327320 29.246952
4435 335 1 -1.1794 0.748706 57.764277 30.908812
4436 335 2 0.5897 -0.000043 58.374763 31.167037
4437 335 2 0.5897 0.389212 56.844869 30.749270
4438 336 1 -1.1794 6.711023 76.101628 4.870684
4439 336 2 0.5897 7.145693 75.256365 4.559891
4440 336 2 0.5897 6.713213 76.770436 4.127252
4441 337 1 -1.1794 21.771020 90.237827 6.613012
4442 337 2 0.5897 21.775000 89.541671 7.330892
4443 337 2 0.5897 21.091094 89.998114 5.920020
4444 338 1 -1.1794 2.785279 76.411353 33.331772
4445 338 2 0.5897 2.638997 75.422252 33.315070
4446 338 2 0.5897 3.705753 76.606489 33.670374
4447 339 1 -1.1794 7.942096 64.614904 11.959894
4448 339 2 0.5897 8.222206 63.656450 11.906017
4449 339 2 0.5897 8.744677 65.187890 12.125883
4450 340 1 -1.1794 16.442332 94.030137 13.217401
4451 340 2 0.5897 16.113667 93.129749 13.502499
4452 340 2 0.5897 16.374130 94.668097 13.984445
4453 341 1 -1.1794 13.803770 77.780776 20.210509
4454 341 2 0.5897 14.535652 77.954564 19.551612
4455 341 2 0.5897 13.546287 76.815122 20.175673
4456 342 1 -1.1794 14.562878 66.618565 24.305078
4457 342 2 0.5897 14.582205 66.741796 23.312888
4458 342 2 0.5897 15.498620 66.604343 24.657476
4459 343 1 -1.1794 16.251455 56.060581 12.518377
4460 343 2 0.5897 16.558369 55.539857 13.315026
4461 343 2 0.5897 16.033835 56.996436 12.795537
4462 344 1 -1.1794 12.713282 71.108551 18.462613
4463 344 2 0.5897 11.926652 71.616591 18.111745
4464 344 2 0.5897 13.548438 71.634525 18.301785
4465 345 1 -1.1794 6.857788 77.163856 13.560686
4466 345 2 0.5897 6.929602 77.805707 14.324145
4467 345 2 0.5897 7.170233 76.260418 13.854248
4468 346 1 -1.1794 10.626393 54.445095 17.477383
4469 346 2 0.5897 10.324260 53.539422 17.179939
4470 346 2 0.5897 11.476396 54.358888 17.997059
4471 347 1 -1.1794 17.614048 83.438639 29.126424
4472 347 2 0.5897 17.311929 83.058736 30.000722
4473 347 2 0.5897 17.867092 84.398222 29.249590
4474 348 1 -1.1794 10.171503 70.717368 11.255634
4475 348 2 0.5897 9.829111 71.495060 10.728411
4476 348 2 0.5897 10.944064 70.302849 10.774673
4477 349 1 -1.1794 6.412431 64.027760 3.151227
4478 349 2 0.5897 6.956194 63.236254 3.430224
4479 349 2 0.5897 7.021270 64.757368 2.839799
4480 350 1 -1.1794 8.209538 87.097454 16.174522
4481 350 2 0.5897 7.471518 86.545989 15.785659
4482 350 2 0.5897 7.880928 87.561646 16.997043
4483 351 1 -1.1794 20.504113 76.204067 19.071316
4484 351 2 0.5897 20.019479 75.335334 19.173452
4485 351 2 0.5897 21.485220 76.030398 18.986060
4486 352 1 -1.1794 18.137660 58.821229 24.714473
4487 352 2 0.5897 18.788958 59.481877 24.341172
4488 352 2 0.5897 17.205499 59.120773 24.511128
4489 353 1 -1.1794 10.457714 55.546376 28.277964
4490 353 2 0.5897 9.801532 56.125136 27.793751
4491 353 2 0.5897 10.110124 54.609569 28.317635
4492 354 1 -1.1794 8.626775 83.208028 26.664362
4493 354 2 0.5897 8.063355 82.408767 26.873506
4494 354 2 0.5897 9.486892 83.151388 27.171305
4495 355 1 -1.1794 18.197186 49.384229 15.657368
4496 355 2 0.5897 18.637403 50.186183 16.061198
4497 355 2 0.5897 18.272458 48.610520 16.286422
4498 356 1 -1.1794 17.003031 73.714350 16.740054
4499 356 2 0.5897 16.693961 74.665161 16.760920
4500 356 2 0.5897 16.372495 73.170995 16.185808
4501 357 1 -1.1794 4.178130 95.995436 6.091789
4502 357 2 0.5897 4.231811 96.234237 5.122206
4503 357 2 0.5897 4.197922 95.000631 6.191642
4504 358 1 -1.1794 5.332432 57.844909 5.665917
4505 358 2 0.5897 5.668987 58.044114 6.586269
4506 358 2 0.5897 4.750448 57.032143 5.692499
4507 359 1 -1.1794 20.850658 75.661488 6.488464
4508 359 2 0.5897 20.191867 75.061806 6.942751
4509 359 2 0.5897 21.775000 75.305091 6.624743
4510 360 1 -1.1794 16.441214 63.277397 11.596430
4511 360 2 0.5897 17.331850 63.052713 11.991759
4512 360 2 0.5897 16.081761 64.102606 12.032117
4513 361 1 -1.1794 3.937667 83.695180 6.047508
4514 361 2 0.5897 4.004298 82.916047 5.424200
4515 361 2 0.5897 3.744400 84.525110 5.524187
4516 362 1 -1.1794 19.272276 97.295760 5.568272
4517 362 2 0.5897 19.710754 98.194438 5.557568
4518 362 2 0.5897 19.335897 96.883003 4.659656
4519 363 1 -1.1794 15.010572 76.882682 21.815914
4520 363 2 0.5897 15.549483 77.684950 22.072707
4521 363 2 0.5897 14.623641 76.464138 22.637562
4522 364 1 -1.1794 7.257722 64.069534 9.424561
4523 364 2 0.5897 6.661081 63.755244 10.162966
4524 364 2 0.5897 8.200842 64.113790 9.754056
4525 365 1 -1.1794 14.730955 71.393141 2.804159
4526 365 2 0.5897 15.512104 71.253476 2.195636
4527 365 2 0.5897 13.895808 71.080575 2.351576
4528 366 1 -1.1794 12.222038 84.020111 3.176590
4529 366 2 0.5897 11.415666 84.289962 3.702845
4530 366 2 0.5897 12.918384 83.657685 3.796065
4531 367 1 -1.1794 15.583700 65.530875 18.457594
4532 367 2 0.5897 16.142535 65.743654 19.259110
4533 367 2 0.5897 14.900974 64.841820 18.700676
4534 368 1 -1.1794 20.739569 56.303021 3.551126
4535 368 2 0.5897 20.930473 56.905526 2.776178
4536 368 2 0.5897 20.139671 55.559585 3.255450
4537 369 1 -1.1794 12.784803 81.782883 1.555967
4538 369 2 0.5897 13.377749 81.207501 2.119305
4539 369 2 0.5897 12.016208 82.108980 2.106350
4540 370 1 -1.1794 11.056574 60.186790 0.736056
4541 370 2 0.5897 10.712383 60.769622 -0.000041
4542 370 2 0.5897 11.530254 59.398542 0.343256
4543 371 1 -1.1794 8.276109 93.372856 13.195694
4544 371 2 0.5897 7.981589 94.130470 12.613217
4545 371 2 0.5897 8.548861 92.599223 12.623768
4546 372 1 -1.1794 18.991571 70.705261 3.790833
4547 372 2 0.5897 19.433343 71.296961 4.465168
4548 372 2 0.5897 17.999247 70.752656 3.905054
4549 373 1 -1.1794 11.629726 97.097470 16.941413
4550 373 2 0.5897 11.061941 96.975941 17.755569
4551 373 2 0.5897 12.257949 97.862271 17.084294
4552 374 1 -1.1794 3.727695 72.136686 7.664354
4553 374 2 0.5897 3.675809 73.102481 7.410290
4554 374 2 0.5897 3.718669 71.573687 6.837946
4555 375 1 -1.1794 19.073407 74.107016 29.716252
4556 375 2 0.5897 19.128313 73.566496 28.876714
4557 375 2 0.5897 18.151270 74.038595 30.097015
4558 376 1 -1.1794 3.010019 77.164756 17.296341
4559 376 2 0.5897 3.905298 77.407943 17.669616
4560 376 2 0.5897 2.831769 76.194944 17.462749
4561 377 1 -1.1794 3.904446 93.622002 19.720219
4562 377 2 0.5897 4.839697 93.287728 19.603750
4563 377 2 0.5897 3.554183 93.945421 18.841177
4564 378 1 -1.1794 6.220046 60.161032 17.427802
4565 378 2 0.5897 6.421809 60.969593 16.875064
4566 378 2 0.5897 5.781062 59.467688 16.856341
4567 379 1 -1.1794 6.083873 80.072738 24.665728
4568 379 2 0.5897 5.141894 79.792787 24.850939
4569 379 2 0.5897 6.655657 79.260951 24.547132
4570 380 1 -1.1794 16.124922 79.143915 27.134945
4571 380 2 0.5897 16.253902 79.748366 26.348813
4572 380 2 0.5897 16.553571 78.259702 26.949400
4573 381 1 -1.1794 7.280619 67.076097 8.567012
4574 381 2 0.5897 7.486808 67.812253 7.922373
4575 381 2 0.5897 6.835725 66.323214 8.081999
4576 382 1 -1.1794 10.526373 80.350142 33.355901
4577 382 2 0.5897 11.319798 80.701738 32.859054
4578 382 2 0.5897 9.961402 81.114880 33.665715
4579 383 1 -1.1794 15.192663 90.347941 29.493769
4580 383 2 0.5897 14.584104 91.029943 29.088147
4581 383 2 0.5897 14.778605 89.986646 30.329246
4582 384 1 -1.1794 10.166041 71.719757 5.608447
4583 384 2 0.5897 10.514394 71.043313 4.959545
4584 384 2 0.5897 10.703643 72.559756 5.535054
4585 385 1 -1.1794 2.978737 55.344637 15.969409
4586 385 2 0.5897 3.727118 55.969990 16.190453
4587 385 2 0.5897 3.354005 54.485680 15.621033
4588 386 1 -1.1794 6.349957 74.955659 33.190059
4589 386 2 0.5897 5.929792 74.239067 32.633321
4590 386 2 0.5897 5.672061 75.663203 33.389653
4591 387 1 -1.1794 13.077598 87.492454 14.274616
4592 387 2 0.5897 13.163593 86.763538 14.953796
4593 387 2 0.5897 12.175272 87.916320 14.353012
4594 388 1 -1.1794 5.162655 69.555833 2.853613
4595 388 2 0.5897 5.958986 68.995603 3.081649
4596 388 2 0.5897 4.565908 69.627856 3.652804
4597 389 1 -1.1794 3.328467 73.447472 1.092949
4598 389 2 0.5897 3.554825 73.755963 2.016851
4599 389 2 0.5897 3.939754 72.700366 0.831874
4600 390 1 -1.1794 15.059517 63.715348 20.651319
4601 390 2 0.5897 14.802237 62.749162 20.634233
4602 390 2 0.5897 15.994437 63.817382 20.311446
4603 391 1 -1.1794 9.455523 91.287808 25.258074
4604 391 2 0.5897 8.629437 91.806386 25.037483
4605 391 2 0.5897 9.259164 90.308826 25.202965
4606 392 1 -1.1794 7.718756 56.213445 32.611279
4607 392 2 0.5897 7.675891 56.032836 33.593900
4608 392 2 0.5897 6.991265 56.850905 32.357503
4609 393 1 -1.1794 1.297885 88.592463 10.749047
4610 393 2 0.5897 0.912460 89.383067 11.224854
4611 393 2 0.5897 1.744650 88.895309 9.907212
4612 394 1 -1.1794 0.682700 72.260852 13.454904
4613 394 2 0.5897 0.035833 71.818703 14.076247
4614 394 2 0.5897 1.529167 71.729456 13.421561
4615 395 1 -1.1794 15.113623 97.744690 18.235774
4616 395 2 0.5897 16.013793 97.442617 18.549537
4617 395 2 0.5897 15.217153 98.549327 17.651103
4618 396 1 -1.1794 15.406636 90.053879 10.174771
4619 396 2 0.5897 15.114051 89.160598 10.516009
4620 396 2 0.5897 14.890027 90.280843 9.349179
4621 397 1 -1.1794 7.328929 85.989504 19.464291
4622 397 2 0.5897 6.683464 86.430229 18.840483
4623 397 2 0.5897 8.221850 86.433238 19.388190
4624 398 1 -1.1794 17.739158 80.475148 13.561085
4625 398 2 0.5897 18.021828 80.536706 12.603845
4626 398 2 0.5897 18.512105 80.705309 14.152338
4627 399 1 -1.1794 15.459474 81.903183 9.161730
4628 399 2 0.5897 16.304928 81.392790 9.004544
4629 399 2 0.5897 15.251623 81.910697 10.139861
4630 400 1 -1.1794 5.112521 94.274411 33.440647
4631 400 2 0.5897 6.100595 94.410043 33.367754
4632 400 2 0.5897 4.922852 93.318005 33.662712
4633 401 1 -1.1794 10.738006 81.470572 19.916636
4634 401 2 0.5897 11.097538 82.138112 20.568654
4635 401 2 0.5897 10.487014 80.632800 20.401550
4636 402 1 -1.1794 12.382751 65.912749 30.065339
4637 402 2 0.5897 12.217043 64.999333 29.693570
4638 402 2 0.5897 12.030657 66.600098 29.430059
4639 403 1 -1.1794 0.230236 68.586374 7.427676
4640 403 2 0.5897 0.123075 69.458124 7.905765
4641 403 2 0.5897 0.401898 68.757223 6.457448
4642 404 1 -1.1794 16.406766 90.741962 13.924232
4643 404 2 0.5897 17.137141 91.336138 14.261140
4644 404 2 0.5897 15.969739 90.280451 14.696252
4645 405 1 -1.1794 17.171786 77.899139 20.006982
4646 405 2 0.5897 17.276531 77.267652 20.775261
4647 405 2 0.5897 16.659225 77.450917 19.274604
4648 406 1 -1.1794 0.150250 81.768551 26.280947
4649 406 2 0.5897 0.009073 81.061333 25.588191
4650 406 2 0.5897 0.971579 82.293831 26.058463
4651 407 1 -1.1794 6.362651 57.467600 24.201584
4652 407 2 0.5897 6.858287 56.657552 24.514900
4653 407 2 0.5897 5.537469 57.185002 23.712489
4654 408 1 -1.1794 5.538289 69.717090 10.631791
4655 408 2 0.5897 5.420713 70.220825 9.775972
4656 408 2 0.5897 6.071274 68.888519 10.460337
4657 409 1 -1.1794 12.810315 84.179156 27.732685
4658 409 2 0.5897 12.165686 83.428204 27.589422
4659 409 2 0.5897 13.168584 84.483827 26.850177
4660 410 1 -1.1794 14.606335 56.018885 10.339676
4661 410 2 0.5897 14.515786 56.199789 9.360353
4662 410 2 0.5897 15.308458 55.322109 10.486396
4663 411 1 -1.1794 18.375675 87.829631 21.805358
4664 411 2 0.5897 18.868067 88.631312 21.466452
4665 411 2 0.5897 18.200167 87.201275 21.047489
4666 412 1 -1.1794 8.749743 52.279864 32.130889
4667 412 2 0.5897 7.978413 52.843060 32.427301
4668 412 2 0.5897 9.279075 51.992802 32.929265
4669 413 1 -1.1794 11.925685 52.763261 14.755120
4670 413 2 0.5897 11.854924 52.874531 15.746387
4671 413 2 0.5897 12.810598 53.109157 14.443213
4672 414 1 -1.1794 11.545828 61.612106 15.807121
4673 414 2 0.5897 12.530685 61.619086 15.633893
4674 414 2 0.5897 11.352684 61.048790 16.610469
4675 415 1 -1.1794 17.159095 48.571343 22.192653
4676 415 2 0.5897 18.042263 48.560730 22.661590
4677 415 2 0.5897 16.422498 48.549985 22.868648
4678 416 1 -1.1794 18.936682 97.999948 7.958672
4679 416 2 0.5897 18.681971 97.042724 8.095949
4680 416 2 0.5897 19.242237 98.391333 8.826690
4681 417 1 -1.1794 12.231777 56.596595 17.612636
4682 417 2 0.5897 12.400738 56.278484 18.545512
4683 417 2 0.5897 11.324514 57.014102 17.562031
4684 418 1 -1.1794 9.531162 75.810394 25.749755
4685 418 2 0.5897 10.073113 76.633114 25.578231
4686 418 2 0.5897 8.581056 76.067842 25.925878
4687 419 1 -1.1794 12.444331 72.363412 4.204199
4688 419 2 0.5897 13.441039 72.391733 4.280171
4689 419 2 0.5897 12.176019 71.594773 3.623507
4690 420 1 -1.1794 0.894303 60.328568 10.622397
4691 420 2 0.5897 1.439145 59.599536 11.036714
4692 420 2 0.5897 -0.000007 60.370572 11.067870
4693 421 1 -1.1794 20.604337 73.426707 23.110271
4694 421 2 0.5897 20.786582 74.269821 23.616182
4695 421 2 0.5897 21.454193 73.091879 22.703288
4696 422 1 -1.1794 8.744470 88.300033 2.403405
4697 422 2 0.5897 9.228898 88.807808 1.691019
4698 422 2 0.5897 9.203988 87.425905 2.560703
4699 423 1 -1.1794 2.701777 83.224474 3.407790
4700 423 2 0.5897 2.645882 82.749392 2.529626
4701 423 2 0.5897 2.638942 84.211128 3.257572
4702 424 1 -1.1794 20.202053 84.383796 4.798063
4703 424 2 0.5897 19.812615 83.495396 5.041134
4704 424 2 0.5897 20.922998 84.621091 5.449161
4705 425 1 -1.1794 5.271160 97.977310 8.001004
4706 425 2 0.5897 5.211801 97.012124 7.746264
4707 425 2 0.5897 5.175016 98.544450 7.183013
4708 426 1 -1.1794 8.666807 52.453276 1.984777
4709 426 2 0.5897 9.288810 52.193583 1.246081
4710 426 2 0.5897 9.178549 52.930679 2.699064
4711 427 1 -1.1794 16.160668 56.628296 7.865052
4712 427 2 0.5897 15.887812 56.144161 7.033690
4713 427 2 0.5897 16.537540 55.975658 8.522343
4714 428 1 -1.1794 19.403868 90.860202 24.789709
4715 428 2 0.5897 19.607142 89.960413 24.403628
4716 428 2 0.5897 18.417205 90.949278 24.925951
4717 429 1 -1.1794 1.177020 61.661093 16.908536
4718 429 2 0.5897 1.188310 60.989716 16.167506
4719 429 2 0.5897 0.860271 62.541571 16.555791
4720 430 1 -1.1794 5.006535 59.154696 9.851586
4721 430 2 0.5897 4.167987 59.611158 10.149043
4722 430 2 0.5897 5.799058 59.638215 10.223227
4723 431 1 -1.1794 10.238153 95.314212 24.940801
4724 431 2 0.5897 10.639234 96.186056 25.221912
4725 431 2 0.5897 10.620056 94.576648 25.497711
4726 432 1 -1.1794 17.300822 52.268012 6.777865
4727 432 2 0.5897 16.744594 52.565761 6.002006
4728 432 2 0.5897 16.706657 51.893597 7.489750
4729 433 1 -1.1794 17.521174 97.740810 2.509912
4730 433 2 0.5897 18.110675 98.169089 3.194795
4731 433 2 0.5897 16.824919 97.188247 2.968065
4732 434 1 -1.1794 13.530625 54.767881 26.313100
4733 434 2 0.5897 13.440245 55.081922 27.258197
4734 434 2 0.5897 13.954877 55.486564 25.762188
4735 435 1 -1.1794 2.271336 62.493280 32.808539
4736 435 2 0.5897 1.564019 62.689613 32.129455
4737 435 2 0.5897 1.841358 62.200246 33.662501
4738 436 1 -1.1794 9.193523 49.546837 8.409029
4739 436 2 0.5897 9.042474 48.558358 8.418671
4740 436 2 0.5897 9.337349 49.871177 9.343972
4741 437 1 -1.1794 8.249406 50.909805 17.129936
4742 437 2 0.5897 7.655603 50.114852 17.254226
4743 437 2 0.5897 9.163049 50.701182 17.478840
4744 438 1 -1.1794 6.326338 83.492724 24.168838
4745 438 2 0.5897 5.329313 83.415654 24.169752
4746 438 2 0.5897 6.622718 83.993032 24.982381
4747 439 1 -1.1794 5.237338 54.814166 25.449911
4748 439 2 0.5897 6.080555 54.644102 24.939947
4749 439 2 0.5897 4.811648 55.656281 25.118809
4750 440 1 -1.1794 18.091362 64.902841 10.571334
4751 440 2 0.5897 18.886609 64.583909 11.086955
4752 440 2 0.5897 17.535601 65.498966 11.150786
4753 441 1 -1.1794 18.035607 82.434895 15.425548
4754 441 2 0.5897 17.371443 83.180590 15.372384
4755 441 2 0.5897 18.231198 82.230499 16.384696
4756 442 1 -1.1794 19.698436 68.411381 4.422219
4757 442 2 0.5897 19.790504 68.926160 5.274583
4758 442 2 0.5897 18.775033 68.532252 4.057916
4759 443 1 -1.1794 21.168743 90.539786 14.399536
4760 443 2 0.5897 21.630582 89.792311 14.877014
4761 443 2 0.5897 21.000736 90.275282 13.449899
4762 444 1 -1.1794 9.095893 52.586564 9.446234
4763 444 2 0.5897 10.083296 52.454739 9.533742
4764 444 2 0.5897 8.752031 53.072705 10.249618
4765 445 1 -1.1794 20.072802 90.963533 16.890826
4766 445 2 0.5897 19.376336 90.291625 16.638884
4767 445 2 0.5897 19.980158 91.192265 17.859897
4768 446 1 -1.1794 4.190246 80.788010 11.955727
4769 446 2 0.5897 3.207890 80.804990 12.141976
4770 446 2 0.5897 4.678131 80.469539 12.768466
4771 447 1 -1.1794 10.656022 84.242548 7.792244
4772 447 2 0.5897 10.347613 83.425265 7.305487
4773 447 2 0.5897 11.648428 84.205947 7.909672
4774 448 1 -1.1794 18.957625 89.482995 19.226529
4775 448 2 0.5897 19.910038 89.367102 19.508447
4776 448 2 0.5897 18.658603 90.413733 19.437034
4777 449 1 -1.1794 11.469363 64.504659 6.832019
4778 449 2 0.5897 12.130844 64.038593 6.244459
4779 449 2 0.5897 10.793983 64.976148 6.264957
4780 450 1 -1.1794 15.308322 82.582257 25.718800
4781 450 2 0.5897 14.926778 83.259466 26.347936
4782 450 2 0.5897 15.830486 81.903973 26.235787
4783 451 1 -1.1794 18.540662 71.042295 16.721269
4784 451 2 0.5897 19.081378 70.575864 16.021220
4785 451 2 0.5897 18.231176 71.925812 16.369678
4786 452 1 -1.1794 19.001109 49.230538 29.491107
4787 452 2 0.5897 18.511088 50.007598 29.886148
4788 452 2 0.5897 19.181009 48.552659 30.203930
4789 453 1 -1.1794 7.511987 54.469174 2.129402
4790 453 2 0.5897 6.901670 55.197550 2.440819
4791 453 2 0.5897 7.934314 54.735837 1.263070
4792 454 1 -1.1794 9.072974 82.513911 24.366734
4793 454 2 0.5897 9.416979 81.864007 23.689028
4794 454 2 0.5897 8.154335 82.241807 24.653199
4795 455 1 -1.1794 0.904610 98.553890 29.183599
4796 455 2 0.5897 1.451662 97.724521 29.070101
4797 455 2 0.5897 0.453356 98.536033 30.075816
4798 456 1 -1.1794 15.113846 51.159544 28.563519
4799 456 2 0.5897 15.650185 51.389434 27.751428
4800 456 2 0.5897 14.270143 51.696329 28.568695
4801 457 1 -1.1794 15.789665 50.439167 21.777514
4802 457 2 0.5897 14.986205 50.262317 22.346001
4803 457 2 0.5897 16.563181 50.686040 22.361231
4804 458 1 -1.1794 14.710839 71.977839 7.152012
4805 458 2 0.5897 14.129762 72.137501 6.353978
4806 458 2 0.5897 15.176649 71.098339 7.054546
4807 459 1 -1.1794 15.334936 58.271422 20.186420
4808 459 2 0.5897 14.807906 58.637415 19.419421
4809 459 2 0.5897 16.308627 58.286306 19.959036
4810 460 1 -1.1794 21.014294 89.887520 9.427594
4811 460 2 0.5897 21.775002 89.440013 9.897766
4812 460 2 0.5897 20.486662 90.425840 10.084722
4813 461 1 -1.1794 1.889318 56.797609 0.958545
4814 461 2 0.5897 2.096575 57.710201 0.606095
4815 461 2 0.5897 1.261360 56.333667 0.333704
4816 462 1 -1.1794 18.318535 86.791840 2.099077
4817 462 2 0.5897 18.245398 86.475708 3.044969
4818 462 2 0.5897 17.408930 87.022325 1.753397
4819 463 1 -1.1794 2.680319 66.934134 27.016184
4820 463 2 0.5897 2.815538 66.442729 26.155814
4821 463 2 0.5897 1.729373 66.836687 27.309793
4822 464 1 -1.1794 11.746913 55.815115 30.127271
4823 464 2 0.5897 12.339314 55.896444 30.928799
4824 464 2 0.5897 11.017701 56.497277 30.181159
4825 465 1 -1.1794 0.015012 90.809551 21.068681
4826 465 2 0.5897 0.218886 91.748336 21.346385
4827 465 2 0.5897 -0.000386 90.219140 21.875637
4828 466 1 -1.1794 -0.009676 92.304169 10.773230
4829 466 2 0.5897 0.234710 92.745120 9.909611
4830 466 2 0.5897 0.017007 91.311001 10.659633
4831 467 1 -1.1794 0.248826 74.372133 15.523006
4832 467 2 0.5897 0.000000 73.410380 15.637540
4833 467 2 0.5897 1.121671 74.547128 15.978547
4834 468 1 -1.1794 20.223571 57.031038 31.395928
4835 468 2 0.5897 20.623791 57.897270 31.096818
4836 468 2 0.5897 20.170422 57.015580 32.394395
4837 469 1 -1.1794 10.980146 88.789731 3.457173
4838 469 2 0.5897 11.245788 88.387493 2.581023
4839 469 2 0.5897 11.690982 89.423532 3.762146
4840 470 1 -1.1794 16.975367 56.363298 19.123887
4841 470 2 0.5897 16.675675 56.136216 18.197270
4842 470 2 0.5897 17.927898 56.083584 19.244072
4843 471 1 -1.1794 9.256336 66.578717 1.920708
4844 471 2 0.5897 10.195096 66.236536 1.961236
4845 471 2 0.5897 8.768371 66.125717 1.174597
4846 472 1 -1.1794 12.724143 82.510327 22.592523
4847 472 2 0.5897 12.370874 81.623107 22.295804
4848 472 2 0.5897 12.400184 83.223067 21.970387
4849 473 1 -1.1794 7.383481 50.151472 19.437002
4850 473 2 0.5897 8.130270 50.135805 20.101878
4851 473 2 0.5897 6.515048 50.285767 19.914275
4852 474 1 -1.1794 18.447956 80.645681 19.033650
4853 474 2 0.5897 17.912195 79.873847 19.376042
4854 474 2 0.5897 18.033912 80.991391 18.191599
4855 475 1 -1.1794 21.307818 94.184061 11.021939
4856 475 2 0.5897 21.774987 93.515784 11.600869
4857 475 2 0.5897 20.838058 94.853237 11.597724
4858 476 1 -1.1794 20.901375 94.276676 0.794899
4859 476 2 0.5897 21.041561 93.621976 0.052124
4860 476 2 0.5897 20.995710 93.808939 1.673718
4861 477 1 -1.1794 16.527806 91.315958 23.557003
4862 477 2 0.5897 15.795849 91.264400 22.877607
4863 477 2 0.5897 17.367658 91.635902 23.118500
4864 478 1 -1.1794 4.339562 56.515379 8.859236
4865 478 2 0.5897 4.756871 57.377984 8.573290
4866 478 2 0.5897 4.935417 56.059997 9.520737
4867 479 1 -1.1794 12.570009 58.967012 15.921955
4868 479 2 0.5897 12.996437 58.422705 16.644374
4869 479 2 0.5897 11.681652 58.572230 15.687499
4870 480 1 -1.1794 18.118536 81.783681 33.664726
4871 480 2 0.5897 18.528450 81.165638 32.993911
4872 480 2 0.5897 17.341897 82.257926 33.250088
4873 481 1 -1.1794 9.393490 55.892553 16.151521
4874 481 2 0.5897 9.676030 55.690799 15.213722
4875 481 2 0.5897 8.798296 55.161397 16.484919
4876 482 1 -1.1794 20.721036 87.258774 21.707369
4877 482 2 0.5897 20.706560 86.818758 22.605242
4878 482 2 0.5897 21.643910 87.591996 21.514322
4879 483 1 -1.1794 20.866096 68.718717 15.697298
4880 483 2 0.5897 20.716928 68.089778 16.460308
4881 483 2 0.5897 21.068295 69.631441 16.052335
4882 484 1 -1.1794 10.123533 78.078725 22.800881
4883 484 2 0.5897 10.147886 77.906631 23.785661
4884 484 2 0.5897 9.995496 77.214390 22.314537
4885 485 1 -1.1794 8.242642 56.747416 5.924947
4886 485 2 0.5897 8.308765 56.943932 6.903215
4887 485 2 0.5897 7.331689 56.390909 5.717418
4888 486 1 -1.1794 2.642047 59.431051 26.691247
4889 486 2 0.5897 2.287509 58.836419 27.412854
4890 486 2 0.5897 2.811170 60.343354 27.064208
4891 487 1 -1.1794 15.911130 66.758656 15.940575
4892 487 2 0.5897 14.958730 66.829836 15.644152
4893 487 2 0.5897 16.106337 67.475468 16.609959
4894 488 1 -1.1794 19.099452 80.824582 24.746838
4895 488 2 0.5897 18.821717 81.757006 24.978029
4896 488 2 0.5897 19.669353 80.454907 25.480700
4897 489 1 -1.1794 4.692360 74.402873 22.411310
4898 489 2 0.5897 3.988258 75.112285 22.380097
4899 489 2 0.5897 5.571366 74.815934 22.649487
4900 490 1 -1.1794 9.267725 69.547826 21.048539
4901 490 2 0.5897 8.833228 70.262069 21.597237
4902 490 2 0.5897 10.231480 69.774958 20.908587
4903 491 1 -1.1794 13.788838 60.846800 17.787121
4904 491 2 0.5897 13.970742 61.461404 18.554698
4905 491 2 0.5897 13.578765 59.932886 18.134440
4906 492 1 -1.1794 3.367301 98.039542 6.035148
4907 492 2 0.5897 2.787760 98.550702 6.669851
4908 492 2 0.5897 3.455917 98.549995 5.179821
4909 493 1 -1.1794 4.593623 56.869343 19.541419
4910 493 2 0.5897 4.386824 55.938155 19.841621
4911 493 2 0.5897 5.530852 56.907397 19.194787
4912 494 1 -1.1794 5.350149 52.637201 17.931757
4913 494 2 0.5897 4.666484 53.031356 17.317555
4914 494 2 0.5897 6.129777 52.310905 17.397238
4915 495 1 -1.1794 1.570321 66.964871 32.692772
4916 495 2 0.5897 2.328084 67.091404 32.052628
4917 495 2 0.5897 0.901938 66.334651 32.297694
4918 496 1 -1.1794 2.007734 92.889247 6.764905
4919 496 2 0.5897 2.597892 93.184077 6.013381
4920 496 2 0.5897 1.080676 92.738919 6.421444
4921 497 1 -1.1794 9.433099 57.545337 33.264578
4922 497 2 0.5897 10.166972 58.099502 33.657428
4923 497 2 0.5897 8.795790 58.137462 32.771400
4924 498 1 -1.1794 12.936974 79.557578 24.139223
4925 498 2 0.5897 12.806851 79.169421 25.051584
4926 498 2 0.5897 12.118533 80.067309 23.874027
4927 499 1 -1.1794 18.444877 86.061085 12.241301
4928 499 2 0.5897 19.247944 86.480156 11.817670
4929 499 2 0.5897 17.885009 86.770825 12.668871
4930 500 1 -1.1794 8.682842 70.471806 29.665555
4931 500 2 0.5897 8.331139 70.764544 28.776393
4932 500 2 0.5897 8.234552 69.620250 29.937379
4933 501 1 -1.1794 10.845278 62.837431 13.632470
4934 501 2 0.5897 10.138300 62.563414 14.284464
4935 501 2 0.5897 10.461978 63.491801 12.980641
4936 502 1 -1.1794 9.513172 51.748602 4.564204
4937 502 2 0.5897 10.011295 51.185324 5.223440
4938 502 2 0.5897 8.834049 52.302915 5.045377
4939 503 1 -1.1794 11.084929 89.994332 23.393865
4940 503 2 0.5897 11.890367 90.092771 22.809418
4941 503 2 0.5897 11.239575 90.473305 24.257965
4942 504 1 -1.1794 13.134203 86.175341 1.507250
4943 504 2 0.5897 12.819419 86.935690 2.075387
4944 504 2 0.5897 13.495459 85.449316 2.092385
4945 505 1 -1.1794 4.427223 87.251116 20.225885
4946 505 2 0.5897 3.825988 87.039714 20.996486
4947 505 2 0.5897 4.166077 86.694834 19.436991
4948 506 1 -1.1794 11.354202 51.429988 11.091067
4949 506 2 0.5897 11.966442 52.048114 10.598032
4950 506 2 0.5897 11.038889 50.709978 10.472874
4951 507 1 -1.1794 19.784391 63.287664 22.282049
4952 507 2 0.5897 20.585587 63.345529 22.877647
4953 507 2 0.5897 20.007102 62.739137 21.476122
4954 508 1 -1.1794 1.006052 56.050658 16.895972
4955 508 2 0.5897 1.687949 56.442787 17.513427
4956 508 2 0.5897 0.183844 55.814772 17.413979
4957 509 1 -1.1794 17.707511 53.905331 33.311812
4958 509 2 0.5897 16.935559 54.167034 32.732501
4959 509 2 0.5897 17.562462 52.980139 33.662500
4960 510 1 -1.1794 7.030610 89.439839 11.903008
4961 510 2 0.5897 6.826230 88.791705 12.636595
4962 510 2 0.5897 7.756555 90.060510 12.199270
4963 511 1 -1.1794 15.106470 70.246773 27.269192
4964 511 2 0.5897 15.802926 69.570183 27.508304
4965 511 2 0.5897 14.518502 70.413878 28.060627
4966 512 1 -1.1794 14.362538 72.899108 13.771496
4967 512 2 0.5897 14.837244 73.166505 14.610039
4968 512 2 0.5897 14.277156 71.903261 13.739899
4969 513 1 -1.1794 15.026585 88.445000 3.072437
4970 513 2 0.5897 14.745498 87.489527 2.982657
4971 513 2 0.5897 15.284580 88.628824 4.020934
4972 514 1 -1.1794 11.417265 84.670123 -0.000008
4973 514 2 0.5897 10.686214 84.985348 0.605135
4974 514 2 0.5897 12.217694 84.421750 0.545541
4975 515 1 -1.1794 10.193890 86.372037 5.542488
4976 515 2 0.5897 9.745596 86.204128 6.420463
4977 515 2 0.5897 10.919158 87.049907 5.662811
4978 516 1 -1.1794 10.648681 85.148739 31.955350
4979 516 2 0.5897 9.962331 85.151269 32.682617
4980 516 2 0.5897 10.214405 85.385977 31.086372
4981 517 1 -1.1794 18.076542 72.280875 19.165040
4982 517 2 0.5897 18.214907 73.209294 18.820232
4983 517 2 0.5897 17.507001 71.768145 18.522598
4984 518 1 -1.1794 18.599750 58.781130 28.867116
4985 518 2 0.5897 19.453542 58.720535 28.350040
4986 518 2 0.5897 17.851500 59.020069 28.248223
4987 519 1 -1.1794 19.614869 98.319924 28.774387
4988 519 2 0.5897 18.705875 98.499409 29.150572
4989 519 2 0.5897 20.231427 98.041723 29.510906
4990 520 1 -1.1794 0.592770 65.933196 24.025509
4991 520 2 0.5897 1.122402 66.575714 24.579280
4992 520 2 0.5897 0.000025 65.390301 24.620420
4993 521 1 -1.1794 14.301218 63.423481 33.672659
4994 521 2 0.5897 14.270053 62.926107 32.805682
4995 521 2 0.5897 14.054671 64.380061 33.517198
4996 522 1 -1.1794 9.580754 66.255625 4.660837
4997 522 2 0.5897 10.360049 66.650085 4.173907
4998 522 2 0.5897 8.917659 65.904565 3.999729
4999 523 1 -1.1794 10.478449 84.505990 13.766891
5000 523 2 0.5897 10.476937 85.213644 13.060333
5001 523 2 0.5897 11.285237 83.925703 13.655720
5002 524 1 -1.1794 16.802281 98.054836 6.596622
5003 524 2 0.5897 16.600605 97.313984 5.955947
5004 524 2 0.5897 17.614582 98.550055 6.288521
5005 525 1 -1.1794 19.349794 52.785506 4.670144
5006 525 2 0.5897 19.820980 52.684302 3.793936
5007 525 2 0.5897 18.361203 52.757245 4.522192
5008 526 1 -1.1794 13.870898 58.588762 32.865346
5009 526 2 0.5897 13.597373 58.043075 32.073254
5010 526 2 0.5897 13.163646 58.531292 33.569968
5011 527 1 -1.1794 1.041733 59.320021 22.659564
5012 527 2 0.5897 1.679132 58.801499 23.229527
5013 527 2 0.5897 0.528818 58.690637 22.075788
5014 528 1 -1.1794 12.007326 74.294076 0.316839
5015 528 2 0.5897 12.939561 74.377589 0.668923
5016 528 2 0.5897 11.853355 73.358244 -0.000195
5017 529 1 -1.1794 19.646623 85.397213 28.127227
5018 529 2 0.5897 20.235671 85.317086 28.931342
5019 529 2 0.5897 20.181620 85.213764 27.302530
5020 530 1 -1.1794 17.303795 92.243337 31.579466
5021 530 2 0.5897 17.054295 93.121922 31.986698
5022 530 2 0.5897 16.474747 91.720769 31.380463
5023 531 1 -1.1794 9.905965 77.403440 27.632177
5024 531 2 0.5897 9.728048 77.054845 28.552410
5025 531 2 0.5897 9.058457 77.764083 27.242732
5026 532 1 -1.1794 6.037173 55.312899 22.440592
5027 532 2 0.5897 5.239947 54.962144 22.931919
5028 532 2 0.5897 6.872043 54.998897 22.892693
5029 533 1 -1.1794 18.876179 92.694009 14.915917
5030 533 2 0.5897 19.624135 93.283405 15.221161
5031 533 2 0.5897 18.683897 92.872276 13.950905
5032 534 1 -1.1794 8.284904 66.704204 22.304558
5033 534 2 0.5897 8.989886 66.036850 22.544641
5034 534 2 0.5897 7.614804 66.277320 21.697322
5035 535 1 -1.1794 13.093856 68.814960 19.546314
5036 535 2 0.5897 12.502132 69.438830 20.056853
5037 535 2 0.5897 12.711437 68.663951 18.634749
5038 536 1 -1.1794 16.165463 93.012281 29.544926
5039 536 2 0.5897 15.834557 93.762831 28.972934
5040 536 2 0.5897 16.418603 92.237887 28.965068
5041 537 1 -1.1794 15.861425 50.936925 31.012243
5042 537 2 0.5897 15.072674 50.697761 31.578524
5043 537 2 0.5897 16.635170 50.351402 31.254072
5044 538 1 -1.1794 12.479620 71.335626 22.742921
5045 538 2 0.5897 13.121263 70.903793 23.376810
5046 538 2 0.5897 12.277007 72.263956 23.054610
5047 539 1 -1.1794 17.053733 63.813520 6.139678
5048 539 2 0.5897 17.318313 64.713270 5.792623
5049 539 2 0.5897 17.177284 63.129450 5.420801
5050 540 1 -1.1794 7.673635 96.188638 20.708160
5051 540 2 0.5897 8.564583 96.137615 20.256931
5052 540 2 0.5897 7.697326 96.897105 21.413506
5053 541 1 -1.1794 17.759322 82.591944 19.838034
5054 541 2 0.5897 17.201132 83.325392 19.450119
5055 541 2 0.5897 17.683254 82.606906 20.835024
5056 542 1 -1.1794 3.133096 83.439236 24.293339
5057 542 2 0.5897 3.390225 84.260121 24.803272
5058 542 2 0.5897 2.991537 82.681683 24.930579
5059 543 1 -1.1794 18.635919 67.882432 15.165648
5060 543 2 0.5897 19.369780 67.575706 14.559539
5061 543 2 0.5897 17.859883 68.194932 14.617823
5062 544 1 -1.1794 5.548147 67.683634 32.979357
5063 544 2 0.5897 4.822527 68.331833 33.210253
5064 544 2 0.5897 6.276169 67.741053 33.662502
5065 545 1 -1.1794 20.398622 75.118494 27.647166
5066 545 2 0.5897 20.042406 75.613912 28.439422
5067 545 2 0.5897 19.646274 74.896744 27.026844
5068 546 1 -1.1794 13.135302 60.406152 9.017575
5069 546 2 0.5897 13.659686 60.108161 8.219939
5070 546 2 0.5897 12.508820 59.677997 9.295622
5071 547 1 -1.1794 8.366800 96.239703 14.113969
5072 547 2 0.5897 9.192782 95.676642 14.140707
5073 547 2 0.5897 7.560036 95.649769 14.147275
5074 548 1 -1.1794 7.875038 61.063597 31.282229
5075 548 2 0.5897 7.938589 60.255115 31.867309
5076 548 2 0.5897 7.977800 61.887392 31.839725
5077 549 1 -1.1794 7.818377 91.150543 33.067503
5078 549 2 0.5897 7.190955 91.655161 33.660549
5079 549 2 0.5897 8.467499 90.637289 33.628938
5080 550 1 -1.1794 6.673998 76.609484 31.250945
5081 550 2 0.5897 7.222767 76.574351 30.415709
5082 550 2 0.5897 5.703211 76.573675 31.013687
5083 551 1 -1.1794 19.595551 95.517653 28.147808
5084 551 2 0.5897 18.818214 95.475047 27.520169
5085 551 2 0.5897 20.296504 96.122372 27.769680
5086 552 1 -1.1794 3.495999 68.997734 25.058148
5087 552 2 0.5897 2.937061 69.186042 25.865692
5088 552 2 0.5897 4.429829 68.780551 25.342389
5089 553 1 -1.1794 20.589836 87.065092 19.498399
5090 553 2 0.5897 20.578552 86.183454 19.026608
5091 553 2 0.5897 21.239868 87.676395 19.046994
5092 554 1 -1.1794 2.500188 76.164638 31.163199
5093 554 2 0.5897 1.572375 76.324988 31.500023
5094 554 2 0.5897 2.611598 75.195859 30.941715
5095 555 1 -1.1794 11.520474 72.623937 11.901253
5096 555 2 0.5897 12.323375 72.606873 12.497121
5097 555 2 0.5897 10.691136 72.638944 12.459799
5098 556 1 -1.1794 0.570167 92.215734 33.277526
5099 556 2 0.5897 -0.005000 91.398283 33.308451
5100 556 2 0.5897 -0.006410 93.031129 33.329391
5101 557 1 -1.1794 21.213392 72.015598 16.536648
5102 557 2 0.5897 20.373660 72.354042 16.112023
5103 557 2 0.5897 21.774994 72.789945 16.828178
5104 558 1 -1.1794 -0.000020 70.290361 10.782503
5105 558 2 0.5897 0.154102 69.573511 10.102523
5106 558 2 0.5897 0.000768 71.183030 10.331790
5107 559 1 -1.1794 9.396587 68.450422 12.516300
5108 559 2 0.5897 10.041029 69.159204 12.803222
5109 559 2 0.5897 8.477441 68.688974 12.829770
5110 560 1 -1.1794 16.583753 53.057085 23.711812
5111 560 2 0.5897 15.954057 52.281114 23.748574
5112 560 2 0.5897 16.988648 53.114826 22.799274
5113 561 1 -1.1794 3.571450 94.759181 8.566577
5114 561 2 0.5897 2.641425 94.719477 8.201230
5115 561 2 0.5897 4.119336 94.025927 8.163887
5116 562 1 -1.1794 7.944005 60.954806 3.596320
5117 562 2 0.5897 8.336615 61.667860 4.177192
5118 562 2 0.5897 7.431230 60.308937 4.161930
5119 563 1 -1.1794 12.271822 72.973554 15.660917
5120 563 2 0.5897 12.364368 73.209128 14.693478
5121 563 2 0.5897 13.179330 72.901629 16.074747
5122 564 1 -1.1794 18.423723 83.602740 26.203037
5123 564 2 0.5897 19.155160 84.049212 25.687612
5124 564 2 0.5897 18.613894 83.674946 27.182129
5125 565 1 -1.1794 3.748440 66.728511 15.791164
5126 565 2 0.5897 4.258833 67.231737 15.093838
5127 565 2 0.5897 2.785908 66.674242 15.525483
5128 566 1 -1.1794 3.778370 88.492018 11.582786
5129 566 2 0.5897 3.053541 88.701847 12.238983
5130 566 2 0.5897 4.643827 88.372023 12.069185
5131 567 1 -1.1794 14.222893 94.898527 27.920871
5132 567 2 0.5897 13.379120 94.369434 27.830836
5133 567 2 0.5897 14.267852 95.301227 28.835099
5134 568 1 -1.1794 6.244559 97.111203 5.260034
5135 568 2 0.5897 6.609195 96.461343 4.593159
5136 568 2 0.5897 6.247288 98.030203 4.865787
5137 569 1 -1.1794 18.636448 67.793980 7.960262
5138 569 2 0.5897 17.855937 67.228217 8.226185
5139 569 2 0.5897 18.843880 68.441576 8.693468
5140 570 1 -1.1794 13.455659 89.887527 2.533098
5141 570 2 0.5897 12.827948 89.689599 1.780234
5142 570 2 0.5897 14.234852 90.411093 2.188517
5143 571 1 -1.1794 6.648630 48.855389 27.171643
5144 571 2 0.5897 6.583967 48.549995 26.221615
5145 571 2 0.5897 7.604486 48.833002 27.464625
5146 572 1 -1.1794 19.851058 62.252708 24.697595
5147 572 2 0.5897 20.641951 61.797748 25.106862
5148 572 2 0.5897 19.346373 61.599857 24.132724
5149 573 1 -1.1794 7.085569 65.878158 26.736136
5150 573 2 0.5897 7.721079 65.116661 26.608661
5151 573 2 0.5897 6.710961 66.151547 25.850174
5152 574 1 -1.1794 4.432610 60.546724 12.610414
5153 574 2 0.5897 4.829727 61.004993 11.815249
5154 574 2 0.5897 3.707265 59.927203 12.310299
5155 575 1 -1.1794 12.236381 56.561626 22.166531
5156 575 2 0.5897 11.293528 56.241526 22.073992
5157 575 2 0.5897 12.468118 56.640011 23.136147
5158 576 1 -1.1794 15.995779 82.474750 4.982746
5159 576 2 0.5897 16.077669 81.974334 4.120842
5160 576 2 0.5897 15.346156 83.226767 4.871126
5161 577 1 -1.1794 6.976641 88.289880 33.133517
5162 577 2 0.5897 6.864692 89.130744 33.663059
5163 577 2 0.5897 7.730567 88.401564 32.486121
5164 578 1 -1.1794 19.056606 83.711570 10.238608
5165 578 2 0.5897 18.566472 83.376439 9.433962
5166 578 2 0.5897 20.037964 83.562685 10.117078
5167 579 1 -1.1794 7.982792 64.156147 23.175104
5168 579 2 0.5897 7.612162 63.936450 22.272681
5169 579 2 0.5897 7.231720 64.266862 23.825974
5170 580 1 -1.1794 21.000857 77.825458 15.333228
5171 580 2 0.5897 21.774990 77.220418 15.519357
5172 580 2 0.5897 20.720891 78.278515 16.179608
5173 581 1 -1.1794 19.289817 62.374611 0.004502
5174 581 2 0.5897 18.677490 62.314037 0.792782
5175 581 2 0.5897 20.040903 61.723735 0.115086
5176 582 1 -1.1794 16.710248 76.645742 32.168943
5177 582 2 0.5897 16.010193 76.504861 31.468889
5178 582 2 0.5897 16.544780 77.514508 32.635703
5179 583 1 -1.1794 17.130831 77.354437 23.565874
5180 583 2 0.5897 18.076199 77.160007 23.827555
5181 583 2 0.5897 16.561886 76.553507 23.752455
5182 584 1 -1.1794 17.495472 84.286945 23.991606
5183 584 2 0.5897 17.816857 85.140614 23.581776
5184 584 2 0.5897 18.150143 83.556544 23.796877
5185 585 1 -1.1794 9.082873 66.734232 19.951236
5186 585 2 0.5897 8.427824 67.302042 19.452735
5187 585 2 0.5897 9.666821 66.249310 19.300194
5188 586 1 -1.1794 4.328937 88.607070 22.457656
5189 586 2 0.5897 4.346189 89.475266 22.953579
5190 586 2 0.5897 4.897368 87.938209 22.936728
5191 587 1 -1.1794 6.742624 94.600617 29.101606
5192 587 2 0.5897 6.114955 95.333673 29.363639
5193 587 2 0.5897 7.580963 94.670486 29.642258
5194 588 1 -1.1794 17.849146 89.164274 14.444031
5195 588 2 0.5897 17.202317 88.479369 14.108595
5196 588 2 0.5897 18.000202 89.028711 15.423216
5197 589 1 -1.1794 12.461717 56.020516 33.170412
5198 589 2 0.5897 11.852462 55.398702 33.662504
5199 589 2 0.5897 11.950035 56.829988 32.882424
5200 590 1 -1.1794 6.844822 69.478233 22.118647
5201 590 2 0.5897 6.147666 69.886534 21.529357
5202 590 2 0.5897 7.261928 68.698984 21.650894
5203 591 1 -1.1794 11.754391 93.663530 0.648877
5204 591 2 0.5897 12.308950 94.420628 0.303527
5205 591 2 0.5897 11.594018 93.787432 1.628126
5206 592 1 -1.1794 4.693821 87.615360 3.908231
5207 592 2 0.5897 4.319197 87.782437 2.996232
5208 592 2 0.5897 4.421359 88.356792 4.521455
5209 593 1 -1.1794 5.610131 54.297765 15.786011
5210 593 2 0.5897 6.329260 54.690233 16.359442
5211 593 2 0.5897 5.881625 53.381539 15.491357
5212 594 1 -1.1794 17.967648 93.503371 16.982142
5213 594 2 0.5897 18.626050 92.761817 17.110995
5214 594 2 0.5897 17.268267 93.218024 16.326822
5215 595 1 -1.1794 17.788110 51.832757 10.320343
5216 595 2 0.5897 17.742036 52.226200 9.402149
5217 595 2 0.5897 16.883125 51.868900 10.744250
5218 596 1 -1.1794 8.555786 75.485416 22.976086
5219 596 2 0.5897 7.709855 74.977907 23.139898
5220 596 2 0.5897 8.713627 76.122584 23.730475
5221 597 1 -1.1794 7.634594 74.929141 27.687005
5222 597 2 0.5897 7.125140 74.279380 28.251157
5223 597 2 0.5897 8.320048 75.392401 28.248737
5224 598 1 -1.1794 8.052642 73.911383 0.112235
5225 598 2 0.5897 8.619274 74.727853 0.001311
5226 598 2 0.5897 7.784308 73.819651 1.071183
5227 599 1 -1.1794 13.207998 59.447901 27.791453
5228 599 2 0.5897 13.182817 59.551359 28.785768
5229 599 2 0.5897 12.279076 59.312587 27.446789
5230 600 1 -1.1794 18.689586 65.057503 30.892257
5231 600 2 0.5897 18.973531 64.106680 31.015999
5232 600 2 0.5897 18.900501 65.349641 29.959428
5233 601 1 -1.1794 19.491327 52.397455 31.334091
5234 601 2 0.5897 19.161074 52.374515 32.277704
5235 601 2 0.5897 19.795147 51.483524 31.064975
5236 602 1 -1.1794 8.974916 78.910643 0.752747
5237 602 2 0.5897 9.043784 79.566772 0.001247
5238 602 2 0.5897 8.741774 78.009237 0.387902
5239 603 1 -1.1794 8.442103 56.435150 29.495467
5240 603 2 0.5897 8.631862 56.502497 30.474985
5241 603 2 0.5897 8.284953 55.478203 29.251423
5242 604 1 -1.1794 9.054501 75.307554 2.078596
5243 604 2 0.5897 9.983452 75.427644 2.428780
5244 604 2 0.5897 8.460974 74.979801 2.813651
5245 605 1 -1.1794 9.888789 56.681843 24.642311
5246 605 2 0.5897 9.253610 55.914189 24.557137
5247 605 2 0.5897 9.870576 57.026993 25.580682
5248 606 1 -1.1794 7.013738 81.201138 3.297069
5249 606 2 0.5897 6.434464 80.686911 3.929534
5250 606 2 0.5897 7.051803 80.725533 2.418235
5251 607 1 -1.1794 13.148935 85.694115 24.415200
5252 607 2 0.5897 13.993285 86.005961 23.979512
5253 607 2 0.5897 12.794307 84.898731 23.923669
5254 608 1 -1.1794 3.509203 84.316631 27.175652
5255 608 2 0.5897 4.352179 84.002997 27.612716
5256 608 2 0.5897 2.932751 83.528637 26.959391
5257 609 1 -1.1794 5.315641 98.090755 29.392820
5258 609 2 0.5897 4.981521 97.198824 29.088150
5259 609 2 0.5897 5.777489 98.550531 28.634334
5260 610 1 -1.1794 11.125578 51.197573 25.541634
5261 610 2 0.5897 10.201892 50.866409 25.348933
5262 610 2 0.5897 11.619569 51.326553 24.681787
5263 611 1 -1.1794 0.978025 65.079386 28.399528
5264 611 2 0.5897 0.576704 65.443397 29.240026
5265 611 2 0.5897 1.964495 64.969783 28.521449
5266 612 1 -1.1794 17.811988 68.661595 10.943094
5267 612 2 0.5897 17.729952 67.764675 11.377610
5268 612 2 0.5897 17.057535 68.790434 10.299509
5269 613 1 -1.1794 18.728606 93.206577 10.051253
5270 613 2 0.5897 17.897423 93.393429 10.574915
5271 613 2 0.5897 19.471770 92.972195 10.677968
5272 614 1 -1.1794 17.335326 89.891172 12.086998
5273 614 2 0.5897 16.507120 89.344130 12.208735
5274 614 2 0.5897 17.369475 90.240382 11.150576
5275 615 1 -1.1794 5.469648 96.316686 26.085996
5276 615 2 0.5897 5.293360 97.286071 26.256916
5277 615 2 0.5897 5.486881 95.822706 26.955299
5278 616 1 -1.1794 13.955459 90.058491 6.034805
5279 616 2 0.5897 14.640282 89.330431 6.004077
5280 616 2 0.5897 14.037088 90.627614 5.216614
5281 617 1 -1.1794 10.530316 74.204661 13.996909
5282 617 2 0.5897 10.420531 75.191820 14.112947
5283 617 2 0.5897 10.216323 73.735094 14.822085
5284 618 1 -1.1794 1.956851 75.582258 25.196023
5285 618 2 0.5897 1.175711 74.968074 25.308269
5286 618 2 0.5897 2.459555 75.334251 24.367904
5287 619 1 -1.1794 11.372355 78.688236 19.880700
5288 619 2 0.5897 11.718250 77.832672 19.495516
5289 619 2 0.5897 12.039289 79.055598 20.528963
5290 620 1 -1.1794 6.965381 48.923335 15.538434
5291 620 2 0.5897 6.620684 48.549993 14.677157
5292 620 2 0.5897 7.874441 48.549997 15.723445
5293 621 1 -1.1794 17.156413 89.633664 -0.000028
5294 621 2 0.5897 16.365730 89.097976 0.296382
5295 621 2 0.5897 17.984054 89.271537 0.428778
5296 622 1 -1.1794 1.862941 76.833565 15.317926
5297 622 2 0.5897 1.106127 76.919518 15.965880
5298 622 2 0.5897 2.102875 77.737482 14.963854
5299 623 1 -1.1794 8.142738 65.974259 31.212758
5300 623 2 0.5897 8.355799 64.999494 31.146143
5301 623 2 0.5897 8.231667 66.270653 32.163675
5302 624 1 -1.1794 17.486923 48.918877 32.715332
5303 624 2 0.5897 17.528710 48.600873 33.662500
5304 624 2 0.5897 18.267771 48.555679 32.207037
5305 625 1 -1.1794 4.437350 78.146728 3.078109
5306 625 2 0.5897 3.954227 78.590076 3.833115
5307 625 2 0.5897 3.811545 77.533249 2.596433
5308 626 1 -1.1794 5.967865 50.664331 14.636290
5309 626 2 0.5897 4.973293 50.694784 14.536791
5310 626 2 0.5897 6.240634 51.211985 15.427284
5311 627 1 -1.1794 15.737339 58.118921 29.741592
5312 627 2 0.5897 16.167979 57.256274 29.476281
5313 627 2 0.5897 15.792945 58.766734 28.981824
5314 628 1 -1.1794 7.115186 59.722376 7.545610
5315 628 2 0.5897 6.293042 59.531804 8.082043
5316 628 2 0.5897 7.804268 60.148529 8.131749
5317 629 1 -1.1794 19.221597 48.777131 7.451623
5318 629 2 0.5897 20.019841 48.550073 6.893725
5319 629 2 0.5897 18.532375 49.223802 6.881134
5320 630 1 -1.1794 14.760049 89.581349 32.934867
5321 630 2 0.5897 15.467658 90.062773 32.417642
5322 630 2 0.5897 13.868446 89.990051 32.739915
5323 631 1 -1.1794 11.306602 52.554441 2.286983
5324 631 2 0.5897 11.816447 52.074846 3.001159
5325 631 2 0.5897 11.913155 53.196966 1.818737
5326 632 1 -1.1794 2.783576 71.740471 27.408650
5327 632 2 0.5897 2.261972 71.336328 26.657253
5328 632 2 0.5897 3.244997 72.567363 27.087185
5329 633 1 -1.1794 14.158876 67.018358 17.684845
5330 633 2 0.5897 14.588642 67.536269 18.424486
5331 633 2 0.5897 13.291409 66.637504 18.004925
5332 634 1 -1.1794 13.235190 96.732314 7.637489
5333 634 2 0.5897 12.503435 96.053835 7.702297
5334 634 2 0.5897 12.919432 97.600663 8.019938
5335 635 1 -1.1794 19.522009 87.098342 30.321769
5336 635 2 0.5897 19.325802 87.277799 29.357768
5337 635 2 0.5897 20.287554 87.669455 30.618032
5338 636 1 -1.1794 11.991201 80.639169 29.770862
5339 636 2 0.5897 12.054001 81.284681 29.009698
5340 636 2 0.5897 12.844626 80.654132 30.291863
5341 637 1 -1.1794 15.419999 95.445149 22.641791
5342 637 2 0.5897 14.514896 95.557951 23.051748
5343 637 2 0.5897 16.095175 95.288259 23.362570
5344 638 1 -1.1794 14.998422 71.185625 30.065672
5345 638 2 0.5897 14.371595 71.900540 29.755861
5346 638 2 0.5897 15.315374 71.397882 30.990058
5347 639 1 -1.1794 20.040305 68.103080 33.083555
5348 639 2 0.5897 20.319279 67.334534 33.659325
5349 639 2 0.5897 19.760708 68.869010 33.662499
5350 640 1 -1.1794 10.273744 73.025150 30.031834
5351 640 2 0.5897 9.629241 73.360727 29.344808
5352 640 2 0.5897 9.771256 72.732122 30.845246
5353 641 1 -1.1794 3.725117 70.288361 21.526386
5354 641 2 0.5897 2.997383 70.973476 21.494462
5355 641 2 0.5897 4.182880 70.329476 22.414509
5356 642 1 -1.1794 3.877043 98.557685 31.548449
5357 642 2 0.5897 4.876403 98.523957 31.536541
5358 642 2 0.5897 3.530203 98.493600 30.612717
5359 643 1 -1.1794 14.994486 59.877304 15.357921
5360 643 2 0.5897 14.519349 60.679881 15.718635
5361 643 2 0.5897 14.984172 59.148286 16.042338
5362 644 1 -1.1794 7.892512 55.033997 13.778463
5363 644 2 0.5897 7.488741 54.140832 13.580410
5364 644 2 0.5897 7.571074 55.354943 14.669345
5365 645 1 -1.1794 16.837279 59.140210 3.062546
5366 645 2 0.5897 16.121171 59.460589 2.442427
5367 645 2 0.5897 17.730583 59.255902 2.628236
5368 646 1 -1.1794 7.895150 90.759861 6.544049
5369 646 2 0.5897 8.162182 89.838091 6.825180
5370 646 2 0.5897 7.899980 90.818397 5.545775
5371 647 1 -1.1794 11.218897 96.177561 11.112947
5372 647 2 0.5897 10.699441 95.411707 10.733956
5373 647 2 0.5897 10.647228 96.998030 11.117988
5374 648 1 -1.1794 3.844488 50.057333 23.233881
5375 648 2 0.5897 3.911826 49.090007 22.989448
5376 648 2 0.5897 3.959600 50.617252 22.413369
5377 649 1 -1.1794 1.347103 94.262985 2.093686
5378 649 2 0.5897 1.913567 93.568187 2.536828
5379 649 2 0.5897 1.008232 94.905044 2.781382
5380 650 1 -1.1794 18.424770 89.568838 30.377211
5381 650 2 0.5897 17.607461 89.507887 29.804246
5382 650 2 0.5897 19.238446 89.427692 29.813288
5383 651 1 -1.1794 1.081339 98.104798 4.284736
5384 651 2 0.5897 1.902628 97.991703 3.725546
5385 651 2 0.5897 0.289316 98.241850 3.689828
5386 652 1 -1.1794 16.386136 88.698113 24.001364
5387 652 2 0.5897 15.444300 88.478039 24.255357
5388 652 2 0.5897 16.759149 89.363085 24.648414
5389 653 1 -1.1794 7.118310 84.720983 27.207734
5390 653 2 0.5897 7.085163 85.132901 28.118353
5391 653 2 0.5897 6.504993 83.931769 27.176380
5392 654 1 -1.1794 8.135302 65.261180 18.068078
5393 654 2 0.5897 7.698398 65.919818 17.455451
5394 654 2 0.5897 7.824148 64.338171 17.841722
5395 655 1 -1.1794 4.932046 97.686306 17.814450
5396 655 2 0.5897 4.858081 98.439094 17.160355
5397 655 2 0.5897 4.057973 97.203368 17.867063
5398 656 1 -1.1794 2.596361 63.066225 30.199039
5399 656 2 0.5897 2.237657 62.901435 29.280249
5400 656 2 0.5897 2.449262 64.023626 30.447526
5401 657 1 -1.1794 19.478656 72.408417 7.805494
5402 657 2 0.5897 19.655376 71.854077 6.992181
5403 657 2 0.5897 18.492883 72.461419 7.964997
5404 658 1 -1.1794 7.756812 62.365414 20.738389
5405 658 2 0.5897 7.381359 61.629530 20.174908
5406 658 2 0.5897 8.639408 62.652893 20.366395
5407 659 1 -1.1794 20.784899 66.592636 24.570788
5408 659 2 0.5897 20.516441 67.468773 24.170396
5409 659 2 0.5897 21.763040 66.606724 24.778252
5410 660 1 -1.1794 12.740810 93.758316 14.546485
5411 660 2 0.5897 12.664370 94.602128 15.077651
5412 660 2 0.5897 13.423657 93.878750 13.825919
5413 661 1 -1.1794 11.747839 61.834668 8.082565
5414 661 2 0.5897 11.677398 62.820845 8.232540
5415 661 2 0.5897 11.845327 61.652440 7.104153
5416 662 1 -1.1794 3.058230 80.484667 25.003936
5417 662 2 0.5897 2.138075 80.540686 25.391463
5418 662 2 0.5897 2.998692 80.460126 24.006012
5419 663 1 -1.1794 13.665960 52.167244 25.794602
5420 663 2 0.5897 13.749430 51.344437 25.232443
5421 663 2 0.5897 13.086875 52.834061 25.325545
5422 664 1 -1.1794 1.317364 84.438569 25.512916
5423 664 2 0.5897 1.770169 85.180117 26.007967
5424 664 2 0.5897 0.325892 84.553540 25.574270
5425 665 1 -1.1794 8.455710 90.486940 3.324380
5426 665 2 0.5897 7.707401 90.213816 2.719866
5427 665 2 0.5897 8.965537 91.238198 2.905229
5428 666 1 -1.1794 17.008002 55.241785 22.107608
5429 666 2 0.5897 17.934153 55.493740 22.388258
5430 666 2 0.5897 16.850639 55.544410 21.167579
5431 667 1 -1.1794 17.694694 69.120363 32.738613
5432 667 2 0.5897 17.827083 68.135031 32.630937
5433 667 2 0.5897 17.137570 69.466283 31.983661
5434 668 1 -1.1794 13.351825 68.832417 25.160442
5435 668 2 0.5897 12.733755 68.111667 24.846580
5436 668 2 0.5897 13.242356 68.959445 26.146282
5437 669 1 -1.1794 5.485775 85.612639 26.023639
5438 669 2 0.5897 4.513315 85.826686 25.931420
5439 669 2 0.5897 5.968963 86.408175 26.389223
5440 670 1 -1.1794 18.221198 69.334520 20.217364
5441 670 2 0.5897 18.109338 70.327378 20.175899
5442 670 2 0.5897 18.074148 68.944283 19.308469
5443 671 1 -1.1794 12.679987 50.967060 21.501448
5444 671 2 0.5897 12.108685 50.481084 20.840055
5445 671 2 0.5897 13.268011 51.616967 21.019941
5446 672 1 -1.1794 16.330228 89.684419 16.928693
5447 672 2 0.5897 17.061162 90.047625 17.506462
5448 672 2 0.5897 15.599086 89.320328 17.505642
5449 673 1 -1.1794 18.563150 70.095866 25.861945
5450 673 2 0.5897 18.127748 69.496856 25.189924
5451 673 2 0.5897 18.594599 71.029573 25.505290
5452 674 1 -1.1794 18.899032 76.868921 11.952391
5453 674 2 0.5897 18.265789 76.427267 11.316823
5454 674 2 0.5897 19.540214 77.440746 11.440628
5455 675 1 -1.1794 6.423961 65.452314 20.041681
5456 675 2 0.5897 7.242015 64.877173 20.041874
5457 675 2 0.5897 6.241338 65.771780 19.111847
5458 676 1 -1.1794 12.060522 75.163628 27.529385
5459 676 2 0.5897 12.686458 75.708651 28.087197
5460 676 2 0.5897 11.279384 75.726244 27.258668
5461 677 1 -1.1794 10.223160 84.006860 23.105423
5462 677 2 0.5897 10.924998 83.477477 23.582054
5463 677 2 0.5897 10.017176 83.573474 22.228071
5464 678 1 -1.1794 11.894102 57.970602 19.857754
5465 678 2 0.5897 11.675143 58.661669 20.546581
5466 678 2 0.5897 12.270897 58.416791 19.046002
5467 679 1 -1.1794 4.276138 53.379739 5.510999
5468 679 2 0.5897 3.538929 53.877327 5.053912
5469 679 2 0.5897 4.589224 52.633776 4.923192
5470 680 1 -1.1794 14.441180 67.834493 -0.000057
5471 680 2 0.5897 14.335983 68.299548 0.878952
5472 680 2 0.5897 14.726487 66.888727 0.155270
5473 681 1 -1.1794 14.844289 68.867309 11.970987
5474 681 2 0.5897 15.766216 68.489154 12.054958
5475 681 2 0.5897 14.890373 69.866000 11.993143
5476 682 1 -1.1794 10.145523 81.496199 11.982732
5477 682 2 0.5897 10.309890 82.351465 12.474162
5478 682 2 0.5897 9.832929 80.797069 12.625774
5479 683 1 -1.1794 7.784233 79.612484 30.707871
5480 683 2 0.5897 7.933226 79.534424 29.722119
5481 683 2 0.5897 6.806273 79.540563 30.903882
5482 684 1 -1.1794 2.496922 78.526257 26.912528
5483 684 2 0.5897 3.159907 78.622255 26.170076
5484 684 2 0.5897 1.637577 78.167835 26.547754
5485 685 1 -1.1794 17.431014 86.573772 25.215679
5486 685 2 0.5897 16.528227 86.905548 25.489355
5487 685 2 0.5897 17.970939 86.365578 26.031239
5488 686 1 -1.1794 5.861048 93.165591 16.824022
5489 686 2 0.5897 5.972575 92.855841 17.768276
5490 686 2 0.5897 6.036059 94.148829 16.772899
5491 687 1 -1.1794 6.793678 88.205488 27.862145
5492 687 2 0.5897 7.651372 88.717393 27.814034
5493 687 2 0.5897 6.179451 88.515286 27.136370
5494 688 1 -1.1794 2.534052 94.642273 26.327982
5495 688 2 0.5897 3.080902 95.305526 25.817051
5496 688 2 0.5897 2.056576 94.040336 25.687913
5497 689 1 -1.1794 3.406680 87.294261 24.686141
5498 689 2 0.5897 2.759429 87.046498 25.407029
5499 689 2 0.5897 3.011673 88.015371 24.116957
5500 690 1 -1.1794 8.703257 61.435410 9.911945
5501 690 2 0.5897 9.558672 61.127050 10.328093
5502 690 2 0.5897 8.894660 61.841213 9.018251
5503 691 1 -1.1794 13.145139 96.900083 25.853916
5504 691 2 0.5897 12.875921 97.487677 26.616973
5505 691 2 0.5897 13.400860 95.998126 26.201880
5506 692 1 -1.1794 4.378729 62.556017 31.975448
5507 692 2 0.5897 5.170231 63.136894 32.165466
5508 692 2 0.5897 4.658170 61.791431 31.394655
5509 693 1 -1.1794 2.369412 55.018196 20.953382
5510 693 2 0.5897 1.756391 54.716345 20.223251
5511 693 2 0.5897 2.312071 56.012140 21.047120
5512 694 1 -1.1794 9.738224 72.366847 21.764874
5513 694 2 0.5897 10.460376 71.700209 21.949511
5514 694 2 0.5897 9.019896 72.279867 22.455120
5515 695 1 -1.1794 4.301705 84.241678 31.569123
5516 695 2 0.5897 4.525212 83.972118 30.632436
5517 695 2 0.5897 5.130288 84.221069 32.128609
5518 696 1 -1.1794 14.899447 74.369711 6.105151
5519 696 2 0.5897 14.155372 74.330289 5.438218
5520 696 2 0.5897 15.533496 75.101185 5.854295
5521 697 1 -1.1794 16.727390 61.748049 30.330225
5522 697 2 0.5897 17.345521 61.803881 31.114315
5523 697 2 0.5897 17.119591 61.140906 29.639172
5524 698 1 -1.1794 8.523248 86.494189 29.854594
5525 698 2 0.5897 8.959963 87.102196 30.517623
5526 698 2 0.5897 8.343889 86.996950 29.008981
5527 699 1 -1.1794 6.706704 93.330977 21.285106
5528 699 2 0.5897 6.499133 94.301148 21.159882
5529 699 2 0.5897 7.059013 92.952323 20.429244
5530 700 1 -1.1794 3.277700 51.371805 1.958869
5531 700 2 0.5897 3.382816 50.663144 1.261194
5532 700 2 0.5897 4.134271 51.879777 2.049702
5533 701 1 -1.1794 5.987498 74.661397 -0.000004
5534 701 2 0.5897 5.627022 74.109900 0.752265
5535 701 2 0.5897 5.763081 75.623527 0.154730
5536 702 1 -1.1794 6.776426 90.431511 25.003953
5537 702 2 0.5897 5.967843 89.850095 24.913679
5538 702 2 0.5897 7.043189 90.484384 25.966264
5539 703 1 -1.1794 14.934277 85.282145 10.586035
5540 703 2 0.5897 14.938843 86.277731 10.492289
5541 703 2 0.5897 15.856713 84.963688 10.804432
5542 704 1 -1.1794 20.375449 62.070365 7.849435
5543 704 2 0.5897 21.265677 62.234381 7.424474
5544 704 2 0.5897 19.687748 62.654777 7.418704
5545 705 1 -1.1794 5.821987 63.423121 20.883777
5546 705 2 0.5897 5.845032 63.182389 19.913459
5547 705 2 0.5897 4.907574 63.248409 21.248914
5548 706 1 -1.1794 12.314796 57.697642 10.334905
5549 706 2 0.5897 12.901604 57.240857 11.003489
5550 706 2 0.5897 11.642626 58.263213 10.812730
5551 707 1 -1.1794 19.195964 62.969051 27.633218
5552 707 2 0.5897 20.111447 62.646253 27.873410
5553 707 2 0.5897 19.084219 62.945483 26.639761
5554 708 1 -1.1794 2.691187 70.836352 16.702006
5555 708 2 0.5897 2.339652 71.039938 15.788236
5556 708 2 0.5897 3.566962 71.300861 16.833347
5557 709 1 -1.1794 9.524972 73.199490 17.973834
5558 709 2 0.5897 10.346035 73.101340 18.536169
5559 709 2 0.5897 9.525399 74.099289 17.537530
5560 710 1 -1.1794 8.768015 87.598344 11.043883
5561 710 2 0.5897 9.256662 88.378337 10.652943
5562 710 2 0.5897 8.348891 87.065231 10.308950
5563 711 1 -1.1794 20.096388 97.415040 17.176894
5564 711 2 0.5897 20.589146 97.096016 17.986470
5565 711 2 0.5897 19.241092 97.850663 17.457430
5566 712 1 -1.1794 14.919461 64.353927 4.358030
5567 712 2 0.5897 13.996588 64.732813 4.426959
5568 712 2 0.5897 14.972249 63.506638 4.886532
5569 713 1 -1.1794 8.318636 71.041489 13.448651
5570 713 2 0.5897 9.302667 71.165769 13.321225
5571 713 2 0.5897 7.937546 71.845300 13.905443
5572 714 1 -1.1794 9.595804 63.706042 1.834833
5573 714 2 0.5897 9.157665 64.359520 2.452085
5574 714 2 0.5897 10.090178 63.021465 2.370508
5575 715 1 -1.1794 0.768741 83.178065 32.881205
5576 715 2 0.5897 0.657035 83.893836 33.570548
5577 715 2 0.5897 0.047439 83.261963 32.193684
5578 716 1 -1.1794 2.396809 98.550544 9.222373
5579 716 2 0.5897 1.737291 98.161545 8.579165
5580 716 2 0.5897 3.306746 98.550448 8.807626
5581 717 1 -1.1794 14.151493 88.339714 28.689415
5582 717 2 0.5897 13.409437 88.957937 28.948551
5583 717 2 0.5897 14.733378 88.784421 28.008500
5584 718 1 -1.1794 6.744288 82.670937 29.493035
5585 718 2 0.5897 6.797797 82.126131 28.656182
5586 718 2 0.5897 6.220240 83.503924 29.315531
5587 719 1 -1.1794 6.408071 81.301174 33.197201
5588 719 2 0.5897 5.541816 81.458615 33.671346
5589 719 2 0.5897 6.910561 80.568156 33.655665
5590 720 1 -1.1794 8.313347 92.145817 0.854418
5591 720 2 0.5897 9.310509 92.091775 0.906836
5592 720 2 0.5897 7.999823 91.710101 0.010703
5593 721 1 -1.1794 4.426230 59.206141 29.626768
5594 721 2 0.5897 3.641901 59.421189 29.044889
5595 721 2 0.5897 5.270349 59.466121 29.157862
5596 722 1 -1.1794 10.582319 81.817848 -0.000010
5597 722 2 0.5897 11.341588 82.467200 0.043056
5598 722 2 0.5897 9.758588 82.242822 0.375308
5599 723 1 -1.1794 0.818638 84.761966 5.433057
5600 723 2 0.5897 1.488337 84.084685 5.128436
5601 723 2 0.5897 0.029937 84.750690 4.818384
5602 724 1 -1.1794 7.465830 82.263925 8.347939
5603 724 2 0.5897 6.902723 81.499779 8.662568
5604 724 2 0.5897 7.754208 82.811131 9.133689
5605 725 1 -1.1794 9.170120 76.058903 15.968544
5606 725 2 0.5897 8.964989 76.512599 15.101318
5607 725 2 0.5897 8.748027 76.567652 16.718885
5608 726 1 -1.1794 15.237310 78.792284 29.116924
5609 726 2 0.5897 14.284229 79.087445 29.184128
5610 726 2 0.5897 15.497280 78.311770 29.954493
5611 727 1 -1.1794 7.602815 77.328838 11.497181
5612 727 2 0.5897 8.100271 76.580869 11.057772
5613 727 2 0.5897 6.619796 77.193446 11.373319
5614 728 1 -1.1794 10.536451 77.076406 12.092644
5615 728 2 0.5897 10.558477 77.134976 13.090684
5616 728 2 0.5897 10.222781 76.167172 11.818956
5617 729 1 -1.1794 2.134269 75.441397 0.598849
5618 729 2 0.5897 2.559476 75.650657 1.479422
5619 729 2 0.5897 2.197658 76.239746 0.000000
5620 730 1 -1.1794 18.182442 94.606808 19.524211
5621 730 2 0.5897 18.424404 93.975787 20.261277
5622 730 2 0.5897 17.231586 94.455125 19.254278
5623 731 1 -1.1794 20.129205 89.504277 -0.000461
5624 731 2 0.5897 20.213180 90.160670 0.749270
5625 731 2 0.5897 20.092810 88.576624 0.371203
5626 732 1 -1.1794 3.914201 73.046512 4.068081
5627 732 2 0.5897 4.139852 74.005585 4.239137
5628 732 2 0.5897 4.115100 72.505992 4.885075
5629 733 1 -1.1794 8.246759 91.867751 30.023323
5630 733 2 0.5897 8.960819 92.565331 30.082479
5631 733 2 0.5897 8.409324 91.164813 30.715747
5632 734 1 -1.1794 7.514306 70.992455 10.977578
5633 734 2 0.5897 7.534332 71.815911 11.544606
5634 734 2 0.5897 7.475045 70.184134 11.565009
5635 735 1 -1.1794 20.009832 76.750799 21.498172
5636 735 2 0.5897 19.148729 77.048972 21.909992
5637 735 2 0.5897 20.765984 77.274247 21.890901
5638 736 1 -1.1794 9.762636 90.710521 10.397072
5639 736 2 0.5897 9.072290 90.387457 9.749730
5640 736 2 0.5897 10.642379 90.798561 9.929843
5641 737 1 -1.1794 16.432353 76.078647 10.151646
5642 737 2 0.5897 15.951370 75.857519 11.000032
5643 737 2 0.5897 16.138599 76.977536 9.826518
5644 738 1 -1.1794 1.379971 65.399667 11.448705
5645 738 2 0.5897 0.866250 64.575842 11.688294
5646 738 2 0.5897 1.584021 65.918459 12.278898
5647 739 1 -1.1794 18.808559 90.014005 3.563858
5648 739 2 0.5897 19.009356 90.007228 2.584249
5649 739 2 0.5897 19.086263 90.891455 3.954962
5650 740 1 -1.1794 20.329829 49.710260 33.443419
5651 740 2 0.5897 20.612853 49.801061 32.488614
5652 740 2 0.5897 19.359871 49.938825 33.526729
5653 741 1 -1.1794 9.785281 88.914215 18.097388
5654 741 2 0.5897 10.619730 88.586069 18.540124
5655 741 2 0.5897 8.988598 88.603532 18.615819
5656 742 1 -1.1794 0.354135 93.071896 31.159627
5657 742 2 0.5897 1.327242 93.051405 31.389066
5658 742 2 0.5897 0.027368 92.138798 31.009459
5659 743 1 -1.1794 15.820572 83.824324 0.577260
5660 743 2 0.5897 16.462733 84.328491 -0.000188
5661 743 2 0.5897 15.178298 83.320100 -0.000011
5662 744 1 -1.1794 20.382066 94.387956 26.418998
5663 744 2 0.5897 20.739660 93.589296 25.934984
5664 744 2 0.5897 20.170123 95.109714 25.760102
5665 745 1 -1.1794 15.588609 69.433484 14.034048
5666 745 2 0.5897 15.692191 68.538583 14.468127
5667 745 2 0.5897 15.002295 70.012758 14.600332
5668 746 1 -1.1794 14.640337 60.560980 20.473793
5669 746 2 0.5897 13.730133 60.635216 20.881247
5670 746 2 0.5897 15.334190 60.684145 21.183299
5671 747 1 -1.1794 9.822582 74.912901 5.607137
5672 747 2 0.5897 9.355626 75.517892 6.252069
5673 747 2 0.5897 9.147320 74.467465 5.019252
5674 748 1 -1.1794 5.340452 54.233428 29.357106
5675 748 2 0.5897 5.839165 54.814662 30.000109
5676 748 2 0.5897 5.972484 53.881418 28.666727
5677 749 1 -1.1794 16.270513 78.889561 15.153574
5678 749 2 0.5897 17.084983 79.423962 15.379526
5679 749 2 0.5897 15.598929 79.479134 14.704822
5680 750 1 -1.1794 5.733574 74.049921 30.450308
5681 750 2 0.5897 6.676436 74.379657 30.402520
5682 750 2 0.5897 5.146796 74.635942 29.891496
5683 751 1 -1.1794 14.522262 69.423059 22.535684
5684 751 2 0.5897 13.857178 68.854322 23.019627
5685 751 2 0.5897 15.095412 69.903645 23.199413
5686 752 1 -1.1794 11.024685 77.998572 0.577129
5687 752 2 0.5897 11.109625 78.810458 -0.000475
5688 752 2 0.5897 10.939772 77.186334 0.000015
5689 753 1 -1.1794 0.785399 68.647517 30.957320
5690 753 2 0.5897 -0.000006 68.676589 30.339021
5691 753 2 0.5897 1.629558 68.611846 30.422415
5692 754 1 -1.1794 9.115415 93.257198 21.407016
5693 754 2 0.5897 8.741483 94.163941 21.212099
5694 754 2 0.5897 9.247097 92.759608 20.549658
5695 755 1 -1.1794 14.654905 86.210839 29.052962
5696 755 2 0.5897 15.487484 86.592520 28.651548
5697 755 2 0.5897 14.569250 85.249432 28.791504
5698 756 1 -1.1794 5.315092 74.572492 26.771815
5699 756 2 0.5897 4.561191 74.258633 26.194644
5700 756 2 0.5897 4.979816 74.732465 27.700254
5701 757 1 -1.1794 0.561218 94.248202 11.629099
5702 757 2 0.5897 1.434386 94.088693 11.168517
5703 757 2 0.5897 0.001857 94.867334 11.077927
5704 758 1 -1.1794 18.254800 65.344046 33.494044
5705 758 2 0.5897 18.411753 64.425258 33.131838
5706 758 2 0.5897 17.932670 65.941342 32.759557
5707 759 1 -1.1794 13.221086 81.411702 25.288595
5708 759 2 0.5897 13.769600 81.040736 26.037939
5709 759 2 0.5897 13.139964 82.402835 25.393834
5710 760 1 -1.1794 4.309833 96.250986 31.711113
5711 760 2 0.5897 4.541548 95.288630 31.569061
5712 760 2 0.5897 4.739072 96.576319 32.553676
5713 761 1 -1.1794 2.861763 52.026083 20.843724
5714 761 2 0.5897 2.322849 51.911325 20.009217
5715 761 2 0.5897 2.262306 51.950923 21.640594
5716 762 1 -1.1794 3.138114 80.614738 14.332811
5717 762 2 0.5897 3.464556 79.732473 14.671993
5718 762 2 0.5897 3.231317 81.303442 15.051837
5719 763 1 -1.1794 15.215422 58.771739 9.015963
5720 763 2 0.5897 15.858292 59.505168 9.236871
5721 763 2 0.5897 14.920837 58.321592 9.858927
5722 764 1 -1.1794 14.630033 94.325577 16.506854
5723 764 2 0.5897 15.316616 93.890118 17.089072
5724 764 2 0.5897 14.770474 94.043519 15.557791
5725 765 1 -1.1794 14.185105 97.526687 29.158486
5726 765 2 0.5897 13.261547 97.451134 28.782545
5727 765 2 0.5897 14.161056 97.342782 30.141136
5728 766 1 -1.1794 12.648155 72.392486 20.331623
5729 766 2 0.5897 12.143198 71.554855 20.539931
5730 766 2 0.5897 12.244012 73.158399 20.831669
5731 767 1 -1.1794 16.655182 75.805959 1.299175
5732 767 2 0.5897 16.742096 75.006338 1.893357
5733 767 2 0.5897 16.344474 76.589192 1.837698
5734 768 1 -1.1794 5.247803 50.418547 28.255679
5735 768 2 0.5897 5.495918 49.663310 28.862355
5736 768 2 0.5897 4.944305 51.199122 28.802113
5737 769 1 -1.1794 0.284541 59.696690 4.922897
5738 769 2 0.5897 0.008690 59.379601 5.830289
5739 769 2 0.5897 0.000002 60.647620 4.801368
5740 770 1 -1.1794 12.698036 88.021422 18.989308
5741 770 2 0.5897 12.382010 88.098663 19.934909
5742 770 2 0.5897 12.849725 87.058509 18.766171
5743 771 1 -1.1794 20.453692 50.279095 10.801401
5744 771 2 0.5897 19.581928 49.966600 11.178728
5745 771 2 0.5897 20.857621 50.958518 11.413959
5746 772 1 -1.1794 0.595111 86.679178 11.576448
5747 772 2 0.5897 0.000055 86.885060 12.353314
5748 772 2 0.5897 1.489875 86.383543 11.911110
5749 773 1 -1.1794 15.369349 93.051951 21.172199
5750 773 2 0.5897 15.430342 93.303603 22.138092
5751 773 2 0.5897 14.418923 93.121268 20.869072
5752 774 1 -1.1794 2.848663 82.756164 8.197426
5753 774 2 0.5897 3.665763 82.362260 7.776490
5754 774 2 0.5897 2.280195 83.177960 7.491074
5755 775 1 -1.1794 1.801401 84.012976 14.424608
5756 775 2 0.5897 1.189604 84.361943 15.134486
5757 775 2 0.5897 2.750052 84.195672 14.682841
5758 776 1 -1.1794 9.950240 89.617272 21.259601
5759 776 2 0.5897 9.358837 89.980144 20.539485
5760 776 2 0.5897 10.159623 88.658518 21.067379
5761 777 1 -1.1794 17.739943 71.967862 29.478309
5762 777 2 0.5897 18.355635 71.399750 28.932257
5763 777 2 0.5897 16.997712 72.306183 28.899834
5764 778 1 -1.1794 11.932920 70.280426 12.742522
5765 778 2 0.5897 12.909724 70.494512 12.747164
5766 778 2 0.5897 11.470916 70.816162 13.449303
5767 779 1 -1.1794 4.284304 76.736715 15.554872
5768 779 2 0.5897 3.923863 76.389451 14.689141
5769 779 2 0.5897 4.318476 77.735682 15.524944
5770 780 1 -1.1794 11.351743 55.388570 26.270062
5771 780 2 0.5897 11.868017 56.166927 25.912821
5772 780 2 0.5897 10.945841 54.880811 25.510178
5773 781 1 -1.1794 11.031973 68.798985 8.191132
5774 781 2 0.5897 10.657190 69.559429 8.721475
5775 781 2 0.5897 11.859425 68.457561 8.636948
5776 782 1 -1.1794 9.294086 49.341405 29.688598
5777 782 2 0.5897 8.920949 48.549999 29.204401
5778 782 2 0.5897 9.825067 49.030042 30.476704
5779 783 1 -1.1794 13.075432 66.135537 2.237968
5780 783 2 0.5897 12.290860 65.515566 2.228852
5781 783 2 0.5897 12.821398 67.000994 1.806169
5782 784 1 -1.1794 10.994963 52.047838 19.051007
5783 784 2 0.5897 11.560714 52.367044 19.811292
5784 784 2 0.5897 10.194925 51.567007 19.409811
5785 785 1 -1.1794 19.883268 83.603892 1.665486
5786 785 2 0.5897 19.977234 82.648775 1.384555
5787 785 2 0.5897 19.007417 83.961886 1.341875
5788 786 1 -1.1794 11.377325 62.778929 0.600263
5789 786 2 0.5897 12.139388 62.443430 0.046458
5790 786 2 0.5897 10.637776 63.083452 -0.000014
5791 787 1 -1.1794 11.932062 53.362788 28.906381
5792 787 2 0.5897 12.440667 52.733780 29.494317
5793 787 2 0.5897 12.294012 53.315167 27.975400
5794 788 1 -1.1794 8.437705 80.149857 26.763905
5795 788 2 0.5897 8.209395 80.378845 27.710181
5796 788 2 0.5897 7.660036 80.362995 26.172462
5797 789 1 -1.1794 11.519678 50.480094 8.304323
5798 789 2 0.5897 11.634855 50.224546 7.344412
5799 789 2 0.5897 12.079147 51.284393 8.504564
5800 790 1 -1.1794 14.246723 89.190401 13.179684
5801 790 2 0.5897 14.875248 88.637412 13.726638
5802 790 2 0.5897 14.041488 90.040160 13.665264
5803 791 1 -1.1794 13.522679 92.375748 23.411961
5804 791 2 0.5897 13.598318 91.534951 22.875920
5805 791 2 0.5897 13.337876 93.145271 22.800666
5806 792 1 -1.1794 -0.000701 95.564502 0.941009
5807 792 2 0.5897 0.003188 96.383615 0.367392
5808 792 2 0.5897 -0.000183 94.750655 0.359930
5809 793 1 -1.1794 8.090103 80.473186 21.109359
5810 793 2 0.5897 8.753094 80.890641 21.730788
5811 793 2 0.5897 7.517230 79.829395 21.616656
5812 794 1 -1.1794 1.885328 85.804380 7.755144
5813 794 2 0.5897 2.312954 85.405390 6.944007
5814 794 2 0.5897 1.456683 85.080719 8.296048
5815 795 1 -1.1794 18.217649 63.890908 20.763368
5816 795 2 0.5897 17.891065 64.732499 21.193563
5817 795 2 0.5897 17.848625 63.101167 21.253399
5818 796 1 -1.1794 18.907336 97.903863 14.269957
5819 796 2 0.5897 18.203310 97.233654 14.035078
5820 796 2 0.5897 19.526883 98.022324 13.493987
5821 797 1 -1.1794 12.833952 49.501105 9.772625
5822 797 2 0.5897 12.820633 48.714296 10.389678
5823 797 2 0.5897 13.236648 50.286538 10.242658
5824 798 1 -1.1794 5.417507 93.171276 6.271426
5825 798 2 0.5897 5.906613 92.300174 6.227207
5826 798 2 0.5897 5.897920 93.792211 6.890815
5827 799 1 -1.1794 0.791248 69.352542 28.400725
5828 799 2 0.5897 0.708331 68.764239 27.596347
5829 799 2 0.5897 0.716137 70.310115 28.122494
5830 800 1 -1.1794 13.527651 77.214534 4.651532
5831 800 2 0.5897 13.391778 76.450680 4.020607
5832 800 2 0.5897 13.583983 78.068341 4.133999
5833 801 1 -1.1794 21.719676 67.908802 2.977693
5834 801 2 0.5897 21.775000 68.717013 3.563982
5835 801 2 0.5897 21.775000 67.084198 3.540692
5836 802 1 -1.1794 11.592997 80.193809 5.269868
5837 802 2 0.5897 10.801509 80.430595 5.833320
5838 802 2 0.5897 12.401787 80.670690 5.614024
5839 803 1 -1.1794 12.965871 54.764851 21.044656
5840 803 2 0.5897 12.271292 54.774925 20.325310
5841 803 2 0.5897 13.874791 54.818379 20.631135
5842 804 1 -1.1794 10.627749 49.741178 3.598821
5843 804 2 0.5897 10.322151 50.460387 2.974842
5844 804 2 0.5897 10.811182 48.905934 3.080439
5845 805 1 -1.1794 4.733762 89.020279 14.169288
5846 805 2 0.5897 5.480073 89.408665 14.709821
5847 805 2 0.5897 4.057399 88.610206 14.781148
5848 806 1 -1.1794 17.655339 60.077600 21.034749
5849 806 2 0.5897 17.459460 61.004202 20.713751
5850 806 2 0.5897 18.076732 59.551153 20.296317
5851 807 1 -1.1794 16.878572 92.322993 26.815300
5852 807 2 0.5897 16.455649 91.988028 25.973317
5853 807 2 0.5897 17.659436 92.904689 26.587528
5854 808 1 -1.1794 7.540041 97.193832 27.284244
5855 808 2 0.5897 7.081384 96.860553 28.107990
5856 808 2 0.5897 8.244923 97.855521 27.539799
5857 809 1 -1.1794 14.538339 48.549987 17.120502
5858 809 2 0.5897 15.175167 49.115851 17.644189
5859 809 2 0.5897 14.740367 48.636431 16.144945
5860 810 1 -1.1794 18.017167 52.292400 1.682523
5861 810 2 0.5897 17.697465 51.364531 1.490563
5862 810 2 0.5897 17.346616 52.764229 2.255008
5863 811 1 -1.1794 4.522901 92.726636 14.112962
5864 811 2 0.5897 5.194308 92.527702 14.826851
5865 811 2 0.5897 3.608895 92.766265 14.516722
5866 812 1 -1.1794 8.182320 61.157364 18.180963
5867 812 2 0.5897 8.714033 60.727715 17.451112
5868 812 2 0.5897 8.421373 62.126494 18.241298
5869 813 1 -1.1794 16.376367 55.168170 26.312478
5870 813 2 0.5897 15.963280 54.827630 27.157104
5871 813 2 0.5897 16.051683 56.096906 26.133506
5872 814 1 -1.1794 17.960974 57.475336 21.164046
5873 814 2 0.5897 17.321317 57.556028 21.928459
5874 814 2 0.5897 18.876682 57.279500 21.514940
5875 815 1 -1.1794 0.616647 71.965349 19.736205
5876 815 2 0.5897 -0.000006 71.563801 19.059080
5877 815 2 0.5897 1.427734 72.326169 19.275829
5878 816 1 -1.1794 3.937846 67.107106 11.550545
5879 816 2 0.5897 4.429621 66.338182 11.959095
5880 816 2 0.5897 3.206437 67.400012 12.166375
5881 817 1 -1.1794 7.490248 87.693448 25.241204
5882 817 2 0.5897 7.809872 86.745934 25.233594
5883 817 2 0.5897 6.609916 87.752044 24.770479
5884 818 1 -1.1794 11.957179 69.062897 29.363216
5885 818 2 0.5897 11.549304 68.918702 28.461637
5886 818 2 0.5897 12.900193 68.730164 29.359510
5887 819 1 -1.1794 13.883731 90.963740 18.159383
5888 819 2 0.5897 14.095373 91.865851 17.783347
5889 819 2 0.5897 12.975973 90.678867 17.851450
5890 820 1 -1.1794 19.313219 61.390605 29.845240
5891 820 2 0.5897 18.972632 62.323456 29.727812
5892 820 2 0.5897 19.216282 60.889646 28.985214
5893 821 1 -1.1794 2.498042 91.516059 25.149278
5894 821 2 0.5897 2.223479 92.208733 24.482332
5895 821 2 0.5897 2.118021 90.629669 24.884899
5896 822 1 -1.1794 21.143149 68.472387 22.315611
5897 822 2 0.5897 21.773322 67.938276 21.752043
5898 822 2 0.5897 20.344506 68.728688 21.771112
5899 823 1 -1.1794 9.008159 92.858544 10.488147
5900 823 2 0.5897 9.288036 93.731249 10.888217
5901 823 2 0.5897 9.456021 92.739195 9.602045
5902 824 1 -1.1794 13.781942 75.964039 10.245279
5903 824 2 0.5897 14.337749 75.518216 9.543624
5904 824 2 0.5897 13.981091 76.943956 10.255444
5905 825 1 -1.1794 15.841990 95.794323 7.596570
5906 825 2 0.5897 16.750891 95.548373 7.259809
5907 825 2 0.5897 15.205926 95.852510 6.827131
5908 826 1 -1.1794 4.940198 72.267465 24.193876
5909 826 2 0.5897 4.365864 73.079029 24.301137
5910 826 2 0.5897 4.399955 71.448735 24.388345
5911 827 1 -1.1794 3.806594 49.333162 25.840548
5912 827 2 0.5897 3.187837 48.549999 25.902146
5913 827 2 0.5897 4.521449 49.248568 26.534685
5914 828 1 -1.1794 12.527486 55.766611 15.078636
5915 828 2 0.5897 12.783343 56.712827 15.276658
5916 828 2 0.5897 11.808517 55.476574 15.710270
5917 829 1 -1.1794 6.870318 71.526323 8.643161
5918 829 2 0.5897 7.801859 71.201346 8.806324
5919 829 2 0.5897 6.702501 71.576618 7.658626
5920 830 1 -1.1794 8.720171 68.454298 0.326049
5921 830 2 0.5897 9.405150 69.105829 -0.000004
5922 830 2 0.5897 8.504030 68.648772 1.282847
5923 831 1 -1.1794 20.168558 60.682540 6.131131
5924 831 2 0.5897 21.053574 60.875442 5.707416
5925 831 2 0.5897 19.974433 59.703684 6.066670
5926 832 1 -1.1794 10.603489 53.616277 21.348546
5927 832 2 0.5897 10.111972 52.759476 21.504442
5928 832 2 0.5897 10.202069 54.338146 21.912253
5929 833 1 -1.1794 21.708441 63.200185 10.011292
5930 833 2 0.5897 21.775001 63.879748 9.280700
5931 833 2 0.5897 20.860597 62.680348 9.906745
5932 834 1 -1.1794 21.586312 90.789709 30.427808
5933 834 2 0.5897 21.756930 91.650010 29.947421
5934 834 2 0.5897 21.338450 90.081997 29.766214
5935 835 1 -1.1794 7.714118 90.922883 14.222854
5936 835 2 0.5897 8.155247 91.647358 14.752516
5937 835 2 0.5897 6.737626 91.120436 14.136618
5938 836 1 -1.1794 8.253290 63.019458 28.552105
5939 836 2 0.5897 7.446819 63.007869 27.960946
5940 836 2 0.5897 9.078561 63.064834 27.989194
5941 837 1 -1.1794 4.386432 96.725170 23.793301
5942 837 2 0.5897 3.931916 95.850111 23.626907
5943 837 2 0.5897 3.922470 97.205530 24.537608
5944 838 1 -1.1794 10.623889 97.933017 13.109242
5945 838 2 0.5897 11.601176 97.728049 13.055405
5946 838 2 0.5897 10.454554 98.549920 13.877848
5947 839 1 -1.1794 6.987592 96.591656 12.243117
5948 839 2 0.5897 6.554753 96.514101 11.344988
5949 839 2 0.5897 7.762127 97.221654 12.186559
5950 840 1 -1.1794 14.816090 60.255482 5.552876
5951 840 2 0.5897 13.983393 60.520986 6.038802
5952 840 2 0.5897 15.564411 60.148799 6.207578
5953 841 1 -1.1794 10.752535 98.351698 24.851391
5954 841 2 0.5897 11.703458 98.550078 25.088860
5955 841 2 0.5897 10.602438 98.550345 23.882882
5956 842 1 -1.1794 18.766152 78.317982 18.067188
5957 842 2 0.5897 19.020987 77.364757 17.904639
5958 842 2 0.5897 18.864464 78.838563 17.219055
5959 843 1 -1.1794 2.263421 95.186372 5.160898
5960 843 2 0.5897 2.512805 94.636941 4.363444
5961 843 2 0.5897 2.049500 96.118769 4.869566
5962 844 1 -1.1794 6.055723 56.768866 27.663936
5963 844 2 0.5897 6.401316 56.052818 28.270435
5964 844 2 0.5897 5.703290 57.527909 28.211333
5965 845 1 -1.1794 20.814692 84.945772 8.348266
5966 845 2 0.5897 21.349510 84.219383 7.916609
5967 845 2 0.5897 20.309857 85.449507 7.647272
5968 846 1 -1.1794 12.760021 64.065533 13.662900
5969 846 2 0.5897 12.830182 63.539279 14.510328
5970 846 2 0.5897 12.820887 63.446344 12.880020
5971 847 1 -1.1794 11.408274 90.250609 6.879898
5972 847 2 0.5897 11.755603 90.046783 5.964575
5973 847 2 0.5897 10.576477 90.800734 6.805909
5974 848 1 -1.1794 5.942399 59.475624 20.449225
5975 848 2 0.5897 5.743073 60.330368 20.928477
5976 848 2 0.5897 6.371320 59.679167 19.569113
5977 849 1 -1.1794 0.000417 97.747162 24.475474
5978 849 2 0.5897 0.269079 98.556208 24.998220
5979 849 2 0.5897 0.158076 96.927238 25.025810
5980 850 1 -1.1794 2.167270 61.260543 24.612783
5981 850 2 0.5897 1.879471 60.328542 24.833114
5982 850 2 0.5897 1.874717 61.880609 25.340747
5983 851 1 -1.1794 10.198607 66.355880 10.620853
5984 851 2 0.5897 9.443511 66.941139 10.916320
5985 851 2 0.5897 9.832765 65.507212 10.238854
5986 852 1 -1.1794 9.897560 51.553871 27.991804
5987 852 2 0.5897 9.544619 52.216539 27.331271
5988 852 2 0.5897 9.150105 51.232090 28.572982
5989 853 1 -1.1794 8.675144 92.978000 6.266218
5990 853 2 0.5897 7.920154 92.927465 6.920004
5991 853 2 0.5897 8.368020 93.446681 5.437959
5992 854 1 -1.1794 1.051071 86.283127 24.243301
5993 854 2 0.5897 0.257922 86.717159 23.816065
5994 854 2 0.5897 1.807023 86.252914 23.589372
5995 855 1 -1.1794 11.226494 64.124866 19.400234
5996 855 2 0.5897 10.774666 63.520921 18.743652
5997 855 2 0.5897 12.163744 64.302037 19.099945
5998 856 1 -1.1794 0.303728 75.791785 33.631587
5999 856 2 0.5897 0.000387 76.580016 33.096166
6000 856 2 0.5897 0.496083 75.026059 33.017858
6001 857 1 -1.1794 20.257090 52.973495 7.074848
6002 857 2 0.5897 19.287697 53.188610 7.193176
6003 857 2 0.5897 20.602367 52.526157 7.899877
6004 858 1 -1.1794 5.056152 97.197617 3.004132
6005 858 2 0.5897 5.384304 98.128752 2.845063
6006 858 2 0.5897 4.279221 97.010752 2.402918
6007 859 1 -1.1794 8.320672 94.250026 27.611060
6008 859 2 0.5897 8.083078 95.070757 27.091492
6009 859 2 0.5897 9.241948 93.952246 27.360904
6010 860 1 -1.1794 0.488123 87.405701 26.132275
6011 860 2 0.5897 0.778707 87.427851 27.088868
6012 860 2 0.5897 0.247187 88.329796 25.835630
6013 861 1 -1.1794 10.705857 69.283706 16.793246
6014 861 2 0.5897 9.877351 69.250749 16.234237
6015 861 2 0.5897 10.455282 69.276328 17.761315
6016 862 1 -1.1794 9.895273 66.534763 8.294587
6017 862 2 0.5897 9.478835 67.335334 8.725476
6018 862 2 0.5897 10.866587 66.497283 8.529414
6019 863 1 -1.1794 16.249195 86.300307 14.645796
6020 863 2 0.5897 15.580235 85.841965 14.060633
6021 863 2 0.5897 15.818213 87.082797 15.095201
6022 864 1 -1.1794 15.491527 53.412535 12.742226
6023 864 2 0.5897 16.049887 52.726247 13.208319
6024 864 2 0.5897 15.736916 53.439730 11.773183
6025 865 1 -1.1794 6.541856 75.164900 9.716186
6026 865 2 0.5897 6.451731 76.126447 9.456755
6027 865 2 0.5897 6.523928 75.085487 10.712866
6028 866 1 -1.1794 10.764230 89.553103 26.770378
6029 866 2 0.5897 10.921481 89.053565 25.918478
6030 866 2 0.5897 10.240495 88.980240 27.400877
6031 867 1 -1.1794 19.391307 87.603801 14.283109
6032 867 2 0.5897 19.658046 86.692821 13.968523
6033 867 2 0.5897 19.688998 88.287084 13.616398
6034 868 1 -1.1794 17.012282 69.681149 17.528253
6035 868 2 0.5897 16.226736 70.009468 17.003731
6036 868 2 0.5897 17.569710 69.081812 16.953736
6037 869 1 -1.1794 21.128898 80.023968 28.243455
6038 869 2 0.5897 20.372355 79.938836 28.891835
6039 869 2 0.5897 21.771112 80.717553 28.569801
6040 870 1 -1.1794 2.277324 70.054763 7.548422
6041 870 2 0.5897 2.230867 69.978398 6.552425
6042 870 2 0.5897 2.631588 69.201880 7.931943
6043 871 1 -1.1794 13.507364 93.978709 11.629048
6044 871 2 0.5897 13.105274 94.858676 11.881995
6045 871 2 0.5897 14.140392 94.108555 10.865887
6046 872 1 -1.1794 15.766833 74.326053 30.707597
6047 872 2 0.5897 16.169172 73.419486 30.835113
6048 872 2 0.5897 15.239910 74.340337 29.857803
6049 873 1 -1.1794 5.144826 78.415928 23.133714
6050 873 2 0.5897 5.854283 78.675502 22.478511
6051 873 2 0.5897 4.381037 77.991628 22.647301
6052 874 1 -1.1794 2.647970 69.943713 10.071574
6053 874 2 0.5897 2.197338 70.368301 10.856849
6054 874 2 0.5897 3.095468 70.649459 9.522330
6055 875 1 -1.1794 15.653018 81.025287 13.131029
6056 875 2 0.5897 16.143051 81.683045 12.558996
6057 875 2 0.5897 15.179679 80.364549 12.548469
6058 876 1 -1.1794 15.269264 83.750408 30.426204
6059 876 2 0.5897 15.283444 84.680561 30.793102
6060 876 2 0.5897 15.413305 83.096796 31.169201
6061 877 1 -1.1794 12.575687 87.016748 11.153231
6062 877 2 0.5897 13.238204 87.699167 10.844403
6063 877 2 0.5897 12.751638 86.147997 10.690291
6064 878 1 -1.1794 11.367476 97.740795 32.836715
6065 878 2 0.5897 11.777269 96.876739 33.129079
6066 878 2 0.5897 11.929006 98.502355 33.160306
6067 879 1 -1.1794 14.825024 71.524692 0.000001
6068 879 2 0.5897 13.861376 71.719517 0.182827
6069 879 2 0.5897 15.381134 72.310488 0.270679
6070 880 1 -1.1794 0.911585 76.052884 13.104066
6071 880 2 0.5897 1.800226 75.663667 13.346610
6072 880 2 0.5897 0.217254 75.722349 13.743324
6073 881 1 -1.1794 18.238153 49.230204 25.834911
6074 881 2 0.5897 17.787240 48.550000 26.412838
6075 881 2 0.5897 18.675507 49.920258 26.411580
6076 882 1 -1.1794 11.271005 76.642390 9.161437
6077 882 2 0.5897 10.903253 77.172406 9.925533
6078 882 2 0.5897 12.201959 76.947851 8.961394
6079 883 1 -1.1794 4.863056 75.382586 6.415132
6080 883 2 0.5897 5.513575 76.079907 6.716079
6081 883 2 0.5897 4.314767 75.741979 5.660006
6082 884 1 -1.1794 14.926979 98.142764 4.687439
6083 884 2 0.5897 14.703422 98.549964 5.572995
6084 884 2 0.5897 15.770207 98.550073 4.336631
6085 885 1 -1.1794 11.403147 80.195342 16.386143
6086 885 2 0.5897 10.450788 80.242745 16.084871
6087 885 2 0.5897 11.886381 81.020949 16.094839
6088 886 1 -1.1794 4.950886 95.847262 19.374719
6089 886 2 0.5897 5.683494 96.481532 19.621675
6090 886 2 0.5897 5.181712 95.389419 18.516174
6091 887 1 -1.1794 7.091290 58.229287 29.771801
6092 887 2 0.5897 7.744481 58.877592 30.163007
6093 887 2 0.5897 6.480700 57.896660 30.490508
6094 888 1 -1.1794 5.044157 83.472867 14.344511
6095 888 2 0.5897 5.007738 82.849604 13.563348
6096 888 2 0.5897 5.870371 84.033140 14.285658
6097 889 1 -1.1794 12.940886 50.589302 12.401565
6098 889 2 0.5897 12.450450 49.945245 12.988644
6099 889 2 0.5897 13.412752 51.264411 12.968637
6100 890 1 -1.1794 3.794188 53.764986 -0.000013
6101 890 2 0.5897 4.743754 53.907476 0.279309
6102 890 2 0.5897 3.259090 53.452863 0.785003
6103 891 1 -1.1794 4.674828 50.396324 17.030067
6104 891 2 0.5897 5.475534 50.220494 17.602740
6105 891 2 0.5897 4.002235 50.922808 17.550098
6106 892 1 -1.1794 11.167812 50.064398 32.213665
6107 892 2 0.5897 10.918877 50.532151 33.061744
6108 892 2 0.5897 12.088967 50.340104 31.938965
6109 893 1 -1.1794 0.214308 55.948993 23.203237
6110 893 2 0.5897 0.478347 55.820151 22.247369
6111 893 2 0.5897 0.331705 55.089231 23.700255
6112 894 1 -1.1794 18.321501 56.674991 27.322553
6113 894 2 0.5897 18.237244 56.340093 26.384074
6114 894 2 0.5897 17.410283 56.796822 27.716050
6115 895 1 -1.1794 20.262238 66.034847 0.588626
6116 895 2 0.5897 21.084894 65.980876 0.022653
6117 895 2 0.5897 19.455873 66.092252 0.000000
6118 896 1 -1.1794 4.945551 66.589233 27.718826
6119 896 2 0.5897 4.439153 65.731894 27.811187
6120 896 2 0.5897 4.870683 66.920919 26.778412
6121 897 1 -1.1794 3.773553 64.570133 17.967226
6122 897 2 0.5897 3.010385 64.951549 18.488854
6123 897 2 0.5897 4.298444 63.949649 18.549884
6124 898 1 -1.1794 2.979076 90.461318 15.769053
6125 898 2 0.5897 3.831543 90.731166 15.321302
6126 898 2 0.5897 2.225788 90.518684 15.113868
6127 899 1 -1.1794 18.167664 95.393402 2.998422
6128 899 2 0.5897 18.844627 95.835772 2.410178
6129 899 2 0.5897 17.467441 94.958561 2.432206
6130 900 1 -1.1794 3.535739 79.562232 30.474737
6131 900 2 0.5897 3.347707 79.948198 29.571590
6132 900 2 0.5897 4.523899 79.474346 30.600504
6133 901 1 -1.1794 0.535141 58.164625 14.751619
6134 901 2 0.5897 -0.000001 57.697111 15.455220
6135 901 2 0.5897 -0.000007 58.919516 14.372468
6136 902 1 -1.1794 3.708464 57.440332 2.230328
6137 902 2 0.5897 4.511573 57.375708 2.822645
6138 902 2 0.5897 2.883740 57.501717 2.792522
6139 903 1 -1.1794 21.775014 96.179040 21.167806
6140 903 2 0.5897 21.745385 97.106922 21.539502
6141 903 2 0.5897 21.466245 96.190944 20.216743
6142 904 1 -1.1794 11.265106 97.039666 3.945132
6143 904 2 0.5897 10.601629 96.534973 3.392787
6144 904 2 0.5897 11.724508 97.720486 3.374665
6145 905 1 -1.1794 20.754250 53.198706 18.611525
6146 905 2 0.5897 21.322989 52.544443 18.113051
6147 905 2 0.5897 19.928843 53.394157 18.081900
6148 906 1 -1.1794 11.718497 65.148495 0.136564
6149 906 2 0.5897 11.928907 66.116523 -0.000003
6150 906 2 0.5897 12.546659 64.604899 0.000000
6151 907 1 -1.1794 6.608883 80.524349 13.822188
6152 907 2 0.5897 7.200139 81.311942 13.648657
6153 907 2 0.5897 6.755938 79.834553 13.113276
6154 908 1 -1.1794 13.139514 91.289232 10.373570
6155 908 2 0.5897 13.887155 91.953307 10.367502
6156 908 2 0.5897 12.822250 91.153074 11.312082
6157 909 1 -1.1794 2.053999 82.518594 20.051823
6158 909 2 0.5897 2.013225 81.662295 20.566691
6159 909 2 0.5897 2.232103 83.276621 20.679257
6160 910 1 -1.1794 8.129465 89.860879 23.365851
6161 910 2 0.5897 7.287521 89.367455 23.147530
6162 910 2 0.5897 8.351026 90.488539 22.619557
6163 911 1 -1.1794 21.411077 65.583669 11.418694
6164 911 2 0.5897 21.181677 65.647956 10.447487
6165 911 2 0.5897 20.583270 65.708373 11.965671
6166 912 1 -1.1794 0.403781 67.417187 16.851626
6167 912 2 0.5897 0.958153 68.204769 17.120674
6168 912 2 0.5897 0.337549 66.778665 17.618375
6169 913 1 -1.1794 7.849304 57.311855 9.403846
6170 913 2 0.5897 8.224083 58.028435 8.815582
6171 913 2 0.5897 6.962590 57.017683 9.047193
6172 914 1 -1.1794 20.747325 70.463824 18.308762
6173 914 2 0.5897 19.852279 70.038523 18.174548
6174 914 2 0.5897 21.443794 69.752341 18.402158
6175 915 1 -1.1794 5.167362 84.531944 2.156511
6176 915 2 0.5897 5.059476 84.551618 1.162542
6177 915 2 0.5897 4.769612 83.688805 2.518330
6178 916 1 -1.1794 19.510613 60.929617 18.332726
6179 916 2 0.5897 19.550572 59.930619 18.312566
6180 916 2 0.5897 18.825407 61.222399 18.999637
6181 917 1 -1.1794 5.698302 61.458003 33.662837
6182 917 2 0.5897 6.173694 61.130905 32.846130
6183 917 2 0.5897 4.744368 61.159250 33.635338
6184 918 1 -1.1794 18.521634 57.157091 9.522852
6185 918 2 0.5897 17.892746 57.660108 8.930000
6186 918 2 0.5897 19.334079 56.895872 9.001607
6187 919 1 -1.1794 6.162178 97.930924 0.796826
6188 919 2 0.5897 6.935609 98.550030 0.660767
6189 919 2 0.5897 6.068917 97.333940 0.000011
6190 920 1 -1.1794 3.593678 65.366141 22.115648
6191 920 2 0.5897 3.353390 66.333440 22.034442
6192 920 2 0.5897 3.506350 65.079972 23.069839
6193 921 1 -1.1794 4.517767 51.351545 11.799265
6194 921 2 0.5897 3.836082 50.768974 11.356640
6195 921 2 0.5897 5.085382 51.789280 11.101984
6196 922 1 -1.1794 1.575623 57.869018 12.662415
6197 922 2 0.5897 1.963393 57.597010 11.781708
6198 922 2 0.5897 2.144880 57.510448 13.402262
6199 923 1 -1.1794 10.941144 93.493912 31.458675
6200 923 2 0.5897 9.998774 93.809055 31.571033
6201 923 2 0.5897 10.941023 92.582989 31.046100
6202 924 1 -1.1794 0.092952 62.227903 21.352138
6203 924 2 0.5897 -0.000013 63.221300 21.419371
6204 924 2 0.5897 1.028408 61.964004 21.587255
6205 925 1 -1.1794 3.475675 57.022076 30.185085
6206 925 2 0.5897 2.944947 56.718692 30.976468
6207 925 2 0.5897 4.438152 56.785981 30.318867
6208 926 1 -1.1794 8.904123 79.371853 14.020704
6209 926 2 0.5897 9.646903 78.751326 14.272146
6210 926 2 0.5897 8.280790 79.476845 14.795581
6211 927 1 -1.1794 1.580422 57.629850 32.941095
6212 927 2 0.5897 1.257327 58.491395 33.332694
6213 927 2 0.5897 1.649014 56.940778 33.662535
6214 928 1 -1.1794 16.637408 71.205699 12.119090
6215 928 2 0.5897 16.268839 71.277556 13.045909
6216 928 2 0.5897 17.343506 71.901256 11.986326
6217 929 1 -1.1794 3.737079 73.513894 33.662500
6218 929 2 0.5897 2.838734 73.074627 33.657970
6219 929 2 0.5897 4.440287 72.836794 33.445627
6220 930 1 -1.1794 14.838991 72.283772 21.747574
6221 930 2 0.5897 14.365096 71.413634 21.612356
6222 930 2 0.5897 14.312769 72.855620 22.376922
6223 931 1 -1.1794 13.149480 58.461424 13.179392
6224 931 2 0.5897 12.915247 57.489295 13.189363
6225 931 2 0.5897 14.062719 58.588222 13.566583
6226 932 1 -1.1794 15.228743 51.333465 19.847259
6227 932 2 0.5897 15.011708 52.241872 19.489917
6228 932 2 0.5897 14.770833 50.638876 19.292404
6229 933 1 -1.1794 15.803760 62.909581 23.728142
6230 933 2 0.5897 15.938439 62.280691 24.493883
6231 933 2 0.5897 14.936026 63.393230 23.842690
6232 934 1 -1.1794 13.927487 52.893038 32.532741
6233 934 2 0.5897 13.786590 51.954064 32.846552
6234 934 2 0.5897 14.753249 52.936158 31.970373
6235 935 1 -1.1794 10.608926 74.719837 22.484963
6236 935 2 0.5897 11.578701 74.711033 22.241121
6237 935 2 0.5897 10.058538 74.541110 21.669409
6238 936 1 -1.1794 16.942663 91.147335 3.274393
6239 936 2 0.5897 16.028293 90.768534 3.417354
6240 936 2 0.5897 16.877162 91.975001 2.717008
6241 937 1 -1.1794 16.540148 75.106203 13.106675
6242 937 2 0.5897 17.277259 75.640278 13.520719
6243 937 2 0.5897 15.819380 74.952822 13.782668
6244 938 1 -1.1794 1.976860 73.056409 5.783353
6245 938 2 0.5897 1.568712 72.527193 6.527226
6246 938 2 0.5897 2.151598 73.990233 6.095504
6247 939 1 -1.1794 13.675215 69.537634 16.860595
6248 939 2 0.5897 14.104032 70.393685 16.571993
6249 939 2 0.5897 12.870944 69.359970 16.293512
6250 940 1 -1.1794 14.303981 82.803462 28.582337
6251 940 2 0.5897 13.954907 82.324673 29.387885
6252 940 2 0.5897 15.269180 82.576712 28.452049
6253 941 1 -1.1794 8.866087 78.417197 7.348484
6254 941 2 0.5897 7.986565 78.638720 7.769637
6255 941 2 0.5897 9.317148 79.260261 7.055591
6256 942 1 -1.1794 13.605356 50.914327 15.572422
6257 942 2 0.5897 14.400843 51.035938 14.978779
6258 942 2 0.5897 12.796319 50.734332 15.012903
6259 943 1 -1.1794 12.323059 73.978933 30.328393
6260 943 2 0.5897 12.902181 73.383612 30.885358
6261 943 2 0.5897 12.530984 73.835814 29.360775
6262 944 1 -1.1794 1.671076 64.629550 21.165961
6263 944 2 0.5897 2.104148 65.210431 20.476740
6264 944 2 0.5897 2.239320 63.822489 21.326430
6265 945 1 -1.1794 5.418868 75.537799 2.844621
6266 945 2 0.5897 4.746675 75.602970 2.107119
6267 945 2 0.5897 6.320431 75.344150 2.457732
6268 946 1 -1.1794 2.735046 76.185342 4.030721
6269 946 2 0.5897 2.233272 75.412339 4.418909
6270 946 2 0.5897 2.099638 76.933983 3.841528
6271 947 1 -1.1794 14.186372 85.309230 19.017895
6272 947 2 0.5897 13.650201 85.122363 19.841060
6273 947 2 0.5897 15.142033 85.063124 19.179582
6274 948 1 -1.1794 8.161864 91.075086 27.973392
6275 948 2 0.5897 8.766165 90.611799 27.325175
6276 948 2 0.5897 8.216863 92.063566 27.832388
6277 949 1 -1.1794 5.828015 64.576602 0.669888
6278 949 2 0.5897 5.284072 64.071261 -0.000004
6279 949 2 0.5897 6.442499 65.205755 0.193889
6280 950 1 -1.1794 15.184355 71.313608 9.294385
6281 950 2 0.5897 14.623677 72.133411 9.410849
6282 950 2 0.5897 15.762318 71.187765 10.100686
6283 951 1 -1.1794 21.377874 71.932197 30.220887
6284 951 2 0.5897 21.592779 72.285749 31.131281
6285 951 2 0.5897 20.442112 72.186714 29.976818
6286 952 1 -1.1794 12.512918 57.802045 8.146345
6287 952 2 0.5897 11.559884 58.040064 7.959067
6288 952 2 0.5897 13.093284 58.143924 7.407228
6289 953 1 -1.1794 21.389227 64.928313 20.028663
6290 953 2 0.5897 21.774972 65.687378 19.504238
6291 953 2 0.5897 20.851859 64.342885 19.421615
6292 954 1 -1.1794 9.850608 58.755771 28.336983
6293 954 2 0.5897 9.958579 59.497961 27.675548
6294 954 2 0.5897 10.615471 58.117532 28.249599
6295 955 1 -1.1794 1.326218 91.976316 -0.001656
6296 955 2 0.5897 1.602604 91.340521 0.719021
6297 955 2 0.5897 1.151511 92.876586 0.397080
6298 956 1 -1.1794 16.457149 92.471900 18.479195
6299 956 2 0.5897 15.765550 92.244102 19.164613
6300 956 2 0.5897 17.294467 91.958507 18.667147
6301 957 1 -1.1794 6.615244 89.568060 20.625238
6302 957 2 0.5897 7.406176 89.064045 20.972218
6303 957 2 0.5897 6.170744 90.051154 21.379585
6304 958 1 -1.1794 21.774999 78.616562 25.809950
6305 958 2 0.5897 21.695600 78.381953 26.778792
6306 958 2 0.5897 21.597762 77.804029 25.254633
6307 959 1 -1.1794 6.345013 97.008569 16.083165
6308 959 2 0.5897 5.929074 96.617454 15.262175
6309 959 2 0.5897 6.343476 96.326796 16.814727
6310 960 1 -1.1794 21.120010 74.310214 11.682024
6311 960 2 0.5897 20.149141 74.070775 11.672947
6312 960 2 0.5897 21.668968 73.475073 11.716448
6313 961 1 -1.1794 8.938182 89.349776 29.482778
6314 961 2 0.5897 9.721728 89.516378 30.081360
6315 961 2 0.5897 8.146409 89.088770 30.035020
6316 962 1 -1.1794 6.245163 73.624728 6.998671
6317 962 2 0.5897 5.724855 73.909780 7.803671
6318 962 2 0.5897 5.614718 73.316235 6.286371
6319 963 1 -1.1794 12.241445 48.898969 23.862559
6320 963 2 0.5897 11.708342 49.128373 24.676915
6321 963 2 0.5897 12.457733 49.735533 23.359190
6322 964 1 -1.1794 0.000007 64.061916 4.316431
6323 964 2 0.5897 0.534854 63.924772 5.150176
6324 964 2 0.5897 0.512174 64.642637 3.683621
6325 965 1 -1.1794 20.045928 67.002278 19.086521
6326 965 2 0.5897 20.056181 67.996502 19.193356
6327 965 2 0.5897 19.814673 66.575468 19.960794
6328 966 1 -1.1794 20.080413 54.180977 24.145077
6329 966 2 0.5897 20.793794 54.853603 24.341702
6330 966 2 0.5897 19.875209 53.660737 24.974077
6331 967 1 -1.1794 9.819808 59.430642 7.614732
6332 967 2 0.5897 9.889631 59.621545 8.593854
6333 967 2 0.5897 10.597949 59.840605 7.138889
6334 968 1 -1.1794 6.293307 83.686922 4.653710
6335 968 2 0.5897 5.918362 82.846025 4.263445
6336 968 2 0.5897 6.466928 84.345647 3.921633
6337 969 1 -1.1794 13.501753 49.599234 3.568774
6338 969 2 0.5897 12.824820 50.224348 3.957353
6339 969 2 0.5897 13.096866 48.690484 3.467577
6340 970 1 -1.1794 18.671981 77.715397 14.099620
6341 970 2 0.5897 17.692862 77.769481 13.903656
6342 970 2 0.5897 18.871510 78.216286 14.941819
6343 971 1 -1.1794 8.270227 56.525475 21.923805
6344 971 2 0.5897 8.476172 57.183071 21.199129
6345 971 2 0.5897 9.116468 56.267040 22.389732
6346 972 1 -1.1794 16.505965 79.556658 2.305393
6347 972 2 0.5897 15.823145 79.045005 1.783887
6348 972 2 0.5897 17.239362 79.852964 1.693566
6349 973 1 -1.1794 21.208092 96.115792 23.699821
6350 973 2 0.5897 21.775060 95.590295 24.334171
6351 973 2 0.5897 20.586165 96.703610 24.217195
6352 974 1 -1.1794 11.425291 78.638291 28.634776
6353 974 2 0.5897 12.048863 78.343546 29.358851
6354 974 2 0.5897 10.624447 79.076809 29.042637
6355 975 1 -1.1794 9.508806 89.002119 5.299540
6356 975 2 0.5897 9.806557 89.892744 4.955836
6357 975 2 0.5897 9.023588 88.510925 4.576151
6358 976 1 -1.1794 6.636562 63.056964 16.148305
6359 976 2 0.5897 6.318912 63.679458 15.433043
6360 976 2 0.5897 7.485148 62.616971 15.854521
6361 977 1 -1.1794 8.843739 79.585650 19.227219
6362 977 2 0.5897 8.061813 79.550671 18.604830
6363 977 2 0.5897 9.690215 79.480945 18.705189
6364 978 1 -1.1794 3.533255 67.991555 5.422441
6365 978 2 0.5897 3.973605 68.662140 6.019440
6366 978 2 0.5897 3.097321 67.284764 5.979584
6367 979 1 -1.1794 14.368311 97.505431 32.410307
6368 979 2 0.5897 13.907278 98.340998 32.111517
6369 979 2 0.5897 13.952269 97.180701 33.259694
6370 980 1 -1.1794 10.821328 89.326550 13.008129
6371 980 2 0.5897 10.289028 89.874007 12.362414
6372 980 2 0.5897 11.796895 89.466738 12.838962
6373 981 1 -1.1794 1.788871 56.896036 24.542633
6374 981 2 0.5897 2.607363 56.800822 25.109206
6375 981 2 0.5897 0.984763 56.983409 25.130662
6376 982 1 -1.1794 5.318867 79.022568 8.866645
6377 982 2 0.5897 4.885997 79.534096 9.608914
6378 982 2 0.5897 5.851398 78.267271 9.248661
6379 983 1 -1.1794 9.117485 58.843695 5.503385
6380 983 2 0.5897 9.049297 59.838694 5.576381
6381 983 2 0.5897 8.615704 58.533558 4.695900
6382 984 1 -1.1794 2.935622 49.249784 19.690446
6383 984 2 0.5897 3.759620 49.565564 20.160881
6384 984 2 0.5897 3.079795 49.290970 18.701751
6385 985 1 -1.1794 7.635441 70.789659 5.810189
6386 985 2 0.5897 7.624741 71.779953 5.671616
6387 985 2 0.5897 8.260745 70.367953 5.153561
6388 986 1 -1.1794 0.886201 72.853867 32.181044
6389 986 2 0.5897 1.608179 73.476142 31.878517
6390 986 2 0.5897 -0.000040 73.193135 31.865648
6391 987 1 -1.1794 7.344817 51.910939 30.475223
6392 987 2 0.5897 6.894222 52.793698 30.342178
6393 987 2 0.5897 6.872083 51.211308 29.939462
6394 988 1 -1.1794 17.721283 52.943911 30.132794
6395 988 2 0.5897 16.722744 52.890768 30.123000
6396 988 2 0.5897 18.004364 53.902522 30.102289
6397 989 1 -1.1794 16.906929 69.763593 21.957260
6398 989 2 0.5897 17.029564 70.650491 22.402649
6399 989 2 0.5897 16.234181 69.849820 21.222430
6400 990 1 -1.1794 12.002934 60.660241 31.495519
6401 990 2 0.5897 12.431887 60.544237 30.599672
6402 990 2 0.5897 12.576651 60.237484 32.197036
6403 991 1 -1.1794 21.776550 82.465796 26.779467
6404 991 2 0.5897 21.443805 83.403021 26.675108
6405 991 2 0.5897 21.031991 81.824985 26.592404
6406 992 1 -1.1794 20.087092 57.547677 11.808326
6407 992 2 0.5897 20.408208 57.037171 11.010662
6408 992 2 0.5897 20.791338 58.197784 12.093628
6409 993 1 -1.1794 7.423304 72.393305 30.982820
6410 993 2 0.5897 7.741861 72.467862 30.037853
6411 993 2 0.5897 7.672244 71.496560 31.348711
6412 994 1 -1.1794 13.407948 67.493828 13.059476
6413 994 2 0.5897 13.747113 67.628427 13.990524
6414 994 2 0.5897 12.879445 68.294810 12.778207
6415 995 1 -1.1794 20.541291 69.321139 10.451444
6416 995 2 0.5897 19.744823 69.837228 10.136339
6417 995 2 0.5897 20.953229 69.788594 11.233616
6418 996 1 -1.1794 10.013069 61.151539 32.420734
6419 996 2 0.5897 9.830782 60.346923 32.985858
6420 996 2 0.5897 10.096160 61.958070 33.006058
6421 997 1 -1.1794 3.509695 78.663618 32.486798
6422 997 2 0.5897 4.221054 78.710371 33.188070
6423 997 2 0.5897 3.686328 77.885356 31.884212
6424 998 1 -1.1794 12.597265 50.700837 18.374094
6425 998 2 0.5897 12.762606 51.478386 17.767398
6426 998 2 0.5897 13.012450 49.879178 17.983584
6427 999 1 -1.1794 20.494345 92.300462 8.367777
6428 999 2 0.5897 19.747199 91.637544 8.319681
6429 999 2 0.5897 21.367343 91.815549 8.420057
6430 1000 1 -1.1794 2.080984 89.758809 2.495016
6431 1000 2 0.5897 2.799122 89.142435 2.171965
6432 1000 2 0.5897 2.462621 90.673109 2.630693
6433 1001 1 -1.1794 13.310762 70.318788 5.010607
6434 1001 2 0.5897 12.930833 69.602119 4.425766
6435 1001 2 0.5897 12.593291 70.676403 5.608393
6436 1002 1 -1.1794 20.818686 94.218864 6.462023
6437 1002 2 0.5897 20.886444 94.816174 7.261166
6438 1002 2 0.5897 21.322897 93.372709 6.634633
6439 1003 1 -1.1794 11.325929 94.043945 12.886231
6440 1003 2 0.5897 10.496571 93.517448 13.073222
6441 1003 2 0.5897 11.188972 94.993252 13.169177
6442 1004 1 -1.1794 14.903447 81.568028 15.573697
6443 1004 2 0.5897 15.853813 81.591705 15.263463
6444 1004 2 0.5897 14.294252 81.553812 14.780804
6445 1005 1 -1.1794 13.856245 83.409652 9.275495
6446 1005 2 0.5897 13.059804 83.546908 9.864428
6447 1005 2 0.5897 13.593510 82.860360 8.482243
6448 1006 1 -1.1794 14.830851 76.812926 15.288056
6449 1006 2 0.5897 14.044797 76.820278 15.906171
6450 1006 2 0.5897 14.687697 77.482034 14.558809
6451 1007 1 -1.1794 17.043344 66.661593 29.543429
6452 1007 2 0.5897 16.299401 66.237341 30.059723
6453 1007 2 0.5897 17.007644 67.653918 29.661821
6454 1008 1 -1.1794 2.502513 81.748495 31.822625
6455 1008 2 0.5897 2.960512 82.512387 31.367976
6456 1008 2 0.5897 2.133317 81.123923 31.134436
6457 1009 1 -1.1794 13.855300 76.297511 6.624217
6458 1009 2 0.5897 13.868702 76.458792 7.611035
6459 1009 2 0.5897 12.962633 75.933802 6.358017
6460 1010 1 -1.1794 1.715640 82.307808 16.662605
6461 1010 2 0.5897 1.359064 82.237669 15.730975
6462 1010 2 0.5897 1.630769 83.251689 16.981801
6463 1011 1 -1.1794 11.134959 94.469693 33.662623
6464 1011 2 0.5897 10.695738 93.571520 33.643364
6465 1011 2 0.5897 10.441252 95.182277 33.557761
6466 1012 1 -1.1794 18.673834 74.836419 20.840851
6467 1012 2 0.5897 19.060753 74.059229 21.337107
6468 1012 2 0.5897 17.963917 75.267490 21.397803
6469 1013 1 -1.1794 11.109799 71.112944 0.742261
6470 1013 2 0.5897 10.589091 70.448727 1.278617
6471 1013 2 0.5897 11.720881 71.623897 1.346832
6472 1014 1 -1.1794 14.496386 65.332054 11.129268
6473 1014 2 0.5897 14.521704 66.303382 11.365662
6474 1014 2 0.5897 14.636722 65.224789 10.144992
6475 1015 1 -1.1794 9.983687 49.068602 21.860375
6476 1015 2 0.5897 10.820625 48.550000 21.685486
6477 1015 2 0.5897 10.012500 49.929256 21.352001
6478 1016 1 -1.1794 13.594583 87.104518 26.371422
6479 1016 2 0.5897 14.376797 87.552418 25.938378
6480 1016 2 0.5897 12.746706 87.466950 25.984450
6481 1017 1 -1.1794 11.508152 59.230082 25.363968
6482 1017 2 0.5897 12.099741 59.187169 24.558872
6483 1017 2 0.5897 10.784000 59.902322 25.210030
6484 1018 1 -1.1794 21.288373 85.991881 16.953115
6485 1018 2 0.5897 20.442212 86.515852 16.855819
6486 1018 2 0.5897 21.775010 85.979420 16.079599
6487 1019 1 -1.1794 15.295435 86.448871 22.241607
6488 1019 2 0.5897 15.972554 85.765531 22.514658
6489 1019 2 0.5897 14.594065 86.015518 21.675669
6490 1020 1 -1.1794 16.502526 64.575533 0.018734
6491 1020 2 0.5897 16.495512 63.824876 0.679388
6492 1020 2 0.5897 17.371763 65.066023 0.080754
6493 1021 1 -1.1794 10.447426 81.913491 4.196351
6494 1021 2 0.5897 9.839839 82.196105 4.938623
6495 1021 2 0.5897 11.381973 82.204166 4.401608
6496 1022 1 -1.1794 13.269681 91.943989 26.462690
6497 1022 2 0.5897 12.632307 92.444567 27.048502
6498 1022 2 0.5897 13.920282 91.440845 27.031518
6499 1023 1 -1.1794 15.252137 64.637204 7.259975
6500 1023 2 0.5897 14.558665 64.146737 7.787744
6501 1023 2 0.5897 15.828973 65.168686 7.880287
6502 1024 1 -1.1794 0.696556 84.395048 12.426700
6503 1024 2 0.5897 0.188977 84.829863 13.170541
6504 1024 2 0.5897 0.115574 83.714800 11.979796
6505 1025 1 -1.1794 5.102630 65.569224 10.010858
6506 1025 2 0.5897 5.217473 65.217831 9.081701
6507 1025 2 0.5897 5.626041 66.414988 10.114423
6508 1026 1 -1.1794 7.882601 55.643584 26.256139
6509 1026 2 0.5897 7.910697 56.615165 26.491172
6510 1026 2 0.5897 7.989894 55.096580 27.086364
6511 1027 1 -1.1794 2.094485 83.829143 10.717958
6512 1027 2 0.5897 1.564519 83.545383 9.918823
6513 1027 2 0.5897 2.456819 84.749067 10.568110
6514 1028 1 -1.1794 0.250646 79.179329 29.362687
6515 1028 2 0.5897 0.531022 79.954453 28.796496
6516 1028 2 0.5897 -0.000066 78.410403 28.774556
6517 1029 1 -1.1794 15.681359 85.053891 33.502126
6518 1029 2 0.5897 15.257825 84.185187 33.245273
6519 1029 2 0.5897 16.050926 85.498629 32.686265
6520 1030 1 -1.1794 10.193439 94.979285 17.366484
6521 1030 2 0.5897 9.663110 94.135679 17.282341
6522 1030 2 0.5897 10.543233 95.244123 16.467871
6523 1031 1 -1.1794 21.716381 68.841290 8.551868
6524 1031 2 0.5897 20.951464 69.401700 8.234310
6525 1031 2 0.5897 21.373200 67.956100 8.865980
6526 1032 1 -1.1794 4.081431 68.628738 28.544922
6527 1032 2 0.5897 3.089177 68.519434 28.485881
6528 1032 2 0.5897 4.441144 68.895642 27.650848
6529 1033 1 -1.1794 0.093622 53.361123 25.266018
6530 1033 2 0.5897 0.000006 52.416070 25.579242
6531 1033 2 0.5897 0.000009 53.981244 26.044919
6532 1034 1 -1.1794 7.847800 63.805518 5.359179
6533 1034 2 0.5897 8.600470 64.421006 5.592978
6534 1034 2 0.5897 7.199673 63.767642 6.119769
6535 1035 1 -1.1794 13.515797 75.389972 13.818209
6536 1035 2 0.5897 13.635063 75.004707 14.733275
6537 1035 2 0.5897 12.646207 75.077614 13.435787
6538 1036 1 -1.1794 19.959742 72.593639 26.772605
6539 1036 2 0.5897 18.987021 72.820078 26.722219
6540 1036 2 0.5897 20.455424 73.092829 26.061895
6541 1037 1 -1.1794 14.485613 93.905378 24.682349
6542 1037 2 0.5897 14.829104 94.755729 25.080993
6543 1037 2 0.5897 14.712501 93.139635 25.284145
6544 1038 1 -1.1794 19.738844 74.735835 31.716687
6545 1038 2 0.5897 20.658314 74.363004 31.841475
6546 1038 2 0.5897 19.183755 74.530695 32.522784
6547 1039 1 -1.1794 8.445620 94.273246 3.397712
6548 1039 2 0.5897 8.745467 93.426340 2.958574
6549 1039 2 0.5897 9.244540 94.821800 3.644317
6550 1040 1 -1.1794 4.429471 84.080816 16.667390
6551 1040 2 0.5897 3.762642 83.367565 16.451490
6552 1040 2 0.5897 3.967777 84.966822 16.710185
6553 1041 1 -1.1794 4.834423 85.559390 23.771385
6554 1041 2 0.5897 5.691121 85.947557 23.431687
6555 1041 2 0.5897 4.174259 85.502279 23.022437
6556 1042 1 -1.1794 8.341017 74.485587 11.939304
6557 1042 2 0.5897 8.639379 74.966847 12.763542
6558 1042 2 0.5897 9.066452 73.869763 11.631887
6559 1043 1 -1.1794 6.106867 66.271205 23.299344
6560 1043 2 0.5897 5.567045 67.112480 23.270214
6561 1043 2 0.5897 5.717037 65.602924 22.665757
6562 1044 1 -1.1794 13.344265 73.431419 8.178575
6563 1044 2 0.5897 13.204084 74.381435 7.899613
6564 1044 2 0.5897 12.762875 73.225950 8.965829
6565 1045 1 -1.1794 10.560740 61.952755 30.043652
6566 1045 2 0.5897 9.698008 61.451945 30.113531
6567 1045 2 0.5897 10.585413 62.672593 30.737355
6568 1046 1 -1.1794 6.028962 81.602789 23.077691
6569 1046 2 0.5897 7.012769 81.533875 22.912240
6570 1046 2 0.5897 5.550069 81.698025 22.204998
6571 1047 1 -1.1794 10.942892 80.043510 2.419806
6572 1047 2 0.5897 10.289910 80.516145 1.828003
6573 1047 2 0.5897 11.737034 79.761430 1.881505
6574 1048 1 -1.1794 0.367427 79.688511 3.931163
6575 1048 2 0.5897 0.000029 80.617557 3.887662
6576 1048 2 0.5897 0.000969 79.222531 4.736502
6577 1049 1 -1.1794 14.335104 54.646482 30.114064
6578 1049 2 0.5897 15.331754 54.705940 30.057911
6579 1049 2 0.5897 13.973123 54.293453 29.251312
6580 1050 1 -1.1794 5.433082 58.567872 25.864383
6581 1050 2 0.5897 5.629697 59.251761 26.566977
6582 1050 2 0.5897 4.806810 57.881236 26.233591
6583 1051 1 -1.1794 5.416841 54.848383 33.170947
6584 1051 2 0.5897 5.123385 55.671235 33.657567
6585 1051 2 0.5897 6.177157 54.423771 33.662500
6586 1052 1 -1.1794 2.638318 98.550043 20.088025
6587 1052 2 0.5897 3.456454 98.533016 19.513253
6588 1052 2 0.5897 1.823854 98.497893 19.510160
6589 1053 1 -1.1794 -0.000065 57.886649 1.248618
6590 1053 2 0.5897 0.053786 58.872440 1.089504
6591 1053 2 0.5897 0.151404 57.696833 2.218683
6592 1054 1 -1.1794 21.131675 61.699389 33.633680
6593 1054 2 0.5897 21.775000 61.253739 33.011163
6594 1054 2 0.5897 20.462389 62.220699 33.104254
6595 1055 1 -1.1794 1.555750 66.379072 4.541299
6596 1055 2 0.5897 1.752577 67.311620 4.238625
6597 1055 2 0.5897 2.389284 65.829009 4.489811
6598 1056 1 -1.1794 -0.000111 96.603156 8.697833
6599 1056 2 0.5897 0.018553 97.165500 9.524525
6600 1056 2 0.5897 0.533810 95.771161 8.848541
6601 1057 1 -1.1794 9.713628 53.798291 30.325013
6602 1057 2 0.5897 9.642106 52.872397 29.954061
6603 1057 2 0.5897 8.867216 54.031944 30.803545
6604 1058 1 -1.1794 6.072382 48.549977 21.546618
6605 1058 2 0.5897 7.029561 48.629917 21.268375
6606 1058 2 0.5897 5.719094 49.453598 21.788809
6607 1059 1 -1.1794 19.537346 68.178429 29.028978
6608 1059 2 0.5897 20.465588 68.086743 28.668478
6609 1059 2 0.5897 19.049879 67.312281 28.918684
6610 1060 1 -1.1794 14.100610 88.195167 16.353099
6611 1060 2 0.5897 13.426430 88.637190 16.944789
6612 1060 2 0.5897 14.557475 87.462555 16.857633
6613 1061 1 -1.1794 20.690148 68.421303 0.604590
6614 1061 2 0.5897 20.181115 68.396292 1.464974
6615 1061 2 0.5897 21.668119 68.331843 0.793191
6616 1062 1 -1.1794 5.444460 69.189974 31.218481
6617 1062 2 0.5897 5.516468 68.606824 30.409314
6618 1062 2 0.5897 6.166743 69.881223 31.196511
6619 1063 1 -1.1794 7.724876 95.771288 23.865444
6620 1063 2 0.5897 8.398795 95.711465 23.129065
6621 1063 2 0.5897 6.834015 96.016265 23.482883
6622 1064 1 -1.1794 1.004186 88.945397 23.861665
6623 1064 2 0.5897 1.572957 89.377734 23.161962
6624 1064 2 0.5897 0.135119 89.434780 23.933968
6625 1065 1 -1.1794 17.833225 85.178500 16.169077
6626 1065 2 0.5897 18.483560 85.882889 15.884646
6627 1065 2 0.5897 17.032493 85.611664 16.582837
6628 1066 1 -1.1794 20.402176 60.315443 20.304350
6629 1066 2 0.5897 20.949408 60.815170 20.975775
6630 1066 2 0.5897 20.244706 59.383199 20.630115
6631 1067 1 -1.1794 7.330265 54.379246 6.608023
6632 1067 2 0.5897 6.478975 54.222321 6.107343
6633 1067 2 0.5897 8.103170 54.328377 5.975544
6634 1068 1 -1.1794 17.130898 84.561161 13.170468
6635 1068 2 0.5897 16.722750 83.661642 13.326289
6636 1068 2 0.5897 17.786918 84.760160 13.898505
6637 1069 1 -1.1794 14.800510 49.493414 13.282332
6638 1069 2 0.5897 15.318582 50.120333 12.700461
6639 1069 2 0.5897 15.010438 48.550000 13.025621
6640 1070 1 -1.1794 13.200477 79.664624 11.890762
6641 1070 2 0.5897 13.422790 80.376148 11.224196
6642 1070 2 0.5897 13.061276 78.795336 11.416462
6643 1071 1 -1.1794 11.542148 92.035981 18.902494
6644 1071 2 0.5897 12.116532 92.641376 18.351512
6645 1071 2 0.5897 12.092177 91.625478 19.629786
6646 1072 1 -1.1794 14.157253 48.557455 21.229631
6647 1072 2 0.5897 13.375392 48.610122 20.608407
6648 1072 2 0.5897 15.004759 48.550116 20.698897
6649 1073 1 -1.1794 15.522198 82.044352 22.809905
6650 1073 2 0.5897 14.804356 82.337926 23.441187
6651 1073 2 0.5897 16.362437 82.551603 23.001467
6652 1074 1 -1.1794 20.374887 81.794654 19.629524
6653 1074 2 0.5897 20.745692 80.866076 19.613844
6654 1074 2 0.5897 19.764989 81.896786 20.415395
6655 1075 1 -1.1794 8.693539 97.650609 24.503644
6656 1075 2 0.5897 7.844553 98.160197 24.363847
6657 1075 2 0.5897 8.749771 97.351532 25.456215
6658 1076 1 -1.1794 15.616250 91.654528 11.704115
6659 1076 2 0.5897 15.735735 92.599974 11.401039
6660 1076 2 0.5897 14.832215 91.599258 12.322367
6661 1077 1 -1.1794 13.477726 66.045057 7.526845
6662 1077 2 0.5897 13.286169 66.946946 7.914018
6663 1077 2 0.5897 13.086270 65.986574 6.608508
6664 1078 1 -1.1794 4.416034 84.604930 20.251763
6665 1078 2 0.5897 3.970898 84.032941 19.562791
6666 1078 2 0.5897 3.757112 84.839619 20.966426
6667 1079 1 -1.1794 3.418688 82.089764 22.579859
6668 1079 2 0.5897 3.754236 82.967048 22.236667
6669 1079 2 0.5897 2.424088 82.127994 22.676351
6670 1080 1 -1.1794 6.302276 84.437479 21.370435
6671 1080 2 0.5897 5.724639 84.167110 22.140653
6672 1080 2 0.5897 6.769115 85.294481 21.588628
6673 1081 1 -1.1794 20.563130 82.439422 29.232551
6674 1081 2 0.5897 21.255367 83.042785 28.836621
6675 1081 2 0.5897 19.977193 82.082000 28.505277
6676 1082 1 -1.1794 21.405994 74.580504 15.341405
6677 1082 2 0.5897 21.196123 74.014202 14.544375
6678 1082 2 0.5897 20.624616 74.580342 15.965463
6679 1083 1 -1.1794 18.468278 54.825705 14.270431
6680 1083 2 0.5897 18.737619 55.252891 13.407316
6681 1083 2 0.5897 17.933273 54.002129 14.082036
6682 1084 1 -1.1794 7.813043 86.406860 4.245459
6683 1084 2 0.5897 7.980919 86.674925 5.194121
6684 1084 2 0.5897 7.173708 87.050830 3.825277
6685 1085 1 -1.1794 10.373312 57.551526 14.235258
6686 1085 2 0.5897 10.754166 58.280827 13.666866
6687 1085 2 0.5897 9.387513 57.686823 14.334731
6688 1086 1 -1.1794 11.679207 60.277153 11.697421
6689 1086 2 0.5897 12.445421 60.746363 12.136464
6690 1086 2 0.5897 10.837791 60.467602 12.203136
6691 1087 1 -1.1794 1.548063 97.820672 14.514559
6692 1087 2 0.5897 1.273337 98.539792 13.876286
6693 1087 2 0.5897 0.737030 97.329848 14.832862
6694 1088 1 -1.1794 20.294564 53.075136 28.453836
6695 1088 2 0.5897 21.054319 53.374633 29.030962
6696 1088 2 0.5897 19.751434 52.393975 28.944783
6697 1089 1 -1.1794 19.443383 77.450784 5.737110
6698 1089 2 0.5897 19.749248 77.812872 6.617643
6699 1089 2 0.5897 19.265417 78.208221 5.108924
6700 1090 1 -1.1794 10.623839 53.377762 6.637223
6701 1090 2 0.5897 10.860466 52.425472 6.829970
6702 1090 2 0.5897 10.569037 53.513946 5.648056
6703 1091 1 -1.1794 7.522536 78.234535 33.090088
6704 1091 2 0.5897 8.046978 78.016541 32.267021
6705 1091 2 0.5897 6.837698 77.522967 33.247150
6706 1092 1 -1.1794 15.061784 61.327623 1.827835
6707 1092 2 0.5897 15.679456 62.111381 1.892679
6708 1092 2 0.5897 14.474851 61.297964 2.636927
6709 1093 1 -1.1794 12.480419 51.192539 27.370828
6710 1093 2 0.5897 12.009864 50.986442 28.228792
6711 1093 2 0.5897 12.829272 50.345332 26.970152
6712 1094 1 -1.1794 10.842142 95.114386 5.128384
6713 1094 2 0.5897 11.046503 94.773467 6.045996
6714 1094 2 0.5897 11.620581 94.937563 4.526083
6715 1095 1 -1.1794 5.752261 58.978143 32.262421
6716 1095 2 0.5897 5.207476 59.554780 31.653571
6717 1095 2 0.5897 5.161977 58.292913 32.689065
6718 1096 1 -1.1794 9.241506 70.035354 33.655954
6719 1096 2 0.5897 9.195106 69.036465 33.664125
6720 1096 2 0.5897 9.130181 70.366544 32.718980
6721 1097 1 -1.1794 3.508290 76.081426 8.110205
6722 1097 2 0.5897 4.378808 76.036384 8.600278
6723 1097 2 0.5897 3.145332 75.157423 7.989875
6724 1098 1 -1.1794 15.824418 67.430986 9.045719
6725 1098 2 0.5897 16.198753 66.659179 9.559711
6726 1098 2 0.5897 14.915245 67.655463 9.396454
6727 1099 1 -1.1794 12.133314 66.351315 32.960566
6728 1099 2 0.5897 13.079630 66.340116 33.283617
6729 1099 2 0.5897 11.565444 65.801594 33.573208
6730 1100 1 -1.1794 1.637067 48.590117 11.303641
6731 1100 2 0.5897 2.540356 48.979096 11.484647
6732 1100 2 0.5897 1.099862 48.588235 12.147091
6733 1101 1 -1.1794 0.941559 88.091515 16.030602
6734 1101 2 0.5897 0.949286 87.788598 15.077616
6735 1101 2 0.5897 -0.000010 88.109757 16.366927
6736 1102 1 -1.1794 2.259753 59.847307 8.965933
6737 1102 2 0.5897 2.899645 60.494929 8.552262
6738 1102 2 0.5897 2.423985 58.933340 8.594862
6739 1103 1 -1.1794 11.753577 95.163521 23.352731
6740 1103 2 0.5897 12.098592 94.996657 22.429085
6741 1103 2 0.5897 12.516836 95.390211 23.957749
6742 1104 1 -1.1794 16.081194 74.621937 24.689817
6743 1104 2 0.5897 15.382729 74.658452 23.975106
6744 1104 2 0.5897 16.926902 74.246560 24.310515
6745 1105 1 -1.1794 16.073298 71.477350 33.184028
6746 1105 2 0.5897 16.135212 70.601433 33.662500
6747 1105 2 0.5897 16.852959 71.575122 32.565506
6748 1106 1 -1.1794 1.012721 52.818001 1.294170
6749 1106 2 0.5897 0.343511 52.205701 1.715176
6750 1106 2 0.5897 1.077756 53.659767 1.830082
6751 1107 1 -1.1794 19.319694 98.096871 22.788195
6752 1107 2 0.5897 18.786449 97.796104 23.578884
6753 1107 2 0.5897 20.154158 98.550009 23.101781
6754 1108 1 -1.1794 7.249850 50.830074 26.410636
6755 1108 2 0.5897 7.325594 51.178804 27.344793
6756 1108 2 0.5897 8.152997 50.550171 26.085091
6757 1109 1 -1.1794 11.143614 78.374882 31.699096
6758 1109 2 0.5897 10.463901 78.354922 32.432303
6759 1109 2 0.5897 11.091982 79.251396 31.220496
6760 1110 1 -1.1794 17.535267 51.452538 14.213925
6761 1110 2 0.5897 17.931175 50.630053 13.805543
6762 1110 2 0.5897 18.227643 51.916838 14.766230
6763 1111 1 -1.1794 11.761029 92.576775 24.909108
6764 1111 2 0.5897 12.383894 93.350914 25.022015
6765 1111 2 0.5897 11.278730 92.661435 24.037201
6766 1112 1 -1.1794 16.452296 71.918564 25.045805
6767 1112 2 0.5897 16.942789 72.466123 25.723740
6768 1112 2 0.5897 15.699875 72.455760 24.664645
6769 1113 1 -1.1794 10.864628 86.336722 25.841452
6770 1113 2 0.5897 10.563916 86.978805 26.546648
6771 1113 2 0.5897 11.344647 85.571427 26.270294
6772 1114 1 -1.1794 18.098406 94.282363 24.074670
6773 1114 2 0.5897 18.588229 93.881925 24.849088
6774 1114 2 0.5897 18.160708 95.279372 24.120394
6775 1115 1 -1.1794 15.713776 86.848314 7.838043
6776 1115 2 0.5897 15.939156 86.294442 7.036526
6777 1115 2 0.5897 15.829740 87.816728 7.617300
6778 1116 1 -1.1794 2.828389 49.342096 3.701648
6779 1116 2 0.5897 2.449140 49.370384 2.776785
6780 1116 2 0.5897 3.482187 48.588603 3.770897
6781 1117 1 -1.1794 4.468882 61.935046 26.975338
6782 1117 2 0.5897 4.838938 61.119229 27.419749
6783 1117 2 0.5897 3.713248 62.297903 27.520639
6784 1118 1 -1.1794 6.322704 65.002512 31.985832
6785 1118 2 0.5897 5.588004 65.673476 32.085948
6786 1118 2 0.5897 6.704722 64.789856 32.885187
6787 1119 1 -1.1794 5.600746 88.908352 18.777676
6788 1119 2 0.5897 5.102996 89.556769 18.201655
6789 1119 2 0.5897 6.390683 88.555312 18.276315
6790 1120 1 -1.1794 18.665521 86.270038 6.259311
6791 1120 2 0.5897 17.927853 86.410973 5.599021
6792 1120 2 0.5897 18.988327 87.155896 6.592555
6793 1121 1 -1.1794 9.268814 97.575793 33.662497
6794 1121 2 0.5897 9.127318 97.121087 32.783167
6795 1121 2 0.5897 9.435982 98.549995 33.510887
6796 1122 1 -1.1794 2.629601 71.529010 31.968173
6797 1122 2 0.5897 2.044966 71.123670 31.265391
6798 1122 2 0.5897 2.695960 70.905282 32.746992
6799 1123 1 -1.1794 2.294697 50.167829 28.149471
6800 1123 2 0.5897 1.437821 50.596922 27.863740
6801 1123 2 0.5897 2.644214 50.631247 28.963770
6802 1124 1 -1.1794 2.858378 86.361006 15.218086
6803 1124 2 0.5897 2.879133 87.053677 15.939041
6804 1124 2 0.5897 2.806206 86.809872 14.326011
6805 1125 1 -1.1794 18.023679 95.097225 31.229640
6806 1125 2 0.5897 18.183741 94.996385 32.211583
6807 1125 2 0.5897 17.325112 95.796043 31.075833
6808 1126 1 -1.1794 21.551067 76.465665 32.485033
6809 1126 2 0.5897 21.774999 77.393610 32.782982
6810 1126 2 0.5897 21.249805 75.926620 33.271590
6811 1127 1 -1.1794 15.972683 72.564264 4.799568
6812 1127 2 0.5897 16.697768 73.001483 4.267505
6813 1127 2 0.5897 15.968628 71.581800 4.613163
6814 1128 1 -1.1794 5.251024 93.702491 27.531608
6815 1128 2 0.5897 6.106609 93.569303 27.031373
6816 1128 2 0.5897 4.502019 93.833161 26.882056
6817 1129 1 -1.1794 16.314673 87.437818 30.506301
6818 1129 2 0.5897 16.108871 88.331725 30.904518
6819 1129 2 0.5897 17.294484 87.254740 30.586633
6820 1130 1 -1.1794 3.024137 91.564404 20.604932
6821 1130 2 0.5897 2.579459 90.762982 21.004911
6822 1130 2 0.5897 2.891140 92.353442 21.204707
6823 1131 1 -1.1794 19.405227 74.217811 4.943072
6824 1131 2 0.5897 18.412490 74.265903 4.832796
6825 1131 2 0.5897 19.657578 73.319202 5.301988
6826 1132 1 -1.1794 0.139457 87.285036 18.644032
6827 1132 2 0.5897 1.047408 87.657642 18.452224
6828 1132 2 0.5897 0.224451 86.330553 18.929931
6829 1133 1 -1.1794 6.724211 92.307934 31.549224
6830 1133 2 0.5897 6.812237 93.174903 31.058698
6831 1133 2 0.5897 5.814380 92.248202 31.959881
6832 1134 1 -1.1794 11.944853 50.642258 1.336452
6833 1134 2 0.5897 11.971912 51.300142 0.583818
6834 1134 2 0.5897 12.118200 49.723289 0.982267
6835 1135 1 -1.1794 20.529576 66.011913 27.939284
6836 1135 2 0.5897 20.659035 65.308468 28.638144
6837 1135 2 0.5897 20.295328 65.578223 27.069203
6838 1136 1 -1.1794 21.084895 49.417597 3.604995
6839 1136 2 0.5897 20.231463 49.895688 3.812558
6840 1136 2 0.5897 21.110208 48.550000 4.101617
6841 1137 1 -1.1794 7.064819 70.831681 25.911707
6842 1137 2 0.5897 7.539797 71.234133 26.694285
6843 1137 2 0.5897 6.654829 69.960726 26.182530
6844 1138 1 -1.1794 12.584366 63.183467 28.142506
6845 1138 2 0.5897 11.660982 63.305796 27.778642
6846 1138 2 0.5897 13.230405 63.084145 27.385691
6847 1139 1 -1.1794 13.258340 48.987721 30.202286
6848 1139 2 0.5897 13.959082 48.921124 30.912585
6849 1139 2 0.5897 13.255789 49.912698 29.822271
6850 1140 1 -1.1794 0.931489 77.884827 1.776377
6851 1140 2 0.5897 -0.000003 78.099734 1.482886
6852 1140 2 0.5897 1.578822 78.179907 1.073605
6853 1141 1 -1.1794 20.696143 97.027768 10.605180
6854 1141 2 0.5897 21.326155 96.882352 9.842330
6855 1141 2 0.5897 20.427141 97.990400 10.636453
6856 1142 1 -1.1794 15.743123 83.265421 16.848811
6857 1142 2 0.5897 16.537262 83.580577 17.368445
6858 1142 2 0.5897 15.022122 82.982015 17.481139
6859 1143 1 -1.1794 3.785954 66.007415 29.997330
6860 1143 2 0.5897 3.698537 65.759842 30.962248
6861 1143 2 0.5897 4.194541 66.917046 29.922303
6862 1144 1 -1.1794 6.232099 78.789938 16.164127
6863 1144 2 0.5897 5.995162 78.144558 16.890312
6864 1144 2 0.5897 6.900957 79.448619 16.508755
6865 1145 1 -1.1794 18.998775 54.822889 5.729067
6866 1145 2 0.5897 19.710478 55.523444 5.781043
6867 1145 2 0.5897 18.488917 54.928419 4.875306
6868 1146 1 -1.1794 11.333188 69.616343 23.646334
6869 1146 2 0.5897 11.325574 69.211733 22.731876
6870 1146 2 0.5897 10.671304 70.364946 23.685111
6871 1147 1 -1.1794 3.969257 55.263727 2.528474
6872 1147 2 0.5897 4.767111 55.358342 1.933094
6873 1147 2 0.5897 3.135837 55.297906 1.976892
6874 1148 1 -1.1794 20.485985 71.334666 13.622912
6875 1148 2 0.5897 20.881922 72.205599 13.331864
6876 1148 2 0.5897 21.125402 70.864593 14.231333
6877 1149 1 -1.1794 7.193806 68.698346 27.901741
6878 1149 2 0.5897 6.682162 68.012307 27.384468
6879 1149 2 0.5897 6.586109 69.139491 28.562116
6880 1150 1 -1.1794 20.679870 81.387617 4.492408
6881 1150 2 0.5897 19.681776 81.357363 4.438617
6882 1150 2 0.5897 20.995215 80.750663 5.195862
6883 1151 1 -1.1794 0.724142 80.889194 32.807947
6884 1151 2 0.5897 1.153307 81.161993 33.668992
6885 1151 2 0.5897 -0.005722 80.231156 32.993106
6886 1152 1 -1.1794 15.863773 67.196405 33.252064
6887 1152 2 0.5897 15.891390 66.760125 32.352676
6888 1152 2 0.5897 15.679680 68.173261 33.143152
6889 1153 1 -1.1794 8.145192 55.117320 10.789277
6890 1153 2 0.5897 7.195371 54.848201 10.629855
6891 1153 2 0.5897 8.451380 54.753965 11.669176
6892 1154 1 -1.1794 21.007115 64.362300 33.315934
6893 1154 2 0.5897 21.777093 64.745411 32.805679
6894 1154 2 0.5897 20.435105 65.105154 33.663747
6895 1155 1 -1.1794 15.382983 92.072731 0.469677
6896 1155 2 0.5897 15.407853 91.073665 0.434365
6897 1155 2 0.5897 15.156751 92.367914 1.397948
6898 1156 1 -1.1794 9.112083 69.066388 6.833221
6899 1156 2 0.5897 8.618719 69.646478 7.481363
6900 1156 2 0.5897 9.897774 69.566639 6.469301
6901 1157 1 -1.1794 12.142197 76.417896 24.860100
6902 1157 2 0.5897 13.013705 76.411008 25.350433
6903 1157 2 0.5897 12.183025 77.085994 24.117149
6904 1158 1 -1.1794 8.596181 98.322004 19.998764
6905 1158 2 0.5897 9.327100 98.237399 20.675963
6906 1158 2 0.5897 8.991105 98.550099 19.108816
6907 1159 1 -1.1794 1.632320 55.156047 12.596473
6908 1159 2 0.5897 0.872737 55.793483 12.467211
6909 1159 2 0.5897 1.921225 54.797416 11.708826
6910 1160 1 -1.1794 1.084072 90.090795 16.944881
6911 1160 2 0.5897 0.896567 91.073009 16.954744
6912 1160 2 0.5897 1.240523 89.771926 17.879679
6913 1161 1 -1.1794 6.275175 89.344416 5.706808
6914 1161 2 0.5897 6.825231 88.860940 5.025860
6915 1161 2 0.5897 5.682816 90.006494 5.247717
6916 1162 1 -1.1794 19.279425 54.699799 8.792263
6917 1162 2 0.5897 19.830729 54.040486 9.303509
6918 1162 2 0.5897 18.341962 54.691288 9.140242
6919 1163 1 -1.1794 10.711838 88.367901 31.884234
6920 1163 2 0.5897 11.187278 87.931171 32.647924
6921 1163 2 0.5897 10.413689 89.282746 32.156569
6922 1164 1 -1.1794 8.580304 60.534144 14.329280
6923 1164 2 0.5897 9.573409 60.431393 14.272853
6924 1164 2 0.5897 8.187976 59.735507 14.785633
6925 1165 1 -1.1794 6.373410 73.179674 3.727918
6926 1165 2 0.5897 6.260576 73.162438 2.734453
6927 1165 2 0.5897 6.158887 72.278025 4.103431
6928 1166 1 -1.1794 2.438798 86.892570 4.761116
6929 1166 2 0.5897 3.038864 86.225474 4.319637
6930 1166 2 0.5897 2.350344 87.699306 4.176862
6931 1167 1 -1.1794 6.134838 72.287405 21.136870
6932 1167 2 0.5897 7.006507 71.830368 20.959921
6933 1167 2 0.5897 5.535437 72.180647 20.343573
6934 1168 1 -1.1794 6.544601 79.103545 5.973814
6935 1168 2 0.5897 6.122108 79.352542 6.845307
6936 1168 2 0.5897 7.385621 79.629880 5.848690
6937 1169 1 -1.1794 3.126354 74.136629 15.164321
6938 1169 2 0.5897 3.420210 73.311991 15.647665
6939 1169 2 0.5897 2.594565 73.878552 14.357725
6940 1170 1 -1.1794 4.400898 98.551210 13.403656
6941 1170 2 0.5897 3.460274 98.227391 13.505479
6942 1170 2 0.5897 4.938567 98.268496 14.198001
6943 1171 1 -1.1794 11.309902 93.300969 21.270179
6944 1171 2 0.5897 12.238131 93.406067 20.913325
6945 1171 2 0.5897 11.258166 92.470678 21.825104
6946 1172 1 -1.1794 3.893725 72.012978 11.188043
6947 1172 2 0.5897 3.165120 72.063788 11.871090
6948 1172 2 0.5897 4.781801 72.008325 11.647718
6949 1173 1 -1.1794 16.058449 77.653818 17.156280
6950 1173 2 0.5897 15.146332 77.951557 17.438048
6951 1173 2 0.5897 16.709320 78.401000 17.290759
6952 1174 1 -1.1794 -0.005170 95.016039 6.467724
6953 1174 2 0.5897 0.064240 95.597098 5.656828
6954 1174 2 0.5897 0.903837 94.886788 6.863958
6955 1175 3 0 5.421551 85.820640 33.633374
6956 1176 3 0 12.960782 89.470975 26.856857
6957 1177 3 0 9.354034 51.972373 12.057163
6958 1178 3 0 5.607500 61.631314 29.416503
6959 1179 3 0 13.415794 57.467881 24.948653
6960 1180 3 0 7.765153 58.480804 27.692739
6961 1181 3 0 18.256537 61.212997 11.216953
6962 1182 3 0 18.758231 75.104112 23.442900
6963 1183 3 0 9.340775 78.027003 30.487461
6964 1184 3 0 16.399471 73.839882 22.112828
6965 1185 3 0 5.775612 98.550365 11.639441
6966 1186 3 0 3.531178 81.791317 28.385203
6967 1187 3 0 0.000002 78.065004 8.722483
6968 1188 3 0 12.812279 77.257248 17.675476
6969 1189 3 0 14.347714 86.856729 12.547039
6970 1190 3 0 0.371260 82.781780 3.751998
6971 1191 3 0 5.398902 53.476330 2.881418
6972 1192 3 0 3.482203 58.823161 24.750969
6973 1193 3 0 16.743566 69.995470 29.451023
6974 1194 3 0 2.167637 88.183496 0.295442
6975 1195 3 0 2.056432 96.635795 21.002930
6976 1196 3 0 16.106146 50.580278 16.291891
6977 1197 3 0 19.724939 54.995217 27.543398
6978 1198 3 0 8.823309 69.562118 9.937090
6979 1199 3 0 6.497779 78.299449 2.282866
6980 1200 3 0 3.557917 66.991000 24.158597
6981 1201 3 0 7.226510 57.868877 15.442448
6982 1202 3 0 13.526208 59.127011 4.124368
6983 1203 3 0 14.989298 95.842656 20.520775
6984 1204 3 0 18.501824 91.784783 28.422562
6985 1205 3 0 6.667432 76.929256 23.691003
6986 1206 3 0 18.208714 71.059045 14.060348
6987 1207 3 0 16.328943 55.101754 4.470466
6988 1208 3 0 10.631618 48.548885 10.534045
6989 1209 3 0 19.841659 72.418665 32.481175
6990 1210 3 0 17.188527 75.428736 8.190624
6991 1211 3 0 0.540281 59.139048 26.110399
6992 1212 3 0 20.610516 57.342594 15.448850
6993 1213 3 0 5.720587 65.042088 17.058239
6994 1214 3 0 11.393676 88.892798 10.731981
6995 1215 3 0 13.433531 51.233221 6.578171
6996 1216 3 0 3.223296 55.963092 6.860808
6997 1217 3 0 15.910608 77.184566 12.754270
6998 1218 3 0 9.292261 64.704041 20.820650
6999 1219 3 0 6.361474 90.126487 31.767144
7000 1220 3 0 13.599911 58.168521 21.535149
7001 1221 3 0 8.618400 72.947364 19.962543
7002 1222 3 0 16.996320 78.637103 4.286514
7003 1223 3 0 20.407338 62.083819 14.894700
7004 1224 3 0 21.486800 76.376709 4.494704
7005 1225 3 0 12.671628 54.701769 24.156837
7006 1226 3 0 12.807652 67.190871 15.931042
7007 1227 3 0 3.796532 91.766090 7.662959
7008 1228 3 0 8.974310 78.755769 16.755086
7009 1229 3 0 9.025466 63.679339 25.572729
7010 1230 3 0 20.519612 91.100909 20.717970
7011 1231 3 0 6.351373 83.523273 10.671910
7012 1232 3 0 0.902362 72.050144 17.112489
7013 1233 3 0 7.187278 94.708983 19.111370
7014 1234 3 0 17.970323 68.927585 27.677940
7015 1235 3 0 7.825601 93.588061 23.163842
7016 1236 3 0 19.250781 94.964901 8.725434
7017 1237 3 0 12.699527 62.406805 20.080859
7018 1238 3 0 10.620789 53.636382 11.309767
7019 1239 3 0 20.337994 95.438452 32.271565
7020 1240 3 0 3.502664 96.515108 27.604575
7021 1241 3 0 3.292256 78.173697 8.754946
7022 1242 3 0 12.925283 95.659310 9.824889
7023 1243 3 0 15.636947 68.620326 25.530940
7024 1244 3 0 2.706210 78.280503 24.044652
7025 1245 3 0 3.614053 52.000303 15.671715
7026 1246 3 0 3.466605 64.424254 32.694964
7027 1247 3 0 16.592765 63.636467 17.974593
7028 1248 3 0 12.031228 76.584336 15.051402
7029 1249 3 0 13.082011 78.797455 16.127956
7030 1250 3 0 5.488523 63.850482 27.364825
7031 1251 3 0 4.310343 62.028854 4.453721
7032 1252 3 0 16.619837 57.174548 10.657380
7033 1253 3 0 19.537705 58.112806 4.093538
7034 1254 3 0 0.668742 87.085153 2.898383
7035 1255 3 0 5.199346 86.872820 14.061532
7036 1256 3 0 15.512205 80.844273 29.860070
7037 1257 3 0 12.192187 61.832650 33.662513
7038 1258 3 0 11.098445 93.193480 15.896864
7039 1259 3 0 5.903396 55.965137 7.335883
7040 1260 3 0 15.508913 69.606210 19.159709
7041 1261 3 0 11.781375 60.161097 14.166723
7042 1262 3 0 5.259645 75.967789 20.801751
7043 1263 3 0 14.131701 50.883073 0.546725
7044 1264 3 0 19.858773 51.142856 2.038959
7045 1265 3 0 8.611338 93.757228 15.335945
7046 1266 3 0 13.256713 53.426024 18.891524
7047 1267 3 0 17.086925 95.610146 21.193428
7048 1268 3 0 1.502494 67.498422 20.262002
7049 1269 3 0 12.134684 77.265011 21.803618
7050 1270 3 0 9.070825 61.731539 12.549937
7051 1271 3 0 2.100307 74.064148 11.711003
7052 1272 3 0 3.383289 98.553149 28.418830
7053 1273 3 0 16.695302 60.834248 16.402744
7054 1274 3 0 6.923537 87.372377 22.295957
7055 1275 3 0 10.864159 94.179770 19.303199
7056 1276 3 0 16.851917 97.545241 15.742907
7057 1277 3 0 16.292572 66.188595 12.918973
7058 1278 3 0 14.729309 85.217799 16.887811
7059 1279 3 0 10.020795 91.093356 16.751705
7060 1280 3 0 10.605562 76.865604 17.859369
7061 1281 3 0 2.570729 66.491547 2.306574
7062 1282 3 0 9.804589 84.397190 25.237333
7063 1283 3 0 4.989885 48.966188 13.176034
7064 1284 3 0 14.848268 97.058280 9.097926
7065 1285 3 0 2.025539 84.756739 18.834258
7066 1286 3 0 21.775155 63.966244 27.299251
7067 1287 3 0 14.437499 48.769504 23.886488
7068 1288 3 0 14.928597 56.832131 33.662504
7069 1289 3 0 8.996946 76.841707 8.878530
7070 1290 3 0 7.860886 94.332293 9.325763
7071 1291 3 0 3.191967 66.700303 9.406942
7072 1292 3 0 19.424014 69.459219 31.252386
7073 1293 3 0 14.365310 69.506923 8.343055
7074 1294 3 0 1.381697 92.272226 19.268252
7075 1295 3 0 2.979849 80.799346 18.791734
7076 1296 3 0 21.758687 65.612237 17.305582
7077 1297 3 0 0.585524 90.415673 26.446753
7078 1298 3 0 14.638515 78.167359 24.029878
7079 1299 3 0 18.103652 57.604848 31.924056
7080 1300 3 0 8.566693 65.885928 24.698268
7081 1301 3 0 6.245337 76.954860 25.848938
7082 1302 3 0 9.978893 54.018285 13.379085
7083 1303 3 0 19.801531 59.420883 26.293562
7084 1304 3 0 20.190841 97.589297 2.539848
7085 1305 3 0 20.652944 63.509722 11.933795
7086 1306 3 0 21.775000 73.400203 4.694314
7087 1307 3 0 18.344863 55.837074 16.769416
7088 1308 3 0 15.470389 92.000096 15.974041
7089 1309 3 0 9.622121 48.869197 24.028435
7090 1310 3 0 12.858746 74.106957 10.979449
7091 1311 3 0 0.002090 93.611666 4.711644
7092 1312 3 0 17.726999 76.322346 3.528076
7093 1313 3 0 15.163424 52.546448 21.692242
7094 1314 3 0 8.500980 64.928989 7.731198
7095 1315 3 0 8.603894 73.209892 26.716753
7096 1316 3 0 3.914542 60.748435 -0.000102
7097 1317 3 0 17.887311 57.746750 0.758378
7098 1318 3 0 14.271511 63.119975 11.258571
7099 1319 3 0 16.860615 60.919135 22.997090
7100 1320 3 0 20.427423 53.649369 20.739932
7101 1321 3 0 15.248915 82.364445 2.120603
7102 1322 3 0 19.809818 64.847181 2.384388
7103 1323 3 0 14.350589 55.899588 13.691982
7104 1324 3 0 9.605883 62.452167 16.416201
7105 1325 3 0 21.775000 68.855904 31.215385
7106 1326 3 0 15.134797 53.706393 25.234651
7107 1327 3 0 6.271579 56.916317 0.000000
7108 1328 3 0 1.115596 59.556561 2.890716
7109 1329 3 0 1.604078 55.987756 3.820134
7110 1330 3 0 1.843404 86.702383 9.763240
7111 1331 3 0 0.737926 50.986679 32.701588
7112 1332 3 0 20.959082 71.673049 10.098390
7113 1333 3 0 19.652453 50.854779 24.675997
7114 1334 3 0 13.244696 94.861588 6.008049
7115 1335 3 0 9.930850 49.243019 6.358102
7116 1336 3 0 4.269253 89.474351 20.435969
7117 1337 3 0 10.034956 98.551175 4.965777
7118 1338 3 0 9.366473 68.914846 28.187852
7119 1339 3 0 20.984784 89.732622 3.738688
7120 1340 3 0 19.089850 70.568528 12.105114
7121 1341 3 0 21.775024 67.752938 11.377971
7122 1342 3 0 18.075099 84.642626 4.298422
7123 1343 3 0 17.784606 71.798942 5.835867
7124 1344 3 0 9.275787 75.829961 30.818613
7125 1345 3 0 5.107444 54.349922 11.111668
7126 1346 3 0 7.690416 58.745854 0.000012
7127 1347 3 0 19.641387 62.698558 17.031287
7128 1348 3 0 2.865741 61.202773 22.527515
7129 1349 3 0 2.081480 96.894027 31.036242
7130 1350 3 0 15.292198 85.945686 0.924189
7131 1351 3 0 15.651286 75.604603 3.715904
7132 1352 3 0 18.313631 81.629948 2.420333
7133 1353 3 0 12.750807 53.628698 4.247066
7134 1354 3 0 7.960428 55.112511 8.584171
7135 1355 3 0 12.626816 69.619698 1.298162
7136 1356 3 0 21.775001 65.493821 6.631560
7137 1357 3 0 12.967268 96.755028 14.734626
7138 1358 3 0 2.920425 54.994711 33.648055
7139 1359 3 0 19.336315 78.407898 20.190127
7140 1360 3 0 4.257685 65.834784 20.071272
7141 1361 3 0 4.664140 73.442010 13.752813
7142 1362 3 0 17.036744 55.632347 31.094629
7143 1363 3 0 17.286621 91.209303 20.961715
7144 1364 3 0 1.799931 75.954640 22.362894
7145 1365 3 0 13.654665 94.438751 30.763798
7146 1366 3 0 13.116620 57.454460 29.583015
7147 1367 3 0 14.881447 98.379551 14.488677
7148 1368 3 0 3.622996 93.365154 16.633525
7149 1369 3 0 0.000060 62.408661 11.896241
7150 1370 3 0 17.876245 78.942984 25.100172
7151 1371 3 0 17.834044 63.680140 23.375735
7152 1372 3 0 5.876591 71.477033 29.422374
7153 1373 3 0 9.216469 68.766629 23.275322
7154 1374 3 0 8.397778 95.709939 16.326477
7155 1375 4 2.0 3.317462 69.035699 31.768260
7156 1376 4 2.0 19.047227 66.898469 2.609915
7157 1377 4 2.0 17.018641 89.089671 2.397250
7158 1378 4 2.0 3.436850 92.780803 12.200682
7159 1379 4 2.0 0.095671 61.159111 23.409851
7160 1380 4 2.0 2.696977 67.008072 17.740671
7161 1381 4 2.0 21.775234 90.991963 2.056272
7162 1382 4 2.0 15.730484 85.852804 4.074033
7163 1383 4 2.0 1.745579 79.745304 10.886279
7164 1384 4 2.0 20.824146 92.785970 13.445591
7165 1385 4 2.0 19.018696 97.257897 26.246870
7166 1386 4 2.0 3.525017 54.079960 9.607327
7167 1387 4 2.0 9.765456 58.099040 19.317150
7168 1388 4 2.0 8.498971 93.995882 25.217856
7169 1389 4 2.0 10.317302 96.706177 22.718362
7170 1390 5 -1.0 7.265817 58.020345 18.425885
7171 1391 5 -1.0 14.443893 70.740630 25.230331
7172 1392 5 -1.0 6.619748 95.988525 31.398053
7173 1393 5 -1.0 13.267824 96.671202 21.611615
7174 1394 5 -1.0 4.711488 77.902525 5.780863
7175 1395 5 -1.0 3.353939 52.145824 13.489849
7176 1396 5 -1.0 6.046776 87.092961 30.581068
7177 1397 5 -1.0 19.026496 72.724167 10.083073
7178 1398 5 -1.0 19.991429 77.012520 26.532595
7179 1399 5 -1.0 1.704420 98.548226 23.331492
7180 1400 5 -1.0 5.120698 70.049774 7.580885
7181 1401 5 -1.0 10.810313 68.109606 19.592677
7182 1402 5 -1.0 10.961996 82.572167 25.648091
7183 1403 5 -1.0 10.197873 67.648591 21.654623
7184 1404 5 -1.0 7.468238 88.905657 9.485603
7185 1405 5 -1.0 12.440101 62.759791 17.512898
7186 1406 5 -1.0 19.168146 91.628620 30.586620
7187 1407 5 -1.0 18.973313 49.536648 20.903580
7188 1408 5 -1.0 7.220582 53.561208 4.112088
7189 1409 5 -1.0 10.948075 60.897942 5.240814
7190 1410 5 -1.0 19.044266 50.728205 8.452562
7191 1411 5 -1.0 10.152596 59.028739 31.234785
7192 1412 5 -1.0 4.522889 50.195358 4.855005
7193 1413 5 -1.0 20.529016 75.021202 3.050662
7194 1414 5 -1.0 12.788048 87.052613 29.856553
7195 1415 5 -1.0 15.147470 79.647643 31.672605
7196 1416 5 -1.0 0.774750 81.719245 10.857411
7197 1417 5 -1.0 15.320500 84.286608 24.327991
7198 1418 5 -1.0 4.736368 63.554466 30.048018
7199 1419 5 -1.0 7.893924 68.725197 31.917851
7200 1420 6 0.06700000 7.466067 53.208726 19.942412
7201 1420 7 0.06700000 6.624160 54.477160 19.984789
7202 1420 8 -0.68950000 6.312533 54.892248 18.656030
7203 1420 9 -0.68950000 8.666744 53.452539 19.211689
7204 1420 10 0.10640000 6.928103 52.395183 19.445639
7205 1420 11 0.10640000 7.734859 52.892254 20.954491
7206 1420 12 0.10630000 7.165217 55.292992 20.474477
7207 1420 13 0.10630000 5.687218 54.298458 20.520109
7208 1420 14 0.40980000 7.116034 55.322919 18.314096
7209 1420 15 0.40980000 8.416228 53.435377 18.270434
7210 1421 6 0.06700000 6.831811 51.360133 6.407754
7211 1421 7 0.06700000 7.397190 52.069632 7.631063
7212 1421 8 -0.68950000 7.658286 51.117957 8.661186
7213 1421 9 -0.68950000 5.629371 50.678233 6.760141
7214 1421 10 0.10640000 7.538456 50.619543 6.020169
7215 1421 11 0.10640000 6.602239 52.081065 5.617652
7216 1421 12 0.10630000 6.687269 52.804608 8.023418
7217 1421 13 0.10630000 8.334222 52.576063 7.382346
7218 1421 14 0.40980000 6.794872 50.912082 9.061362
7219 1421 15 0.40980000 5.906595 49.867738 7.224098
7220 1422 6 0.06700000 15.949561 67.171711 5.782533
7221 1422 7 0.06700000 14.987573 68.316651 5.494054
7222 1422 8 -0.68950000 14.779038 68.426780 4.087145
7223 1422 9 -0.68950000 17.191058 67.408300 5.120916
7224 1422 10 0.10640000 15.549556 66.219930 5.419007
7225 1422 11 0.10640000 16.139532 67.091211 6.856841
7226 1422 12 0.10630000 15.391162 69.269650 5.850462
7227 1422 13 0.10630000 14.021335 68.136520 5.973949
7228 1422 14 0.40980000 15.568064 68.874174 3.733184
7229 1422 15 0.40980000 17.044402 67.179717 4.185365
7230 1423 6 0.06700000 12.008930 69.557550 31.616399
7231 1423 7 0.06700000 12.101057 69.926408 33.091182
7232 1423 8 -0.68950000 11.828237 71.316736 33.257215
7233 1423 9 -0.68950000 12.943643 70.332438 30.867476
7234 1423 10 0.10640000 11.008716 69.760951 31.221126
7235 1423 11 0.10640000 12.241189 68.498594 31.470191
7236 1423 12 0.10630000 13.103587 69.730463 33.484445
7237 1423 13 0.10630000 11.371294 69.358486 33.675367
7238 1423 14 0.40980000 12.640637 71.783132 32.991710
7239 1423 15 0.40980000 12.544642 71.216073 30.772598
7240 1424 6 0.06700000 19.956067 83.990070 32.917336
7241 1424 7 0.06700000 19.770204 85.459889 32.564327
7242 1424 8 -0.68950000 18.452502 85.670552 32.060052
7243 1424 9 -0.68950000 19.741293 83.186208 31.758585
7244 1424 10 0.10640000 19.240623 83.675376 33.683592
7245 1424 11 0.10640000 20.971360 83.808075 33.281709
7246 1424 12 0.10630000 20.480390 85.772534 31.792313
7247 1424 13 0.10630000 19.906276 86.087619 33.449653
7248 1424 14 0.40980000 18.463352 85.352486 31.139874
7249 1424 15 0.40980000 18.775464 83.137401 31.641084
7250 1425 6 0.06700000 7.760258 61.637875 0.876948
7251 1425 7 0.06700000 6.331436 61.111370 0.905027
7252 1425 8 -0.68950000 6.159563 60.246221 2.026181
7253 1425 9 -0.68950000 8.673976 60.545321 0.796509
7254 1425 10 0.10640000 7.989706 62.203369 1.785579
7255 1425 11 0.10640000 7.914686 62.283189 0.007218
7256 1425 12 0.10630000 6.104552 60.539110 -0.000047
7257 1425 13 0.10630000 5.619569 61.937131 0.992922
7258 1425 14 0.40980000 6.568249 59.398602 1.776124
7259 1425 15 0.40980000 8.724942 60.171429 1.694630
7260 1426 6 0.06700000 4.697059 92.922745 24.519011
7261 1426 7 0.06700000 4.716966 92.160655 23.200546
7262 1426 8 -0.68950000 5.805359 91.238499 23.194379
7263 1426 9 -0.68950000 5.929882 93.619747 24.690366
7264 1426 10 0.10640000 4.574396 92.240891 25.366401
7265 1426 11 0.10640000 3.882360 93.652735 24.528337
7266 1426 12 0.10630000 4.847638 92.841764 22.353708
7267 1426 13 0.10630000 3.787502 91.599699 23.067183
7268 1426 14 0.40980000 6.602945 91.766061 23.011220
7269 1426 15 0.40980000 6.579160 92.950965 24.973531
7270 1427 6 0.06700000 12.960570 87.982756 8.361586
7271 1427 7 0.06700000 11.552070 87.403671 8.379387
7272 1427 8 -0.68950000 10.623243 88.383658 7.919041
7273 1427 9 -0.68950000 13.015831 89.139009 9.195284
7274 1427 10 0.10640000 13.250637 88.282347 7.349585
7275 1427 11 0.10640000 13.681562 87.250555 8.736768
7276 1427 12 0.10630000 11.258993 87.111442 9.392711
7277 1427 13 0.10630000 11.487457 86.530743 7.723504
7278 1427 14 0.40980000 10.484691 88.993450 8.665344
7279 1427 15 0.40980000 12.607195 89.859423 8.682416
7280 1428 6 0.06700000 4.698493 62.875415 24.294780
7281 1428 7 0.06700000 5.886813 61.985431 24.634416
7282 1428 8 -0.68950000 6.372700 62.307905 25.936312
7283 1428 9 -0.68950000 5.093822 64.245199 24.344084
7284 1428 10 0.10640000 3.882779 62.733718 25.010723
7285 1428 11 0.10640000 4.330678 62.657186 23.287906
7286 1428 12 0.10630000 6.705583 62.132976 23.923105
7287 1428 13 0.10630000 5.592404 60.932047 24.626141
7288 1428 14 0.40980000 6.892167 63.125035 25.834012
7289 1428 15 0.40980000 5.126286 64.481308 25.288654
7290 1429 6 0.06700000 17.033206 91.248608 7.126250
7291 1429 7 0.06700000 16.231250 92.451000 7.606508
7292 1429 8 -0.68950000 15.573974 93.064287 6.498863
7293 1429 9 -0.68950000 17.993517 91.666695 6.157729
7294 1429 10 0.10640000 16.383174 90.503440 6.656970
7295 1429 11 0.10640000 17.564119 90.782678 7.961564
7296 1429 12 0.10630000 16.882357 93.199740 8.068640
7297 1429 13 0.10630000 15.472498 92.141891 8.331152
7298 1429 14 0.40980000 16.255584 93.583341 6.036260
7299 1429 15 0.40980000 17.499796 91.793135 5.327508
7300 1430 6 0.06700000 1.952800 62.277184 2.456126
7301 1430 7 0.06700000 1.904755 62.135996 0.940446
7302 1430 8 -0.68950000 0.754871 62.809129 0.430869
7303 1430 9 -0.68950000 0.768685 61.724614 3.028457
7304 1430 10 0.10640000 2.011348 63.329313 2.752165
7305 1430 11 0.10640000 2.816215 61.743695 2.864307
7306 1430 12 0.10630000 1.838156 61.084248 0.644627
7307 1430 13 0.10630000 2.795098 62.579063 0.485096
7308 1430 14 0.40980000 -0.000251 62.219705 0.605170
7309 1430 15 0.40980000 0.068971 62.388196 2.890349
7310 1431 6 0.06700000 14.230126 80.375361 18.033775
7311 1431 7 0.06700000 14.961980 80.751320 19.315404
7312 1431 8 -0.68950000 14.016027 81.095686 20.326144
7313 1431 9 -0.68950000 13.427002 81.471372 17.599290
7314 1431 10 0.10640000 13.570699 79.516577 18.194047
7315 1431 11 0.10640000 14.943879 80.133346 17.240872
7316 1431 12 0.10630000 15.615392 81.615097 19.157102
7317 1431 13 0.10630000 15.562392 79.910918 19.675394
7318 1431 14 0.40980000 13.718231 81.999084 20.118298
7319 1431 15 0.40980000 12.636422 81.466988 18.168480
7320 1432 6 0.06700000 10.583830 71.448184 26.931174
7321 1432 7 0.06700000 11.385793 72.692658 26.573869
7322 1432 8 -0.68950000 11.822041 72.610935 25.218133
7323 1432 9 -0.68950000 11.390684 70.286410 26.745989
7324 1432 10 0.10640000 9.700977 71.351263 26.291473
7325 1432 11 0.10640000 10.263937 71.484560 27.976666
7326 1432 12 0.10630000 12.272956 72.785283 27.208282
7327 1432 13 0.10630000 10.771516 73.590674 26.686092
7328 1432 14 0.40980000 12.583295 72.003891 25.217383
7329 1432 15 0.40980000 11.406267 70.120715 25.786136
7330 1433 6 0.06700000 15.190627 89.771008 20.092728
7331 1433 7 0.06700000 15.615828 88.854928 21.232698
7332 1433 8 -0.68950000 14.472328 88.474234 21.995906
7333 1433 9 -0.68950000 14.547163 90.929411 20.621012
7334 1433 10 0.10640000 14.484199 89.267543 19.425253
7335 1433 11 0.10640000 16.061069 90.092349 19.513264
7336 1433 12 0.10630000 16.316115 89.361101 21.904640
7337 1433 13 0.10630000 16.088000 87.949101 20.841682
7338 1433 14 0.40980000 14.260922 89.237987 22.561592
7339 1433 15 0.40980000 13.646062 90.649090 20.862779
7340 1434 6 0.06700000 15.407010 96.459084 11.776418
7341 1434 7 0.06700000 15.933858 97.886063 11.851871
7342 1434 8 -0.68950000 16.242065 98.354987 10.540335
7343 1434 9 -0.68950000 16.386770 95.615893 11.172988
7344 1434 10 0.10640000 14.497197 96.406535 11.170185
7345 1434 11 0.10640000 15.190284 96.076300 12.778023
7346 1434 12 0.10630000 16.848140 97.937310 12.451521
7347 1434 13 0.10630000 15.182688 98.550120 12.289060
7348 1434 14 0.40980000 17.095942 97.950800 10.304669
7349 1434 15 0.40980000 16.337218 95.789402 10.215673
7350 1435 6 0.06700000 15.821585 63.139551 15.000558
7351 1435 7 0.06700000 17.293319 63.441920 15.249759
7352 1435 8 -0.68950000 17.431174 64.761311 15.774366
7353 1435 9 -0.68950000 15.284067 64.089827 14.082366
7354 1435 10 0.10640000 15.243867 63.202530 15.928091
7355 1435 11 0.10640000 15.701967 62.139505 14.573583
7356 1435 12 0.10630000 17.869665 63.386763 14.320834
7357 1435 13 0.10630000 17.713208 62.736579 15.972634
7358 1435 14 0.40980000 17.337836 65.363181 15.014727
7359 1435 15 0.40980000 15.131345 64.903067 14.596497
7360 1436 6 0.06700000 9.358430 67.119087 15.459467
7361 1436 7 0.06700000 9.044410 65.717011 14.954389
7362 1436 8 -0.68950000 9.014497 64.805940 16.051688
7363 1436 9 -0.68950000 10.617997 67.118214 16.129181
7364 1436 10 0.10640000 8.599029 67.461357 16.169538
7365 1436 11 0.10640000 9.410201 67.825062 14.625424
7366 1436 12 0.10630000 9.808081 65.371597 14.250391
7367 1436 13 0.10630000 8.068547 65.696261 14.460807
7368 1436 14 0.40980000 9.944631 64.621269 16.272500
7369 1436 15 0.40980000 10.454234 66.731751 17.008295
7370 1437 6 0.06700000 9.321733 77.968933 3.602256
7371 1437 7 0.06700000 10.790580 77.569202 3.649506
7372 1437 8 -0.68950000 10.957962 76.455055 4.524532
7373 1437 9 -0.68950000 8.872256 78.304960 4.913775
7374 1437 10 0.10640000 8.701171 77.146191 3.233421
7375 1437 11 0.10640000 9.181248 78.839204 2.954490
7376 1437 12 0.10630000 11.410177 78.389293 4.025894
7377 1437 13 0.10630000 11.142988 77.283450 2.654259
7378 1437 14 0.40980000 10.928830 76.816763 5.428042
7379 1437 15 0.40980000 8.728628 77.458132 5.373413
7380 1438 6 0.06700000 11.380701 81.104167 8.376158
7381 1438 7 0.06700000 11.505447 79.679334 8.899436
7382 1438 8 -0.68950000 10.436498 79.403403 9.802885
7383 1438 9 -0.68950000 11.413341 82.022040 9.467703
7384 1438 10 0.10640000 10.435222 81.246910 7.843491
7385 1438 11 0.10640000 12.208859 81.339238 7.701175
7386 1438 12 0.10630000 12.447384 79.538813 9.438997
7387 1438 13 0.10630000 11.455812 78.961875 8.075330
7388 1438 14 0.40980000 10.676716 79.834269 10.642326
7389 1438 15 0.40980000 10.528105 81.988627 9.872987
7390 1439 6 0.06700000 3.356975 61.232152 19.700763
7391 1439 7 0.06700000 3.183636 59.799923 20.188826
7392 1439 8 -0.68950000 3.793317 58.899880 19.265126
7393 1439 9 -0.68950000 2.762418 61.376447 18.412079
7394 1439 10 0.10640000 4.416357 61.493591 19.614732
7395 1439 11 0.10640000 2.871674 61.932885 20.386448
7396 1439 12 0.10630000 2.124272 59.535881 20.267226
7397 1439 13 0.10630000 3.657742 59.667035 21.165517
7398 1439 14 0.40980000 3.173621 58.821386 18.518248
7399 1439 15 0.40980000 3.390493 60.981162 17.780980
7400 1440 6 0.06700000 11.985580 54.815611 8.882569
7401 1440 7 0.06700000 10.587474 55.417747 8.930119
7402 1440 8 -0.68950000 10.056122 55.504921 7.609106
7403 1440 9 -0.68950000 12.830811 55.625904 8.067685
7404 1440 10 0.10640000 11.966695 53.809146 8.452787
7405 1440 11 0.10640000 12.416721 54.766121 9.886749
7406 1440 12 0.10630000 10.607455 56.427336 9.352550
7407 1440 13 0.10630000 9.920424 54.792745 9.530768
7408 1440 14 0.40980000 10.479690 56.280414 7.200191
7409 1440 15 0.40980000 12.600384 55.411553 7.145746
7410 1441 6 0.06700000 4.682828 77.718780 28.365992
7411 1441 7 0.06700000 5.247564 79.068691 27.943687
7412 1441 8 -0.68950000 6.201816 78.885417 26.899262
7413 1441 9 -0.68950000 5.741197 76.873197 28.813061
7414 1441 10 0.10640000 4.184093 77.220901 27.528484
7415 1441 11 0.10640000 3.967746 77.840856 29.184811
7416 1441 12 0.10630000 5.753252 79.563028 28.779169
7417 1441 13 0.10630000 4.450319 79.719667 27.573561
7418 1441 14 0.40980000 7.016217 78.572833 27.331759
7419 1441 15 0.40980000 6.182558 76.547288 28.008077
7420 1442 6 0.06700000 15.821695 54.415737 15.880739
7421 1442 7 0.06700000 14.943422 53.548002 16.772479
7422 1442 8 -0.68950000 13.577529 53.930644 16.621054
7423 1442 9 -0.68950000 15.656275 55.788416 16.232046
7424 1442 10 0.10640000 15.547797 54.301763 14.827160
7425 1442 11 0.10640000 16.875766 54.150985 16.005434
7426 1442 12 0.10630000 15.212058 53.668040 17.826777
7427 1442 13 0.10630000 15.039886 52.493762 16.497458
7428 1442 14 0.40980000 13.467623 54.745127 17.143116
7429 1442 15 0.40980000 14.810379 56.066496 15.836894
7430 1443 6 0.06700000 21.001785 63.417149 3.953212
7431 1443 7 0.06700000 19.656918 62.723785 4.126728
7432 1443 8 -0.68950000 19.761662 61.361471 3.716681
7433 1443 9 -0.68950000 21.406340 63.347106 2.587029
7434 1443 10 0.10640000 21.775000 62.934488 4.559197
7435 1443 11 0.10640000 20.930535 64.470508 4.239683
7436 1443 12 0.10630000 18.885445 63.201531 3.514595
7437 1443 13 0.10630000 19.345555 62.746579 5.175011
7438 1443 14 0.40980000 19.738386 61.371711 2.743355
7439 1443 15 0.40980000 21.744102 62.443217 2.453176
7440 1444 6 0.06700000 4.435079 70.607589 14.168487
7441 1444 7 0.06700000 3.973192 69.589431 13.134300
7442 1444 8 -0.68950000 4.870401 68.480502 13.116984
7443 1444 9 -0.68950000 5.753858 71.050091 13.852199
7444 1444 10 0.10640000 4.457879 70.168477 15.170836
7445 1444 11 0.10640000 3.770567 71.476546 14.175282
7446 1444 12 0.10630000 3.958037 70.026270 12.130775
7447 1444 13 0.10630000 2.972609 69.221107 13.378295
7448 1444 14 0.40980000 5.652124 68.775653 12.617178
7449 1444 15 0.40980000 6.352450 70.338060 14.141532
7450 1445 6 0.06700000 12.573222 66.174557 26.838318
7451 1445 7 0.06700000 12.042250 65.264731 25.738402
7452 1445 8 -0.68950000 11.567311 66.053777 24.648975
7453 1445 9 -0.68950000 11.536449 67.048075 27.282271
7454 1445 10 0.10640000 13.401026 66.791167 26.474212
7455 1445 11 0.10640000 12.917732 65.583950 27.692252
7456 1445 12 0.10630000 11.209209 64.653841 26.100305
7457 1445 13 0.10630000 12.833743 64.606164 25.369364
7458 1445 14 0.40980000 10.695801 66.391281 24.922053
7459 1445 15 0.40980000 11.464230 67.744737 26.605175
7460 1446 6 0.06700000 3.660005 77.828128 11.827540
7461 1446 7 0.06700000 3.778400 76.353929 11.463879
7462 1446 8 -0.68950000 4.004464 75.584180 12.643453
7463 1446 9 -0.68950000 4.855895 78.261843 12.473112
7464 1446 10 0.10640000 2.824969 77.998690 12.514319
7465 1446 11 0.10640000 3.511959 78.434558 10.929190
7466 1446 12 0.10630000 4.618368 76.182215 10.783374
7467 1446 13 0.10630000 2.857867 75.999957 10.990927
7468 1446 14 0.40980000 4.945022 75.703141 12.865284
7469 1446 15 0.40980000 4.802390 77.930686 13.387708
7470 1447 6 0.06700000 10.151584 97.067982 29.883387
7471 1447 7 0.06700000 11.365462 96.366549 30.478383
7472 1447 8 -0.68950000 11.996424 95.566907 29.479649
7473 1447 9 -0.68950000 9.233832 96.098152 29.381208
7474 1447 10 0.10640000 10.440963 97.720175 29.053359
7475 1447 11 0.10640000 9.641791 97.665449 30.644867
7476 1447 12 0.10630000 11.075073 95.708239 31.303259
7477 1447 13 0.10630000 12.090848 97.098729 30.844566
7478 1447 14 0.40980000 11.453287 94.763061 29.396913
7479 1447 15 0.40980000 9.600191 95.797431 28.530113
7480 1448 6 0.06700000 9.260981 59.411866 22.130703
7481 1448 7 0.06700000 7.884482 59.429593 22.782212
7482 1448 8 -0.68950000 8.024466 59.473437 24.201187
7483 1448 9 -0.68950000 9.993763 58.275518 22.585425
7484 1448 10 0.10640000 9.832138 60.308269 22.392011
7485 1448 11 0.10640000 9.169882 59.352247 21.042193
7486 1448 12 0.10630000 7.316327 58.529391 22.527351
7487 1448 13 0.10630000 7.319827 60.310260 22.462911
7488 1448 14 0.40980000 8.248365 58.566849 24.476828
7489 1448 15 0.40980000 10.310971 58.500591 23.478585
7490 1449 6 0.06700000 3.626310 95.458997 11.351668
7491 1449 7 0.06700000 3.315251 96.595689 10.386939
7492 1449 8 -0.68950000 3.327419 97.838205 11.087665
7493 1449 9 -0.68950000 2.658682 95.439199 12.399681
7494 1449 10 0.10640000 4.613614 95.587250 11.806445
7495 1449 11 0.10640000 3.595193 94.496117 10.833401
7496 1449 12 0.10630000 2.324620 96.471638 9.938186
7497 1449 13 0.10630000 4.064443 96.639899 9.591252
7498 1449 14 0.40980000 2.480499 97.884907 11.565741
7499 1449 15 0.40980000 2.908850 96.156523 13.009496
7500 1450 6 0.06700000 15.647659 49.568876 6.157140
7501 1450 7 0.06700000 15.569335 49.689009 7.673373
7502 1450 8 -0.68950000 14.900604 48.549954 8.212224
7503 1450 9 -0.68950000 14.332265 49.471301 5.613775
7504 1450 10 0.10640000 16.202316 48.672936 5.861020
7505 1450 11 0.10640000 16.135658 50.448366 5.726951
7506 1450 12 0.10630000 15.007817 50.580715 7.969474
7507 1450 13 0.10630000 16.572281 49.738571 8.106968
7508 1450 14 0.40980000 13.950962 48.697600 8.056047
7509 1450 15 0.40980000 14.044738 48.553741 5.770060
7510 1451 6 0.06700000 8.863915 95.898848 7.318872
7511 1451 7 0.06700000 9.481262 96.632175 8.502359
7512 1451 8 -0.68950000 8.775784 96.298060 9.696377
7513 1451 9 -0.68950000 7.489727 96.260389 7.192686
7514 1451 10 0.10640000 8.916137 94.814260 7.456649
7515 1451 11 0.10640000 9.378673 96.165278 6.391108
7516 1451 12 0.10630000 9.421862 97.716889 8.368250
7517 1451 13 0.10630000 10.529185 96.344989 8.627837
7518 1451 14 0.40980000 7.954803 96.821195 9.678224
7519 1451 15 0.40980000 7.015586 95.756414 7.878408
7520 1452 6 0.06700000 1.959926 72.595740 23.864144
7521 1452 7 0.06700000 0.441748 72.609451 23.743819
7522 1452 8 -0.68950000 0.064464 72.371495 22.388812
7523 1452 9 -0.68950000 2.518626 73.598635 23.017337
7524 1452 10 0.10640000 2.370708 71.628497 23.557971
7525 1452 11 0.10640000 2.265392 72.802591 24.894004
7526 1452 12 0.10630000 0.031591 73.579364 24.042410
7527 1452 13 0.10630000 -0.000028 71.827669 24.368329
7528 1452 14 0.40980000 0.204556 73.213040 21.919570
7529 1452 15 0.40980000 2.488601 73.234553 22.114256
7530 1453 6 0.06700000 4.259305 63.114471 7.307366
7531 1453 7 0.06700000 3.944386 64.401826 6.556984
7532 1453 8 -0.68950000 3.479141 65.391193 7.473342
7533 1453 9 -0.68950000 3.088677 62.649337 7.976923
7534 1453 10 0.10640000 5.036483 63.277548 8.060652
7535 1453 11 0.10640000 4.593176 62.337419 6.613516
7536 1453 12 0.10630000 3.161542 64.240539 5.809148
7537 1453 13 0.10630000 4.839813 64.785056 6.059283
7538 1453 14 0.40980000 2.552062 65.164051 7.665548
7539 1453 15 0.40980000 2.995062 63.205407 8.771301
7540 1454 6 0.06700000 5.988811 56.558038 13.113993
7541 1454 7 0.06700000 4.973264 57.586219 12.633332
7542 1454 8 -0.68950000 4.692468 58.511618 13.682046
7543 1454 9 -0.68950000 5.473047 55.867552 14.250762
7544 1454 10 0.10640000 6.927073 57.038746 13.408313
7545 1454 11 0.10640000 6.195052 55.825547 12.328099
7546 1454 12 0.10630000 4.032231 57.106295 12.346543
7547 1454 13 0.10630000 5.365663 58.142322 11.777100
7548 1454 14 0.40980000 4.083959 58.053349 14.288443
7549 1454 15 0.40980000 5.582615 56.473740 15.005444
7550 1455 6 0.06700000 4.999979 90.253349 10.306645
7551 1455 7 0.06700000 5.919268 91.188842 9.532506
7552 1455 8 -0.68950000 5.783466 90.947356 8.133130
7553 1455 9 -0.68950000 5.331943 88.898163 10.009499
7554 1455 10 0.10640000 3.952831 90.412499 10.030615
7555 1455 11 0.10640000 5.112129 90.409190 11.383606
7556 1455 12 0.10630000 6.967121 91.024172 9.802703
7557 1455 13 0.10630000 5.659589 92.232795 9.730220
7558 1455 14 0.40980000 6.294158 90.138955 7.949578
7559 1455 15 0.40980000 4.945887 88.712972 9.134469
7560 1456 6 0.06700000 1.048118 75.920380 28.927015
7561 1456 7 0.06700000 2.143929 75.209668 28.143678
7562 1456 8 -0.68950000 1.637231 73.988729 27.607419
7563 1456 9 -0.68950000 0.586355 75.077352 29.981105
7564 1456 10 0.10640000 0.193856 76.155759 28.284463
7565 1456 11 0.10640000 1.429362 76.846847 29.366356
7566 1456 12 0.10630000 2.994872 74.967170 28.788045
7567 1456 13 0.10630000 2.490285 75.834059 27.315104
7568 1456 14 0.40980000 1.623670 73.355931 28.347280
7569 1456 15 0.40980000 -0.001139 74.422307 29.563037
7570 1457 6 0.06700000 1.608526 53.490289 28.061101
7571 1457 7 0.06700000 0.717271 54.391964 28.905005
7572 1457 8 -0.68950000 1.517642 55.351939 29.592658
7573 1457 9 -0.68950000 2.554413 52.828457 28.899135
7574 1457 10 0.10640000 2.164268 54.070108 27.317459
7575 1457 11 0.10640000 1.010777 52.731746 27.547276
7576 1457 12 0.10630000 0.167540 53.813145 29.653926
7577 1457 13 0.10630000 0.002949 54.926621 28.272354
7578 1457 14 0.40980000 1.915241 54.879752 30.345629
7579 1457 15 0.40980000 3.243221 53.487676 29.099105
7580 1458 6 0.06700000 20.556821 88.004213 26.193269
7581 1458 7 0.06700000 19.163661 88.557154 26.463252
7582 1458 8 -0.68950000 19.250587 89.944482 26.783839
7583 1458 9 -0.68950000 21.379338 88.189902 27.343926
7584 1458 10 0.10640000 21.030201 88.521933 25.353080
7585 1458 11 0.10640000 20.508831 86.934175 25.970952
7586 1458 12 0.10630000 18.693414 88.044835 27.308542
7587 1458 13 0.10630000 18.528322 88.445348 25.579960
7588 1458 14 0.40980000 19.550903 89.987743 27.709014
7589 1458 15 0.40980000 21.643026 89.127682 27.336799
7590 1459 6 0.06700000 11.979369 56.129735 3.410500
7591 1459 7 0.06700000 10.481491 56.378291 3.529288
7592 1459 8 -0.68950000 9.970929 56.845001 2.281683
7593 1459 9 -0.68950000 12.638814 57.337000 3.032785
7594 1459 10 0.10640000 12.194223 55.374995 2.647450
7595 1459 11 0.10640000 12.390271 55.795591 4.367692
7596 1459 12 0.10630000 10.267156 57.138827 4.286759
7597 1459 13 0.10630000 9.958690 55.454506 3.793228
7598 1459 14 0.40980000 10.218979 57.784824 2.224981
7599 1459 15 0.40980000 12.480728 57.441484 2.077219
7600 1460 6 0.06700000 6.284485 83.334626 18.579433
7601 1460 7 0.06700000 7.680481 83.271097 17.973885
7602 1460 8 -0.68950000 8.131858 81.918127 17.946653
7603 1460 9 -0.68950000 6.309063 82.800309 19.901903
7604 1460 10 0.10640000 5.572751 82.746818 17.991251
7605 1460 11 0.10640000 5.934903 84.369938 18.630700
7606 1460 12 0.10630000 8.393868 83.852418 18.566560
7607 1460 13 0.10630000 7.672375 83.653777 16.949262
7608 1460 14 0.40980000 8.413003 81.710755 18.855479
7609 1460 15 0.40980000 6.327559 81.831690 19.799685
7610 1461 6 0.06700000 20.703044 83.346615 14.756747
7611 1461 7 0.06700000 20.204522 82.706565 13.467817
7612 1461 8 -0.68950000 20.890205 83.273515 12.352731
7613 1461 9 -0.68950000 20.482077 84.755201 14.711092
7614 1461 10 0.10640000 21.776082 83.177632 14.891190
7615 1461 11 0.10640000 20.167515 82.939882 15.619582
7616 1461 12 0.10630000 19.133054 82.882372 13.329378
7617 1461 13 0.10630000 20.391023 81.628839 13.477121
7618 1461 14 0.40980000 20.475388 84.140164 12.195067
7619 1461 15 0.40980000 21.184899 85.118816 14.142902
7620 1462 6 0.06700000 10.011491 74.295430 9.106519
7621 1462 7 0.06700000 8.671372 73.724980 8.661328
7622 1462 8 -0.68950000 8.880198 72.735205 7.655472
7623 1462 9 -0.68950000 10.685488 74.869283 7.987838
7624 1462 10 0.10640000 10.654066 73.513095 9.522561
7625 1462 11 0.10640000 9.865754 75.074884 9.860124
7626 1462 12 0.10630000 8.031832 74.505914 8.237949
7627 1462 13 0.10630000 8.153812 73.257893 9.504134
7628 1462 14 0.40980000 9.054360 73.223081 6.831059
7629 1462 15 0.40980000 11.058717 74.121700 7.487006
7630 1463 6 0.06700000 12.887257 64.939166 21.975291
7631 1463 7 0.06700000 13.625814 65.964849 21.125563
7632 1463 8 -0.68950000 13.313424 67.280489 21.580002
7633 1463 9 -0.68950000 11.481464 65.165715 21.888996
7634 1463 10 0.10640000 13.177546 65.017030 23.027770
7635 1463 11 0.10640000 13.096944 63.925302 21.621995
7636 1463 12 0.10630000 13.329582 65.892292 20.074326
7637 1463 13 0.10630000 14.707236 65.819982 21.202378
7638 1463 14 0.40980000 12.429131 67.483464 21.226679
7639 1463 15 0.40980000 11.295988 65.925720 22.469517
7640 1464 6 0.06700000 15.894745 75.120827 19.404112
7641 1464 7 0.06700000 15.417072 73.674721 19.415689
7642 1464 8 -0.68950000 15.248452 73.213121 18.076471
7643 1464 9 -0.68950000 14.943637 75.936106 18.721660
7644 1464 10 0.10640000 16.853790 75.214834 18.885039
7645 1464 11 0.10640000 16.004037 75.497320 20.425394
7646 1464 12 0.10630000 14.454137 73.581944 19.927808
7647 1464 13 0.10630000 16.149273 73.032429 19.913389
7648 1464 14 0.40980000 14.405283 73.589210 17.767224
7649 1464 15 0.40980000 15.087393 75.777802 17.771245
7650 1465 6 0.06700000 3.515090 86.979531 32.069014
7651 1465 7 0.06700000 2.182230 87.697383 31.902570
7652 1465 8 -0.68950000 1.628751 87.987550 33.184940
7653 1465 9 -0.68950000 3.322551 85.771843 32.803482
7654 1465 10 0.10640000 4.230116 87.598897 32.619617
7655 1465 11 0.10640000 3.939884 86.727258 31.092994
7656 1465 12 0.10630000 1.464618 87.074825 31.358904
7657 1465 13 0.10630000 2.318050 88.639209 31.363237
7658 1465 14 0.40980000 1.246999 87.152017 33.507681
7659 1465 15 0.40980000 3.236450 86.036366 33.737093
7660 1466 6 0.06700000 3.242785 64.290665 15.255345
7661 1466 7 0.06700000 3.185001 62.790870 14.996878
7662 1466 8 -0.68950000 3.994871 62.465695 13.868436
7663 1466 9 -0.68950000 2.782651 64.995338 14.103504
7664 1466 10 0.10640000 4.267233 64.615558 15.462692
7665 1466 11 0.10640000 2.605491 64.559080 16.102999
7666 1466 12 0.10630000 2.161724 62.467288 14.781663
7667 1466 13 0.10630000 3.559673 62.237293 15.862635
7668 1466 14 0.40980000 3.475670 62.717330 13.084140
7669 1466 15 0.40980000 3.519015 64.977321 13.465963
7670 1467 6 0.06700000 4.432287 52.180611 31.603574
7671 1467 7 0.06700000 3.099519 51.479397 31.830637
7672 1467 8 -0.68950000 2.991066 51.083189 33.196751
7673 1467 9 -0.68950000 5.502645 51.301319 31.944465
7674 1467 10 0.10640000 4.518398 53.075064 32.228538
7675 1467 11 0.10640000 4.541109 52.467820 30.553632
7676 1467 12 0.10630000 3.016735 50.580521 31.211536
7677 1467 13 0.10630000 2.267887 52.150707 31.598061
7678 1467 14 0.40980000 3.536706 50.281946 33.287841
7679 1467 15 0.40980000 5.554085 51.305706 32.917269
7680 1468 6 0.06700000 10.429748 85.670220 16.334737
7681 1468 7 0.06700000 11.616220 84.757863 16.616546
7682 1468 8 -0.68950000 11.531099 84.255836 17.949112
7683 1468 9 -0.68950000 10.422634 86.751362 17.265386
7684 1468 10 0.10640000 9.483675 85.129623 16.438386
7685 1468 11 0.10640000 10.494867 86.083738 15.324059
7686 1468 12 0.10630000 12.561997 85.300484 16.520695
7687 1468 13 0.10630000 11.620299 83.909073 15.926690
7688 1468 14 0.40980000 11.828453 84.979955 18.528115
7689 1468 15 0.40980000 10.070575 86.386932 18.097407
7690 1469 6 0.06700000 18.340650 86.539979 9.453812
7691 1469 7 0.06700000 17.572087 87.793069 9.852064
7692 1469 8 -0.68950000 17.961138 88.881854 9.016482
7693 1469 9 -0.68950000 19.742132 86.775510 9.577912
7694 1469 10 0.10640000 18.135408 86.265613 8.414274
7695 1469 11 0.10640000 18.071537 85.701811 10.103243
7696 1469 12 0.10630000 17.783518 88.072001 10.889182
7697 1469 13 0.10630000 16.495741 87.636164 9.737081
7698 1469 14 0.40980000 18.821519 89.186277 9.355721
7699 1469 15 0.40980000 19.996502 87.298925 8.796665
7700 1470 6 0.06700000 6.155834 86.267917 9.549922
7701 1470 7 0.06700000 4.802579 85.602324 9.337278
7702 1470 8 -0.68950000 4.789593 84.930060 8.079144
7703 1470 9 -0.68950000 6.405964 87.196582 8.496336
7704 1470 10 0.10640000 6.963210 85.528879 9.546981
7705 1470 11 0.10640000 6.172236 86.809646 10.500168
7706 1470 12 0.10630000 3.996005 86.342278 9.332249
7707 1470 13 0.10630000 4.608065 84.867787 10.124031
7708 1470 14 0.40980000 4.661776 85.622234 7.406412
7709 1470 15 0.40980000 6.678601 86.663537 7.727866
7710 1471 6 0.06700000 0.922900 84.488561 28.664975
7711 1471 7 0.06700000 1.851458 83.725080 29.600072
7712 1471 8 -0.68950000 1.875743 84.359645 30.877471
7713 1471 9 -0.68950000 1.373770 85.835595 28.533666
7714 1471 10 0.10640000 -0.098917 84.511475 29.056645
7715 1471 11 0.10640000 0.913806 84.028160 27.672677
7716 1471 12 0.10630000 2.874941 83.709006 29.212332
7717 1471 13 0.10630000 1.503395 82.696494 29.731312
7718 1471 14 0.40980000 2.455665 85.135727 30.780527
7719 1471 15 0.40980000 1.092371 86.293199 29.346333
7720 1472 6 0.06700000 9.303634 82.296996 30.389382
7721 1472 7 0.06700000 8.591338 82.244851 31.734538
7722 1472 8 -0.68950000 7.303136 82.846932 31.620333
7723 1472 9 -0.68950000 9.433143 83.653073 29.965935
7724 1472 10 0.10640000 8.738675 81.756801 29.623189
7725 1472 11 0.10640000 10.304140 81.861577 30.467529
7726 1472 12 0.10630000 9.152328 82.791818 32.498891
7727 1472 13 0.10630000 8.461342 81.208831 32.060309
7728 1472 14 0.40980000 7.454656 83.808677 31.630289
7729 1472 15 0.40980000 8.558563 83.912070 29.623818
7730 1473 6 0.06700000 5.186992 92.409553 3.250920
7731 1473 7 0.06700000 5.501715 93.859953 3.592705
7732 1473 8 -0.68950000 5.689830 94.607122 2.392138
7733 1473 9 -0.68950000 6.256895 91.851637 2.489958
7734 1473 10 0.10640000 4.273125 92.334995 2.653150
7735 1473 11 0.10640000 5.065375 91.817808 4.162927
7736 1473 12 0.10630000 6.419949 93.935153 4.183729
7737 1473 13 0.10630000 4.677928 94.309544 4.154492
7738 1473 14 0.40980000 6.584479 94.387528 2.076872
7739 1473 15 0.40980000 6.147529 92.191834 1.583691
7740 1474 6 0.06700000 14.182841 62.657908 30.084681
7741 1474 7 0.06700000 14.934575 63.980682 30.153175
7742 1474 8 -0.68950000 14.738281 64.579782 31.432846
7743 1474 9 -0.68950000 12.792500 62.882476 30.311723
7744 1474 10 0.10640000 14.541224 61.961029 30.848856
7745 1474 11 0.10640000 14.303000 62.198527 29.099166
7746 1474 12 0.10630000 14.570702 64.680413 29.394169
7747 1474 13 0.10630000 16.006694 63.821106 30.006686
7748 1474 14 0.40980000 13.849496 64.976695 31.409769
7749 1474 15 0.40980000 12.693481 63.001782 31.273480
7750 1475 16 -0.24220000 4.446498 90.883698 27.643338
7751 1475 17 -0.00400000 5.412114 91.151690 28.780889
7752 1475 18 -0.20490000 4.702719 91.577008 29.989188
7753 1475 19 -0.04490000 4.393804 92.883781 30.335363
7754 1475 20 -0.04560000 3.736628 92.830218 31.530861
7755 1475 21 -0.20630000 3.661232 91.492958 31.884581
7756 1475 22 0.10350000 4.251171 90.744637 30.940403
7757 1475 23 -0.06050000 3.045585 90.953611 33.089971
7758 1475 24 0.10980000 4.989299 90.566191 26.748292
7759 1475 25 0.10980000 3.873675 91.783674 27.399144
7760 1475 26 0.10980000 3.734668 90.098093 27.914242
7761 1475 27 0.13290000 6.126819 91.933513 28.501773
7762 1475 28 0.13290000 5.981274 90.246532 29.017419
7763 1475 29 0.22960000 4.686476 93.685386 29.678186
7764 1475 30 0.22960000 3.310384 93.575339 32.180915
7765 1475 31 0.25420000 4.348052 89.664111 30.943472
7766 1475 32 0.13210000 2.675788 91.765138 33.721777
7767 1475 33 0.13210000 3.793339 90.375464 33.638933
7768 1475 34 0.13210000 2.211830 90.307372 32.801177
7769 1476 5 -1.0 0.004534 98.552473 -0.000420

Bonds

1 1 1 2
2 1 1 3
4 1 4 5
6 1 4 6
8 1 7 8
10 1 7 9
12 1 10 11
14 1 10 12
16 1 13 14
18 1 13 15
19 1 16 17
3 1 16 18
5 1 19 20
7 1 19 21
9 1 22 23
11 1 22 24
13 1 25 26
15 1 25 27
17 1 28 29
20 1 28 30
21 1 31 32
22 1 31 33
23 1 34 35
24 1 34 36
25 1 37 38
26 1 37 39
27 1 40 41
28 1 40 42
29 1 43 44
30 1 43 45
31 1 46 47
32 1 46 48
33 1 49 50
34 1 49 51
35 1 52 53
36 1 52 54
37 1 55 56
38 1 55 57
39 1 58 59
40 1 58 60
41 1 61 62
42 1 61 63
43 1 64 65
44 1 64 66
45 1 67 68
46 1 67 69
47 1 70 71
48 1 70 72
49 1 73 74
50 1 73 75
51 1 76 77
52 1 76 78
53 1 79 80
54 1 79 81
55 1 82 83
56 1 82 84
57 1 85 86
58 1 85 87
59 1 88 89
60 1 88 90
61 1 91 92
62 1 91 93
63 1 94 95
64 1 94 96
65 1 97 98
66 1 97 99
67 1 100 101
68 1 100 102
69 1 103 104
70 1 103 105
71 1 106 107
72 1 106 108
73 1 109 110
74 1 109 111
75 1 112 113
76 1 112 114
77 1 115 116
78 1 115 117
79 1 118 119
80 1 118 120
81 1 121 122
82 1 121 123
83 1 124 125
84 1 124 126
85 1 127 128
86 1 127 129
87 1 130 131
88 1 130 132
89 1 133 134
90 1 133 135
91 1 136 137
92 1 136 138
93 1 147 148
94 1 147 149
96 1 150 151
98 1 150 152
100 1 153 154
102 1 153 155
104 1 156 157
106 1 156 158
108 1 159 160
110 1 159 161
111 1 162 163
95 1 162 164
97 1 165 166
99 1 165 167
101 1 168 169
103 1 168 170
105 1 171 172
107 1 171 173
109 1 174 175
112 1 174 176
113 1 177 178
114 1 177 179
115 1 180 181
116 1 180 182
117 1 183 184
118 1 183 185
119 1 186 187
120 1 186 188
121 1 189 190
122 1 189 191
123 1 192 193
124 1 192 194
125 1 195 196
126 1 195 197
127 1 198 199
128 1 198 200
129 1 201 202
130 1 201 203
131 1 204 205
132 1 204 206
133 1 207 208
134 1 207 209
135 1 210 211
136 1 210 212
137 1 213 214
138 1 213 215
139 1 216 217
140 1 216 218
141 1 219 220
142 1 219 221
143 1 222 223
144 1 222 224
145 1 225 226
146 1 225 227
147 1 228 229
148 1 228 230
149 1 231 232
150 1 231 233
151 1 234 235
152 1 234 236
153 1 237 238
154 1 237 239
155 1 240 241
156 1 240 242
157 1 243 244
158 1 243 245
159 1 246 247
160 1 246 248
161 1 249 250
162 1 249 251
163 1 252 253
164 1 252 254
165 1 255 256
166 1 255 257
167 1 258 259
168 1 258 260
169 1 261 262
170 1 261 263
171 1 264 265
172 1 264 266
173 1 267 268
174 1 267 269
175 1 270 271
176 1 270 272
177 1 273 274
178 1 273 275
179 1 276 277
180 1 276 278
181 1 279 280
182 1 279 281
183 1 282 283
184 1 282 284
185 1 293 294
186 1 293 295
188 1 296 297
190 1 296 298
192 1 299 300
194 1 299 301
196 1 302 303
198 1 302 304
200 1 305 306
202 1 305 307
203 1 308 309
187 1 308 310
189 1 311 312
191 1 311 313
193 1 314 315
195 1 314 316
197 1 317 318
199 1 317 319
201 1 320 321
204 1 320 322
205 1 323 324
206 1 323 325
207 1 326 327
208 1 326 328
209 1 329 330
210 1 329 331
211 1 332 333
212 1 332 334
213 1 335 336
214 1 335 337
215 1 338 339
216 1 338 340
217 1 341 342
218 1 341 343
219 1 344 345
220 1 344 346
221 1 347 348
222 1 347 349
223 1 350 351
224 1 350 352
225 1 353 354
226 1 353 355
227 1 356 357
228 1 356 358
229 1 359 360
230 1 359 361
231 1 362 363
232 1 362 364
233 1 365 366
234 1 365 367
235 1 368 369
236 1 368 370
237 1 371 372
238 1 371 373
239 1 374 375
240 1 374 376
241 1 377 378
242 1 377 379
243 1 380 381
244 1 380 382
245 1 383 384
246 1 383 385
247 1 386 387
248 1 386 388
249 1 389 390
250 1 389 391
251 1 392 393
252 1 392 394
253 1 395 396
254 1 395 397
255 1 398 399
256 1 398 400
257 1 401 402
258 1 401 403
259 1 404 405
260 1 404 406
261 1 407 408
262 1 407 409
263 1 410 411
264 1 410 412
265 1 413 414
266 1 413 415
267 1 416 417
268 1 416 418
269 1 419 420
270 1 419 421
271 1 422 423
272 1 422 424
273 1 425 426
274 1 425 427
275 1 428 429
276 1 428 430
277 1 439 440
278 1 439 441
280 1 442 443
282 1 442 444
284 1 445 446
286 1 445 447
288 1 448 449
290 1 448 450
292 1 451 452
294 1 451 453
295 1 454 455
279 1 454 456
281 1 457 458
283 1 457 459
285 1 460 461
287 1 460 462
289 1 463 464
291 1 463 465
293 1 466 467
296 1 466 468
297 1 469 470
298 1 469 471
299 1 472 473
300 1 472 474
301 1 475 476
302 1 475 477
303 1 478 479
304 1 478 480
305 1 481 482
306 1 481 483
307 1 484 485
308 1 484 486
309 1 487 488
310 1 487 489
311 1 490 491
312 1 490 492
313 1 493 494
314 1 493 495
315 1 496 497
316 1 496 498
317 1 499 500
318 1 499 501
319 1 502 503
320 1 502 504
321 1 505 506
322 1 505 507
323 1 508 509
324 1 508 510
325 1 511 512
326 1 511 513
327 1 514 515
328 1 514 516
329 1 517 518
330 1 517 519
331 1 520 521
332 1 520 522
333 1 523 524
334 1 523 525
335 1 526 527
336 1 526 528
337 1 529 530
338 1 529 531
339 1 532 533
340 1 532 534
341 1 535 536
342 1 535 537
343 1 538 539
344 1 538 540
345 1 541 542
346 1 541 543
347 1 544 545
348 1 544 546
349 1 547 548
350 1 547 549
351 1 550 551
352 1 550 552
353 1 553 554
354 1 553 555
355 1 556 557
356 1 556 558
357 1 559 560
358 1 559 561
359 1 562 563
360 1 562 564
361 1 565 566
362 1 565 567
363 1 568 569
364 1 568 570
365 1 571 572
366 1 571 573
367 1 574 575
368 1 574 576
369 1 585 586
370 1 585 587
372 1 588 589
374 1 588 590
376 1 591 592
378 1 591 593
380 1 594 595
382 1 594 596
384 1 597 598
386 1 597 599
387 1 600 601
371 1 600 602
373 1 603 604
375 1 603 605
377 1 606 607
379 1 606 608
381 1 609 610
383 1 609 611
385 1 612 613
388 1 612 614
389 1 615 616
390 1 615 617
391 1 618 619
392 1 618 620
393 1 621 622
394 1 621 623
395 1 624 625
396 1 624 626
397 1 627 628
398 1 627 629
399 1 630 631
400 1 630 632
401 1 633 634
402 1 633 635
403 1 636 637
404 1 636 638
405 1 639 640
406 1 639 641
407 1 642 643
408 1 642 644
409 1 645 646
410 1 645 647
411 1 648 649
412 1 648 650
413 1 651 652
414 1 651 653
415 1 654 655
416 1 654 656
417 1 657 658
418 1 657 659
419 1 660 661
420 1 660 662
421 1 663 664
422 1 663 665
423 1 666 667
424 1 666 668
425 1 669 670
426 1 669 671
427 1 672 673
428 1 672 674
429 1 675 676
430 1 675 677
431 1 678 679
432 1 678 680
433 1 681 682
434 1 681 683
435 1 684 685
436 1 684 686
437 1 687 688
438 1 687 689
439 1 690 691
440 1 690 692
441 1 693 694
442 1 693 695
443 1 696 697
444 1 696 698
445 1 699 700
446 1 699 701
447 1 702 703
448 1 702 704
449 1 705 706
450 1 705 707
451 1 708 709
452 1 708 710
453 1 711 712
454 1 711 713
455 1 714 715
456 1 714 716
457 1 717 718
458 1 717 719
459 1 720 721
460 1 720 722
461 1 731 732
462 1 731 733
464 1 734 735
466 1 734 736
468 1 737 738
470 1 737 739
472 1 740 741
474 1 740 742
476 1 743 744
478 1 743 745
479 1 746 747
463 1 746 748
465 1 749 750
467 1 749 751
469 1 752 753
471 1 752 754
473 1 755 756
475 1 755 757
477 1 758 759
480 1 758 760
481 1 761 762
482 1 761 763
483 1 764 765
484 1 764 766
485 1 767 768
486 1 767 769
487 1 770 771
488 1 770 772
489 1 773 774
490 1 773 775
491 1 776 777
492 1 776 778
493 1 779 780
494 1 779 781
495 1 782 783
496 1 782 784
497 1 785 786
498 1 785 787
499 1 788 789
500 1 788 790
501 1 791 792
502 1 791 793
503 1 794 795
504 1 794 796
505 1 797 798
506 1 797 799
507 1 800 801
508 1 800 802
509 1 803 804
510 1 803 805
511 1 806 807
512 1 806 808
513 1 809 810
514 1 809 811
515 1 812 813
516 1 812 814
517 1 815 816
518 1 815 817
519 1 818 819
520 1 818 820
521 1 821 822
522 1 821 823
523 1 824 825
524 1 824 826
525 1 827 828
526 1 827 829
527 1 830 831
528 1 830 832
529 1 833 834
530 1 833 835
531 1 836 837
532 1 836 838
533 1 839 840
534 1 839 841
535 1 842 843
536 1 842 844
537 1 845 846
538 1 845 847
539 1 848 849
540 1 848 850
541 1 851 852
542 1 851 853
543 1 854 855
544 1 854 856
545 1 857 858
546 1 857 859
547 1 860 861
548 1 860 862
549 1 863 864
550 1 863 865
551 1 866 867
552 1 866 868
553 1 877 878
554 1 877 879
556 1 880 881
558 1 880 882
560 1 883 884
562 1 883 885
564 1 886 887
566 1 886 888
568 1 889 890
570 1 889 891
571 1 892 893
555 1 892 894
557 1 895 896
559 1 895 897
561 1 898 899
563 1 898 900
565 1 901 902
567 1 901 903
569 1 904 905
572 1 904 906
573 1 907 908
574 1 907 909
575 1 910 911
576 1 910 912
577 1 913 914
578 1 913 915
579 1 916 917
580 1 916 918
581 1 919 920
582 1 919 921
583 1 922 923
584 1 922 924
585 1 925 926
586 1 925 927
587 1 928 929
588 1 928 930
589 1 931 932
590 1 931 933
591 1 934 935
592 1 934 936
593 1 937 938
594 1 937 939
595 1 940 941
596 1 940 942
597 1 943 944
598 1 943 945
599 1 946 947
600 1 946 948
601 1 949 950
602 1 949 951
603 1 952 953
604 1 952 954
605 1 955 956
606 1 955 957
607 1 958 959
608 1 958 960
609 1 961 962
610 1 961 963
611 1 964 965
612 1 964 966
613 1 967 968
614 1 967 969
615 1 970 971
616 1 970 972
617 1 973 974
618 1 973 975
619 1 976 977
620 1 976 978
621 1 979 980
622 1 979 981
623 1 982 983
624 1 982 984
625 1 985 986
626 1 985 987
627 1 988 989
628 1 988 990
629 1 991 992
630 1 991 993
631 1 994 995
632 1 994 996
633 1 997 998
634 1 997 999
635 1 1000 1001
636 1 1000 1002
637 1 1003 1004
638 1 1003 1005
639 1 1006 1007
640 1 1006 1008
641 1 1009 1010
642 1 1009 1011
643 1 1012 1013
644 1 1012 1014
645 1 1023 1024
646 1 1023 1025
648 1 1026 1027
650 1 1026 1028
652 1 1029 1030
654 1 1029 1031
656 1 1032 1033
658 1 1032 1034
660 1 1035 1036
662 1 1035 1037
663 1 1038 1039
647 1 1038 1040
649 1 1041 1042
651 1 1041 1043
653 1 1044 1045
655 1 1044 1046
657 1 1047 1048
659 1 1047 1049
661 1 1050 1051
664 1 1050 1052
665 1 1053 1054
666 1 1053 1055
667 1 1056 1057
668 1 1056 1058
669 1 1059 1060
670 1 1059 1061
671 1 1062 1063
672 1 1062 1064
673 1 1065 1066
674 1 1065 1067
675 1 1068 1069
676 1 1068 1070
677 1 1071 1072
678 1 1071 1073
679 1 1074 1075
680 1 1074 1076
681 1 1077 1078
682 1 1077 1079
683 1 1080 1081
684 1 1080 1082
685 1 1083 1084
686 1 1083 1085
687 1 1086 1087
688 1 1086 1088
689 1 1089 1090
690 1 1089 1091
691 1 1092 1093
692 1 1092 1094
693 1 1095 1096
694 1 1095 1097
695 1 1098 1099
696 1 1098 1100
697 1 1101 1102
698 1 1101 1103
699 1 1104 1105
700 1 1104 1106
701 1 1107 1108
702 1 1107 1109
703 1 1110 1111
704 1 1110 1112
705 1 1113 1114
706 1 1113 1115
707 1 1116 1117
708 1 1116 1118
709 1 1119 1120
710 1 1119 1121
711 1 1122 1123
712 1 1122 1124
713 1 1125 1126
714 1 1125 1127
715 1 1128 1129
716 1 1128 1130
717 1 1131 1132
718 1 1131 1133
719 1 1134 1135
720 1 1134 1136
721 1 1137 1138
722 1 1137 1139
723 1 1140 1141
724 1 1140 1142
725 1 1143 1144
726 1 1143 1145
727 1 1146 1147
728 1 1146 1148
729 1 1149 1150
730 1 1149 1151
731 1 1152 1153
732 1 1152 1154
733 1 1155 1156
734 1 1155 1157
735 1 1158 1159
736 1 1158 1160
737 1 1169 1170
738 1 1169 1171
740 1 1172 1173
742 1 1172 1174
744 1 1175 1176
746 1 1175 1177
748 1 1178 1179
750 1 1178 1180
752 1 1181 1182
754 1 1181 1183
755 1 1184 1185
739 1 1184 1186
741 1 1187 1188
743 1 1187 1189
745 1 1190 1191
747 1 1190 1192
749 1 1193 1194
751 1 1193 1195
753 1 1196 1197
756 1 1196 1198
757 1 1199 1200
758 1 1199 1201
759 1 1202 1203
760 1 1202 1204
761 1 1205 1206
762 1 1205 1207
763 1 1208 1209
764 1 1208 1210
765 1 1211 1212
766 1 1211 1213
767 1 1214 1215
768 1 1214 1216
769 1 1217 1218
770 1 1217 1219
771 1 1220 1221
772 1 1220 1222
773 1 1223 1224
774 1 1223 1225
775 1 1226 1227
776 1 1226 1228
777 1 1229 1230
778 1 1229 1231
779 1 1232 1233
780 1 1232 1234
781 1 1235 1236
782 1 1235 1237
783 1 1238 1239
784 1 1238 1240
785 1 1241 1242
786 1 1241 1243
787 1 1244 1245
788 1 1244 1246
789 1 1247 1248
790 1 1247 1249
791 1 1250 1251
792 1 1250 1252
793 1 1253 1254
794 1 1253 1255
795 1 1256 1257
796 1 1256 1258
797 1 1259 1260
798 1 1259 1261
799 1 1262 1263
800 1 1262 1264
801 1 1265 1266
802 1 1265 1267
803 1 1268 1269
804 1 1268 1270
805 1 1271 1272
806 1 1271 1273
807 1 1274 1275
808 1 1274 1276
809 1 1277 1278
810 1 1277 1279
811 1 1280 1281
812 1 1280 1282
813 1 1283 1284
814 1 1283 1285
815 1 1286 1287
816 1 1286 1288
817 1 1289 1290
818 1 1289 1291
819 1 1292 1293
820 1 1292 1294
821 1 1295 1296
822 1 1295 1297
823 1 1298 1299
824 1 1298 1300
825 1 1301 1302
826 1 1301 1303
827 1 1304 1305
828 1 1304 1306
829 1 1315 1316
830 1 1315 1317
832 1 1318 1319
834 1 1318 1320
836 1 1321 1322
838 1 1321 1323
840 1 1324 1325
842 1 1324 1326
844 1 1327 1328
846 1 1327 1329
847 1 1330 1331
831 1 1330 1332
833 1 1333 1334
835 1 1333 1335
837 1 1336 1337
839 1 1336 1338
841 1 1339 1340
843 1 1339 1341
845 1 1342 1343
848 1 1342 1344
849 1 1345 1346
850 1 1345 1347
851 1 1348 1349
852 1 1348 1350
853 1 1351 1352
854 1 1351 1353
855 1 1354 1355
856 1 1354 1356
857 1 1357 1358
858 1 1357 1359
859 1 1360 1361
860 1 1360 1362
861 1 1363 1364
862 1 1363 1365
863 1 1366 1367
864 1 1366 1368
865 1 1369 1370
866 1 1369 1371
867 1 1372 1373
868 1 1372 1374
869 1 1375 1376
870 1 1375 1377
871 1 1378 1379
872 1 1378 1380
873 1 1381 1382
874 1 1381 1383
875 1 1384 1385
876 1 1384 1386
877 1 1387 1388
878 1 1387 1389
879 1 1390 1391
880 1 1390 1392
881 1 1393 1394
882 1 1393 1395
883 1 1396 1397
884 1 1396 1398
885 1 1399 1400
886 1 1399 1401
887 1 1402 1403
888 1 1402 1404
889 1 1405 1406
890 1 1405 1407
891 1 1408 1409
892 1 1408 1410
893 1 1411 1412
894 1 1411 1413
895 1 1414 1415
896 1 1414 1416
897 1 1417 1418
898 1 1417 1419
899 1 1420 1421
900 1 1420 1422
901 1 1423 1424
902 1 1423 1425
903 1 1426 1427
904 1 1426 1428
905 1 1429 1430
906 1 1429 1431
907 1 1432 1433
908 1 1432 1434
909 1 1435 1436
910 1 1435 1437
911 1 1438 1439
912 1 1438 1440
913 1 1441 1442
914 1 1441 1443
915 1 1444 1445
916 1 1444 1446
917 1 1447 1448
918 1 1447 1449
919 1 1450 1451
920 1 1450 1452
921 1 1461 1462
922 1 1461 1463
924 1 1464 1465
926 1 1464 1466
928 1 1467 1468
930 1 1467 1469
932 1 1470 1471
934 1 1470 1472
936 1 1473 1474
938 1 1473 1475
939 1 1476 1477
923 1 1476 1478
925 1 1479 1480
927 1 1479 1481
929 1 1482 1483
931 1 1482 1484
933 1 1485 1486
935 1 1485 1487
937 1 1488 1489
940 1 1488 1490
941 1 1491 1492
942 1 1491 1493
943 1 1494 1495
944 1 1494 1496
945 1 1497 1498
946 1 1497 1499
947 1 1500 1501
948 1 1500 1502
949 1 1503 1504
950 1 1503 1505
951 1 1506 1507
952 1 1506 1508
953 1 1509 1510
954 1 1509 1511
955 1 1512 1513
956 1 1512 1514
957 1 1515 1516
958 1 1515 1517
959 1 1518 1519
960 1 1518 1520
961 1 1521 1522
962 1 1521 1523
963 1 1524 1525
964 1 1524 1526
965 1 1527 1528
966 1 1527 1529
967 1 1530 1531
968 1 1530 1532
969 1 1533 1534
970 1 1533 1535
971 1 1536 1537
972 1 1536 1538
973 1 1539 1540
974 1 1539 1541
975 1 1542 1543
976 1 1542 1544
977 1 1545 1546
978 1 1545 1547
979 1 1548 1549
980 1 1548 1550
981 1 1551 1552
982 1 1551 1553
983 1 1554 1555
984 1 1554 1556
985 1 1557 1558
986 1 1557 1559
987 1 1560 1561
988 1 1560 1562
989 1 1563 1564
990 1 1563 1565
991 1 1566 1567
992 1 1566 1568
993 1 1569 1570
994 1 1569 1571
995 1 1572 1573
996 1 1572 1574
997 1 1575 1576
998 1 1575 1577
999 1 1578 1579
1000 1 1578 1580
1001 1 1581 1582
1002 1 1581 1583
1003 1 1584 1585
1004 1 1584 1586
1005 1 1587 1588
1006 1 1587 1589
1007 1 1590 1591
1008 1 1590 1592
1009 1 1593 1594
1010 1 1593 1595
1011 1 1596 1597
1012 1 1596 1598
1013 1 1607 1608
1014 1 1607 1609
1016 1 1610 1611
1018 1 1610 1612
1020 1 1613 1614
1022 1 1613 1615
1024 1 1616 1617
1026 1 1616 1618
1028 1 1619 1620
1030 1 1619 1621
1031 1 1622 1623
1015 1 1622 1624
1017 1 1625 1626
1019 1 1625 1627
1021 1 1628 1629
1023 1 1628 1630
1025 1 1631 1632
1027 1 1631 1633
1029 1 1634 1635
1032 1 1634 1636
1033 1 1637 1638
1034 1 1637 1639
1035 1 1640 1641
1036 1 1640 1642
1037 1 1643 1644
1038 1 1643 1645
1039 1 1646 1647
1040 1 1646 1648
1041 1 1649 1650
1042 1 1649 1651
1043 1 1652 1653
1044 1 1652 1654
1045 1 1655 1656
1046 1 1655 1657
1047 1 1658 1659
1048 1 1658 1660
1049 1 1661 1662
1050 1 1661 1663
1051 1 1664 1665
1052 1 1664 1666
1053 1 1667 1668
1054 1 1667 1669
1055 1 1670 1671
1056 1 1670 1672
1057 1 1673 1674
1058 1 1673 1675
1059 1 1676 1677
1060 1 1676 1678
1061 1 1679 1680
1062 1 1679 1681
1063 1 1682 1683
1064 1 1682 1684
1065 1 1685 1686
1066 1 1685 1687
1067 1 1688 1689
1068 1 1688 1690
1069 1 1691 1692
1070 1 1691 1693
1071 1 1694 1695
1072 1 1694 1696
1073 1 1697 1698
1074 1 1697 1699
1075 1 1700 1701
1076 1 1700 1702
1077 1 1703 1704
1078 1 1703 1705
1079 1 1706 1707
1080 1 1706 1708
1081 1 1709 1710
1082 1 1709 1711
1083 1 1712 1713
1084 1 1712 1714
1085 1 1715 1716
1086 1 1715 1717
1087 1 1718 1719
1088 1 1718 1720
1089 1 1721 1722
1090 1 1721 1723
1091 1 1724 1725
1092 1 1724 1726
1093 1 1727 1728
1094 1 1727 1729
1095 1 1730 1731
1096 1 1730 1732
1097 1 1733 1734
1098 1 1733 1735
1099 1 1736 1737
1100 1 1736 1738
1101 1 1739 1740
1102 1 1739 1741
1103 1 1742 1743
1104 1 1742 1744
1105 1 1753 1754
1106 1 1753 1755
1108 1 1756 1757
1110 1 1756 1758
1112 1 1759 1760
1114 1 1759 1761
1116 1 1762 1763
1118 1 1762 1764
1120 1 1765 1766
1122 1 1765 1767
1123 1 1768 1769
1107 1 1768 1770
1109 1 1771 1772
1111 1 1771 1773
1113 1 1774 1775
1115 1 1774 1776
1117 1 1777 1778
1119 1 1777 1779
1121 1 1780 1781
1124 1 1780 1782
1125 1 1783 1784
1126 1 1783 1785
1127 1 1786 1787
1128 1 1786 1788
1129 1 1789 1790
1130 1 1789 1791
1131 1 1792 1793
1132 1 1792 1794
1133 1 1795 1796
1134 1 1795 1797
1135 1 1798 1799
1136 1 1798 1800
1137 1 1801 1802
1138 1 1801 1803
1139 1 1804 1805
1140 1 1804 1806
1141 1 1807 1808
1142 1 1807 1809
1143 1 1810 1811
1144 1 1810 1812
1145 1 1813 1814
1146 1 1813 1815
1147 1 1816 1817
1148 1 1816 1818
1149 1 1819 1820
1150 1 1819 1821
1151 1 1822 1823
1152 1 1822 1824
1153 1 1825 1826
1154 1 1825 1827
1155 1 1828 1829
1156 1 1828 1830
1157 1 1831 1832
1158 1 1831 1833
1159 1 1834 1835
1160 1 1834 1836
1161 1 1837 1838
1162 1 1837 1839
1163 1 1840 1841
1164 1 1840 1842
1165 1 1843 1844
1166 1 1843 1845
1167 1 1846 1847
1168 1 1846 1848
1169 1 1849 1850
1170 1 1849 1851
1171 1 1852 1853
1172 1 1852 1854
1173 1 1855 1856
1174 1 1855 1857
1175 1 1858 1859
1176 1 1858 1860
1177 1 1861 1862
1178 1 1861 1863
1179 1 1864 1865
1180 1 1864 1866
1181 1 1867 1868
1182 1 1867 1869
1183 1 1870 1871
1184 1 1870 1872
1185 1 1873 1874
1186 1 1873 1875
1187 1 1876 1877
1188 1 1876 1878
1189 1 1879 1880
1190 1 1879 1881
1191 1 1882 1883
1192 1 1882 1884
1193 1 1885 1886
1194 1 1885 1887
1195 1 1888 1889
1196 1 1888 1890
1197 1 1899 1900
1198 1 1899 1901
1200 1 1902 1903
1202 1 1902 1904
1204 1 1905 1906
1206 1 1905 1907
1208 1 1908 1909
1210 1 1908 1910
1212 1 1911 1912
1214 1 1911 1913
1215 1 1914 1915
1199 1 1914 1916
1201 1 1917 1918
1203 1 1917 1919
1205 1 1920 1921
1207 1 1920 1922
1209 1 1923 1924
1211 1 1923 1925
1213 1 1926 1927
1216 1 1926 1928
1217 1 1929 1930
1218 1 1929 1931
1219 1 1932 1933
1220 1 1932 1934
1221 1 1935 1936
1222 1 1935 1937
1223 1 1938 1939
1224 1 1938 1940
1225 1 1941 1942
1226 1 1941 1943
1227 1 1944 1945
1228 1 1944 1946
1229 1 1947 1948
1230 1 1947 1949
1231 1 1950 1951
1232 1 1950 1952
1233 1 1953 1954
1234 1 1953 1955
1235 1 1956 1957
1236 1 1956 1958
1237 1 1959 1960
1238 1 1959 1961
1239 1 1962 1963
1240 1 1962 1964
1241 1 1965 1966
1242 1 1965 1967
1243 1 1968 1969
1244 1 1968 1970
1245 1 1971 1972
1246 1 1971 1973
1247 1 1974 1975
1248 1 1974 1976
1249 1 1977 1978
1250 1 1977 1979
1251 1 1980 1981
1252 1 1980 1982
1253 1 1983 1984
1254 1 1983 1985
1255 1 1986 1987
1256 1 1986 1988
1257 1 1989 1990
1258 1 1989 1991
1259 1 1992 1993
1260 1 1992 1994
1261 1 1995 1996
1262 1 1995 1997
1263 1 1998 1999
1264 1 1998 2000
1265 1 2001 2002
1266 1 2001 2003
1267 1 2004 2005
1268 1 2004 2006
1269 1 2007 2008
1270 1 2007 2009
1271 1 2010 2011
1272 1 2010 2012
1273 1 2013 2014
1274 1 2013 2015
1275 1 2016 2017
1276 1 2016 2018
1277 1 2019 2020
1278 1 2019 2021
1279 1 2022 2023
1280 1 2022 2024
1281 1 2025 2026
1282 1 2025 2027
1283 1 2028 2029
1284 1 2028 2030
1285 1 2031 2032
1286 1 2031 2033
1287 1 2034 2035
1288 1 2034 2036
1289 1 2045 2046
1290 1 2045 2047
1292 1 2048 2049
1294 1 2048 2050
1296 1 2051 2052
1298 1 2051 2053
1300 1 2054 2055
1302 1 2054 2056
1304 1 2057 2058
1306 1 2057 2059
1307 1 2060 2061
1291 1 2060 2062
1293 1 2063 2064
1295 1 2063 2065
1297 1 2066 2067
1299 1 2066 2068
1301 1 2069 2070
1303 1 2069 2071
1305 1 2072 2073
1308 1 2072 2074
1309 1 2075 2076
1310 1 2075 2077
1311 1 2078 2079
1312 1 2078 2080
1313 1 2081 2082
1314 1 2081 2083
1315 1 2084 2085
1316 1 2084 2086
1317 1 2087 2088
1318 1 2087 2089
1319 1 2090 2091
1320 1 2090 2092
1321 1 2093 2094
1322 1 2093 2095
1323 1 2096 2097
1324 1 2096 2098
1325 1 2099 2100
1326 1 2099 2101
1327 1 2102 2103
1328 1 2102 2104
1329 1 2105 2106
1330 1 2105 2107
1331 1 2108 2109
1332 1 2108 2110
1333 1 2111 2112
1334 1 2111 2113
1335 1 2114 2115
1336 1 2114 2116
1337 1 2117 2118
1338 1 2117 2119
1339 1 2120 2121
1340 1 2120 2122
1341 1 2123 2124
1342 1 2123 2125
1343 1 2126 2127
1344 1 2126 2128
1345 1 2129 2130
1346 1 2129 2131
1347 1 2132 2133
1348 1 2132 2134
1349 1 2135 2136
1350 1 2135 2137
1351 1 2138 2139
1352 1 2138 2140
1353 1 2141 2142
1354 1 2141 2143
1355 1 2144 2145
1356 1 2144 2146
1357 1 2147 2148
1358 1 2147 2149
1359 1 2150 2151
1360 1 2150 2152
1361 1 2153 2154
1362 1 2153 2155
1363 1 2156 2157
1364 1 2156 2158
1365 1 2159 2160
1366 1 2159 2161
1367 1 2162 2163
1368 1 2162 2164
1369 1 2165 2166
1370 1 2165 2167
1371 1 2168 2169
1372 1 2168 2170
1373 1 2171 2172
1374 1 2171 2173
1375 1 2174 2175
1376 1 2174 2176
1377 1 2177 2178
1378 1 2177 2179
1379 1 2180 2181
1380 1 2180 2182
1381 1 2191 2192
1382 1 2191 2193
1384 1 2194 2195
1386 1 2194 2196
1388 1 2197 2198
1390 1 2197 2199
1392 1 2200 2201
1394 1 2200 2202
1396 1 2203 2204
1398 1 2203 2205
1399 1 2206 2207
1383 1 2206 2208
1385 1 2209 2210
1387 1 2209 2211
1389 1 2212 2213
1391 1 2212 2214
1393 1 2215 2216
1395 1 2215 2217
1397 1 2218 2219
1400 1 2218 2220
1401 1 2221 2222
1402 1 2221 2223
1403 1 2224 2225
1404 1 2224 2226
1405 1 2227 2228
1406 1 2227 2229
1407 1 2230 2231
1408 1 2230 2232
1409 1 2233 2234
1410 1 2233 2235
1411 1 2236 2237
1412 1 2236 2238
1413 1 2239 2240
1414 1 2239 2241
1415 1 2242 2243
1416 1 2242 2244
1417 1 2245 2246
1418 1 2245 2247
1419 1 2248 2249
1420 1 2248 2250
1421 1 2251 2252
1422 1 2251 2253
1423 1 2254 2255
1424 1 2254 2256
1425 1 2257 2258
1426 1 2257 2259
1427 1 2260 2261
1428 1 2260 2262
1429 1 2263 2264
1430 1 2263 2265
1431 1 2266 2267
1432 1 2266 2268
1433 1 2269 2270
1434 1 2269 2271
1435 1 2272 2273
1436 1 2272 2274
1437 1 2275 2276
1438 1 2275 2277
1439 1 2278 2279
1440 1 2278 2280
1441 1 2281 2282
1442 1 2281 2283
1443 1 2284 2285
1444 1 2284 2286
1445 1 2287 2288
1446 1 2287 2289
1447 1 2290 2291
1448 1 2290 2292
1449 1 2293 2294
1450 1 2293 2295
1451 1 2296 2297
1452 1 2296 2298
1453 1 2299 2300
1454 1 2299 2301
1455 1 2302 2303
1456 1 2302 2304
1457 1 2305 2306
1458 1 2305 2307
1459 1 2308 2309
1460 1 2308 2310
1461 1 2311 2312
1462 1 2311 2313
1463 1 2314 2315
1464 1 2314 2316
1465 1 2317 2318
1466 1 2317 2319
1467 1 2320 2321
1468 1 2320 2322
1469 1 2323 2324
1470 1 2323 2325
1471 1 2326 2327
1472 1 2326 2328
1473 1 2337 2338
1474 1 2337 2339
1476 1 2340 2341
1478 1 2340 2342
1480 1 2343 2344
1482 1 2343 2345
1484 1 2346 2347
1486 1 2346 2348
1488 1 2349 2350
1490 1 2349 2351
1491 1 2352 2353
1475 1 2352 2354
1477 1 2355 2356
1479 1 2355 2357
1481 1 2358 2359
1483 1 2358 2360
1485 1 2361 2362
1487 1 2361 2363
1489 1 2364 2365
1492 1 2364 2366
1493 1 2367 2368
1494 1 2367 2369
1495 1 2370 2371
1496 1 2370 2372
1497 1 2373 2374
1498 1 2373 2375
1499 1 2376 2377
1500 1 2376 2378
1501 1 2379 2380
1502 1 2379 2381
1503 1 2382 2383
1504 1 2382 2384
1505 1 2385 2386
1506 1 2385 2387
1507 1 2388 2389
1508 1 2388 2390
1509 1 2391 2392
1510 1 2391 2393
1511 1 2394 2395
1512 1 2394 2396
1513 1 2397 2398
1514 1 2397 2399
1515 1 2400 2401
1516 1 2400 2402
1517 1 2403 2404
1518 1 2403 2405
1519 1 2406 2407
1520 1 2406 2408
1521 1 2409 2410
1522 1 2409 2411
1523 1 2412 2413
1524 1 2412 2414
1525 1 2415 2416
1526 1 2415 2417
1527 1 2418 2419
1528 1 2418 2420
1529 1 2421 2422
1530 1 2421 2423
1531 1 2424 2425
1532 1 2424 2426
1533 1 2427 2428
1534 1 2427 2429
1535 1 2430 2431
1536 1 2430 2432
1537 1 2433 2434
1538 1 2433 2435
1539 1 2436 2437
1540 1 2436 2438
1541 1 2439 2440
1542 1 2439 2441
1543 1 2442 2443
1544 1 2442 2444
1545 1 2445 2446
1546 1 2445 2447
1547 1 2448 2449
1548 1 2448 2450
1549 1 2451 2452
1550 1 2451 2453
1551 1 2454 2455
1552 1 2454 2456
1553 1 2457 2458
1554 1 2457 2459
1555 1 2460 2461
1556 1 2460 2462
1557 1 2463 2464
1558 1 2463 2465
1559 1 2466 2467
1560 1 2466 2468
1561 1 2469 2470
1562 1 2469 2471
1563 1 2472 2473
1564 1 2472 2474
1565 1 2483 2484
1566 1 2483 2485
1568 1 2486 2487
1570 1 2486 2488
1572 1 2489 2490
1574 1 2489 2491
1576 1 2492 2493
1578 1 2492 2494
1580 1 2495 2496
1582 1 2495 2497
1583 1 2498 2499
1567 1 2498 2500
1569 1 2501 2502
1571 1 2501 2503
1573 1 2504 2505
1575 1 2504 2506
1577 1 2507 2508
1579 1 2507 2509
1581 1 2510 2511
1584 1 2510 2512
1585 1 2513 2514
1586 1 2513 2515
1587 1 2516 2517
1588 1 2516 2518
1589 1 2519 2520
1590 1 2519 2521
1591 1 2522 2523
1592 1 2522 2524
1593 1 2525 2526
1594 1 2525 2527
1595 1 2528 2529
1596 1 2528 2530
1597 1 2531 2532
1598 1 2531 2533
1599 1 2534 2535
1600 1 2534 2536
1601 1 2537 2538
1602 1 2537 2539
1603 1 2540 2541
1604 1 2540 2542
1605 1 2543 2544
1606 1 2543 2545
1607 1 2546 2547
1608 1 2546 2548
1609 1 2549 2550
1610 1 2549 2551
1611 1 2552 2553
1612 1 2552 2554
1613 1 2555 2556
1614 1 2555 2557
1615 1 2558 2559
1616 1 2558 2560
1617 1 2561 2562
1618 1 2561 2563
1619 1 2564 2565
1620 1 2564 2566
1621 1 2567 2568
1622 1 2567 2569
1623 1 2570 2571
1624 1 2570 2572
1625 1 2573 2574
1626 1 2573 2575
1627 1 2576 2577
1628 1 2576 2578
1629 1 2579 2580
1630 1 2579 2581
1631 1 2582 2583
1632 1 2582 2584
1633 1 2585 2586
1634 1 2585 2587
1635 1 2588 2589
1636 1 2588 2590
1637 1 2591 2592
1638 1 2591 2593
1639 1 2594 2595
1640 1 2594 2596
1641 1 2597 2598
1642 1 2597 2599
1643 1 2600 2601
1644 1 2600 2602
1645 1 2603 2604
1646 1 2603 2605
1647 1 2606 2607
1648 1 2606 2608
1649 1 2609 2610
1650 1 2609 2611
1651 1 2612 2613
1652 1 2612 2614
1653 1 2615 2616
1654 1 2615 2617
1655 1 2618 2619
1656 1 2618 2620
1657 1 2629 2630
1658 1 2629 2631
1660 1 2632 2633
1662 1 2632 2634
1664 1 2635 2636
1666 1 2635 2637
1668 1 2638 2639
1670 1 2638 2640
1672 1 2641 2642
1674 1 2641 2643
1675 1 2644 2645
1659 1 2644 2646
1661 1 2647 2648
1663 1 2647 2649
1665 1 2650 2651
1667 1 2650 2652
1669 1 2653 2654
1671 1 2653 2655
1673 1 2656 2657
1676 1 2656 2658
1677 1 2659 2660
1678 1 2659 2661
1679 1 2662 2663
1680 1 2662 2664
1681 1 2665 2666
1682 1 2665 2667
1683 1 2668 2669
1684 1 2668 2670
1685 1 2671 2672
1686 1 2671 2673
1687 1 2674 2675
1688 1 2674 2676
1689 1 2677 2678
1690 1 2677 2679
1691 1 2680 2681
1692 1 2680 2682
1693 1 2683 2684
1694 1 2683 2685
1695 1 2686 2687
1696 1 2686 2688
1697 1 2689 2690
1698 1 2689 2691
1699 1 2692 2693
1700 1 2692 2694
1701 1 2695 2696
1702 1 2695 2697
1703 1 2698 2699
1704 1 2698 2700
1705 1 2701 2702
1706 1 2701 2703
1707 1 2704 2705
1708 1 2704 2706
1709 1 2707 2708
1710 1 2707 2709
1711 1 2710 2711
1712 1 2710 2712
1713 1 2713 2714
1714 1 2713 2715
1715 1 2716 2717
1716 1 2716 2718
1717 1 2719 2720
1718 1 2719 2721
1719 1 2722 2723
1720 1 2722 2724
1721 1 2725 2726
1722 1 2725 2727
1723 1 2728 2729
1724 1 2728 2730
1725 1 2731 2732
1726 1 2731 2733
1727 1 2734 2735
1728 1 2734 2736
1729 1 2737 2738
1730 1 2737 2739
1731 1 2740 2741
1732 1 2740 2742
1733 1 2743 2744
1734 1 2743 2745
1735 1 2746 2747
1736 1 2746 2748
1737 1 2749 2750
1738 1 2749 2751
1739 1 2752 2753
1740 1 2752 2754
1741 1 2755 2756
1742 1 2755 2757
1743 1 2758 2759
1744 1 2758 2760
1745 1 2761 2762
1746 1 2761 2763
1747 1 2764 2765
1748 1 2764 2766
1749 1 2775 2776
1750 1 2775 2777
1752 1 2778 2779
1754 1 2778 2780
1756 1 2781 2782
1758 1 2781 2783
1760 1 2784 2785
1762 1 2784 2786
1764 1 2787 2788
1766 1 2787 2789
1767 1 2790 2791
1751 1 2790 2792
1753 1 2793 2794
1755 1 2793 2795
1757 1 2796 2797
1759 1 2796 2798
1761 1 2799 2800
1763 1 2799 2801
1765 1 2802 2803
1768 1 2802 2804
1769 1 2805 2806
1770 1 2805 2807
1771 1 2808 2809
1772 1 2808 2810
1773 1 2811 2812
1774 1 2811 2813
1775 1 2814 2815
1776 1 2814 2816
1777 1 2817 2818
1778 1 2817 2819
1779 1 2820 2821
1780 1 2820 2822
1781 1 2823 2824
1782 1 2823 2825
1783 1 2826 2827
1784 1 2826 2828
1785 1 2829 2830
1786 1 2829 2831
1787 1 2832 2833
1788 1 2832 2834
1789 1 2835 2836
1790 1 2835 2837
1791 1 2838 2839
1792 1 2838 2840
1793 1 2841 2842
1794 1 2841 2843
1795 1 2844 2845
1796 1 2844 2846
1797 1 2847 2848
1798 1 2847 2849
1799 1 2850 2851
1800 1 2850 2852
1801 1 2853 2854
1802 1 2853 2855
1803 1 2856 2857
1804 1 2856 2858
1805 1 2859 2860
1806 1 2859 2861
1807 1 2862 2863
1808 1 2862 2864
1809 1 2865 2866
1810 1 2865 2867
1811 1 2868 2869
1812 1 2868 2870
1813 1 2871 2872
1814 1 2871 2873
1815 1 2874 2875
1816 1 2874 2876
1817 1 2877 2878
1818 1 2877 2879
1819 1 2880 2881
1820 1 2880 2882
1821 1 2883 2884
1822 1 2883 2885
1823 1 2886 2887
1824 1 2886 2888
1825 1 2889 2890
1826 1 2889 2891
1827 1 2892 2893
1828 1 2892 2894
1829 1 2895 2896
1830 1 2895 2897
1831 1 2898 2899
1832 1 2898 2900
1833 1 2901 2902
1834 1 2901 2903
1835 1 2904 2905
1836 1 2904 2906
1837 1 2907 2908
1838 1 2907 2909
1839 1 2910 2911
1840 1 2910 2912
1841 1 2921 2922
1842 1 2921 2923
1844 1 2924 2925
1846 1 2924 2926
1848 1 2927 2928
1850 1 2927 2929
1852 1 2930 2931
1854 1 2930 2932
1856 1 2933 2934
1858 1 2933 2935
1859 1 2936 2937
1843 1 2936 2938
1845 1 2939 2940
1847 1 2939 2941
1849 1 2942 2943
1851 1 2942 2944
1853 1 2945 2946
1855 1 2945 2947
1857 1 2948 2949
1860 1 2948 2950
1861 1 2951 2952
1862 1 2951 2953
1863 1 2954 2955
1864 1 2954 2956
1865 1 2957 2958
1866 1 2957 2959
1867 1 2960 2961
1868 1 2960 2962
1869 1 2963 2964
1870 1 2963 2965
1871 1 2966 2967
1872 1 2966 2968
1873 1 2969 2970
1874 1 2969 2971
1875 1 2972 2973
1876 1 2972 2974
1877 1 2975 2976
1878 1 2975 2977
1879 1 2978 2979
1880 1 2978 2980
1881 1 2981 2982
1882 1 2981 2983
1883 1 2984 2985
1884 1 2984 2986
1885 1 2987 2988
1886 1 2987 2989
1887 1 2990 2991
1888 1 2990 2992
1889 1 2993 2994
1890 1 2993 2995
1891 1 2996 2997
1892 1 2996 2998
1893 1 2999 3000
1894 1 2999 3001
1895 1 3002 3003
1896 1 3002 3004
1897 1 3005 3006
1898 1 3005 3007
1899 1 3008 3009
1900 1 3008 3010
1901 1 3011 3012
1902 1 3011 3013
1903 1 3014 3015
1904 1 3014 3016
1905 1 3017 3018
1906 1 3017 3019
1907 1 3020 3021
1908 1 3020 3022
1909 1 3023 3024
1910 1 3023 3025
1911 1 3026 3027
1912 1 3026 3028
1913 1 3029 3030
1914 1 3029 3031
1915 1 3032 3033
1916 1 3032 3034
1917 1 3035 3036
1918 1 3035 3037
1919 1 3038 3039
1920 1 3038 3040
1921 1 3041 3042
1922 1 3041 3043
1923 1 3044 3045
1924 1 3044 3046
1925 1 3047 3048
1926 1 3047 3049
1927 1 3050 3051
1928 1 3050 3052
1929 1 3053 3054
1930 1 3053 3055
1931 1 3056 3057
1932 1 3056 3058
1933 1 3067 3068
1934 1 3067 3069
1936 1 3070 3071
1938 1 3070 3072
1940 1 3073 3074
1942 1 3073 3075
1944 1 3076 3077
1946 1 3076 3078
1948 1 3079 3080
1950 1 3079 3081
1951 1 3082 3083
1935 1 3082 3084
1937 1 3085 3086
1939 1 3085 3087
1941 1 3088 3089
1943 1 3088 3090
1945 1 3091 3092
1947 1 3091 3093
1949 1 3094 3095
1952 1 3094 3096
1953 1 3097 3098
1954 1 3097 3099
1955 1 3100 3101
1956 1 3100 3102
1957 1 3103 3104
1958 1 3103 3105
1959 1 3106 3107
1960 1 3106 3108
1961 1 3109 3110
1962 1 3109 3111
1963 1 3112 3113
1964 1 3112 3114
1965 1 3115 3116
1966 1 3115 3117
1967 1 3118 3119
1968 1 3118 3120
1969 1 3121 3122
1970 1 3121 3123
1971 1 3124 3125
1972 1 3124 3126
1973 1 3127 3128
1974 1 3127 3129
1975 1 3130 3131
1976 1 3130 3132
1977 1 3133 3134
1978 1 3133 3135
1979 1 3136 3137
1980 1 3136 3138
1981 1 3139 3140
1982 1 3139 3141
1983 1 3142 3143
1984 1 3142 3144
1985 1 3145 3146
1986 1 3145 3147
1987 1 3148 3149
1988 1 3148 3150
1989 1 3151 3152
1990 1 3151 3153
1991 1 3154 3155
1992 1 3154 3156
1993 1 3157 3158
1994 1 3157 3159
1995 1 3160 3161
1996 1 3160 3162
1997 1 3163 3164
1998 1 3163 3165
1999 1 3166 3167
2000 1 3166 3168
2001 1 3169 3170
2002 1 3169 3171
2003 1 3172 3173
2004 1 3172 3174
2005 1 3175 3176
2006 1 3175 3177
2007 1 3178 3179
2008 1 3178 3180
2009 1 3181 3182
2010 1 3181 3183
2011 1 3184 3185
2012 1 3184 3186
2013 1 3187 3188
2014 1 3187 3189
2015 1 3190 3191
2016 1 3190 3192
2017 1 3193 3194
2018 1 3193 3195
2019 1 3196 3197
2020 1 3196 3198
2021 1 3199 3200
2022 1 3199 3201
2023 1 3202 3203
2024 1 3202 3204
2025 1 3213 3214
2026 1 3213 3215
2028 1 3216 3217
2030 1 3216 3218
2032 1 3219 3220
2034 1 3219 3221
2036 1 3222 3223
2038 1 3222 3224
2040 1 3225 3226
2042 1 3225 3227
2043 1 3228 3229
2027 1 3228 3230
2029 1 3231 3232
2031 1 3231 3233
2033 1 3234 3235
2035 1 3234 3236
2037 1 3237 3238
2039 1 3237 3239
2041 1 3240 3241
2044 1 3240 3242
2045 1 3243 3244
2046 1 3243 3245
2047 1 3246 3247
2048 1 3246 3248
2049 1 3249 3250
2050 1 3249 3251
2051 1 3252 3253
2052 1 3252 3254
2053 1 3255 3256
2054 1 3255 3257
2055 1 3258 3259
2056 1 3258 3260
2057 1 3261 3262
2058 1 3261 3263
2059 1 3264 3265
2060 1 3264 3266
2061 1 3267 3268
2062 1 3267 3269
2063 1 3270 3271
2064 1 3270 3272
2065 1 3273 3274
2066 1 3273 3275
2067 1 3276 3277
2068 1 3276 3278
2069 1 3279 3280
2070 1 3279 3281
2071 1 3282 3283
2072 1 3282 3284
2073 1 3285 3286
2074 1 3285 3287
2075 1 3288 3289
2076 1 3288 3290
2077 1 3291 3292
2078 1 3291 3293
2079 1 3294 3295
2080 1 3294 3296
2081 1 3297 3298
2082 1 3297 3299
2083 1 3300 3301
2084 1 3300 3302
2085 1 3303 3304
2086 1 3303 3305
2087 1 3306 3307
2088 1 3306 3308
2089 1 3309 3310
2090 1 3309 3311
2091 1 3312 3313
2092 1 3312 3314
2093 1 3315 3316
2094 1 3315 3317
2095 1 3318 3319
2096 1 3318 3320
2097 1 3321 3322
2098 1 3321 3323
2099 1 3324 3325
2100 1 3324 3326
2101 1 3327 3328
2102 1 3327 3329
2103 1 3330 3331
2104 1 3330 3332
2105 1 3333 3334
2106 1 3333 3335
2107 1 3336 3337
2108 1 3336 3338
2109 1 3339 3340
2110 1 3339 3341
2111 1 3342 3343
2112 1 3342 3344
2113 1 3345 3346
2114 1 3345 3347
2115 1 3348 3349
2116 1 3348 3350
2117 1 3359 3360
2118 1 3359 3361
2120 1 3362 3363
2122 1 3362 3364
2124 1 3365 3366
2126 1 3365 3367
2128 1 3368 3369
2130 1 3368 3370
2132 1 3371 3372
2134 1 3371 3373
2135 1 3374 3375
2119 1 3374 3376
2121 1 3377 3378
2123 1 3377 3379
2125 1 3380 3381
2127 1 3380 3382
2129 1 3383 3384
2131 1 3383 3385
2133 1 3386 3387
2136 1 3386 3388
2137 1 3389 3390
2138 1 3389 3391
2139 1 3392 3393
2140 1 3392 3394
2141 1 3395 3396
2142 1 3395 3397
2143 1 3398 3399
2144 1 3398 3400
2145 1 3401 3402
2146 1 3401 3403
2147 1 3404 3405
2148 1 3404 3406
2149 1 3407 3408
2150 1 3407 3409
2151 1 3410 3411
2152 1 3410 3412
2153 1 3413 3414
2154 1 3413 3415
2155 1 3416 3417
2156 1 3416 3418
2157 1 3419 3420
2158 1 3419 3421
2159 1 3422 3423
2160 1 3422 3424
2161 1 3425 3426
2162 1 3425 3427
2163 1 3428 3429
2164 1 3428 3430
2165 1 3431 3432
2166 1 3431 3433
2167 1 3434 3435
2168 1 3434 3436
2169 1 3437 3438
2170 1 3437 3439
2171 1 3440 3441
2172 1 3440 3442
2173 1 3443 3444
2174 1 3443 3445
2175 1 3446 3447
2176 1 3446 3448
2177 1 3449 3450
2178 1 3449 3451
2179 1 3452 3453
2180 1 3452 3454
2181 1 3455 3456
2182 1 3455 3457
2183 1 3458 3459
2184 1 3458 3460
2185 1 3461 3462
2186 1 3461 3463
2187 1 3464 3465
2188 1 3464 3466
2189 1 3467 3468
2190 1 3467 3469
2191 1 3470 3471
2192 1 3470 3472
2193 1 3473 3474
2194 1 3473 3475
2195 1 3476 3477
2196 1 3476 3478
2197 1 3479 3480
2198 1 3479 3481
2199 1 3482 3483
2200 1 3482 3484
2201 1 3485 3486
2202 1 3485 3487
2203 1 3488 3489
2204 1 3488 3490
2205 1 3491 3492
2206 1 3491 3493
2207 1 3494 3495
2208 1 3494 3496
2209 1 3505 3506
2210 1 3505 3507
2211 1 3508 3509
2212 1 3508 3510
2213 1 3511 3512
2214 1 3511 3513
2215 1 3514 3515
2216 1 3514 3516
2217 1 3517 3518
2218 1 3517 3519
2219 1 3520 3521
2220 1 3520 3522
2221 1 3523 3524
2222 1 3523 3525
2223 1 3526 3527
2224 1 3526 3528
2225 1 3529 3530
2226 1 3529 3531
2227 1 3532 3533
2228 1 3532 3534
2229 1 3535 3536
2230 1 3535 3537
2231 1 3538 3539
2232 1 3538 3540
2233 1 3541 3542
2234 1 3541 3543
2235 1 3544 3545
2236 1 3544 3546
2237 1 3547 3548
2238 1 3547 3549
2239 1 3550 3551
2240 1 3550 3552
2241 1 3553 3554
2242 1 3553 3555
2243 1 3556 3557
2244 1 3556 3558
2245 1 3559 3560
2246 1 3559 3561
2247 1 3562 3563
2248 1 3562 3564
2249 1 3565 3566
2250 1 3565 3567
2251 1 3568 3569
2252 1 3568 3570
2253 1 3571 3572
2254 1 3571 3573
2255 1 3574 3575
2256 1 3574 3576
2257 1 3577 3578
2258 1 3577 3579
2259 1 3580 3581
2260 1 3580 3582
2261 1 3583 3584
2262 1 3583 3585
2263 1 3586 3587
2264 1 3586 3588
2265 1 3589 3590
2266 1 3589 3591
2267 1 3592 3593
2268 1 3592 3594
2269 1 3595 3596
2270 1 3595 3597
2271 1 3598 3599
2272 1 3598 3600
2273 1 3601 3602
2274 1 3601 3603
2275 1 3604 3605
2276 1 3604 3606
2277 1 3607 3608
2278 1 3607 3609
2279 1 3610 3611
2280 1 3610 3612
2281 1 3613 3614
2282 1 3613 3615
2283 1 3616 3617
2284 1 3616 3618
2285 1 3619 3620
2286 1 3619 3621
2287 1 3622 3623
2288 1 3622 3624
2289 1 3625 3626
2290 1 3625 3627
2291 1 3628 3629
2292 1 3628 3630
2293 1 3631 3632
2294 1 3631 3633
2295 1 3634 3635
2296 1 3634 3636
2297 1 3637 3638
2298 1 3637 3639
2299 1 3640 3641
2300 1 3640 3642
2301 1 3643 3644
2302 1 3643 3645
2303 1 3646 3647
2304 1 3646 3648
2305 1 3649 3650
2306 1 3649 3651
2307 1 3652 3653
2308 1 3652 3654
2309 1 3655 3656
2310 1 3655 3657
2311 1 3658 3659
2312 1 3658 3660
2313 1 3661 3662
2314 1 3661 3663
2315 1 3664 3665
2316 1 3664 3666
2317 1 3667 3668
2318 1 3667 3669
2319 1 3670 3671
2320 1 3670 3672
2321 1 3673 3674
2322 1 3673 3675
2323 1 3676 3677
2324 1 3676 3678
2325 1 3679 3680
2326 1 3679 3681
2327 1 3682 3683
2328 1 3682 3684
2329 1 3685 3686
2330 1 3685 3687
2331 1 3688 3689
2332 1 3688 3690
2333 1 3691 3692
2334 1 3691 3693
2335 1 3694 3695
2336 1 3694 3696
2337 1 3697 3698
2338 1 3697 3699
2339 1 3700 3701
2340 1 3700 3702
2341 1 3703 3704
2342 1 3703 3705
2343 1 3706 3707
2344 1 3706 3708
2345 1 3709 3710
2346 1 3709 3711
2347 1 3712 3713
2348 1 3712 3714
2349 1 3715 3716
2350 1 3715 3717
2351 1 3718 3719
2352 1 3718 3720
2353 1 3721 3722
2354 1 3721 3723
2355 1 3724 3725
2356 1 3724 3726
2357 1 3727 3728
2358 1 3727 3729
2359 1 3730 3731
2360 1 3730 3732
2361 1 3733 3734
2362 1 3733 3735
2363 1 3736 3737
2364 1 3736 3738
2365 1 3739 3740
2366 1 3739 3741
2367 1 3742 3743
2368 1 3742 3744
2369 1 3745 3746
2370 1 3745 3747
2371 1 3748 3749
2372 1 3748 3750
2373 1 3751 3752
2374 1 3751 3753
2375 1 3754 3755
2376 1 3754 3756
2377 1 3757 3758
2378 1 3757 3759
2379 1 3760 3761
2380 1 3760 3762
2381 1 3763 3764
2382 1 3763 3765
2383 1 3766 3767
2384 1 3766 3768
2385 1 3769 3770
2386 1 3769 3771
2387 1 3772 3773
2388 1 3772 3774
2389 1 3775 3776
2390 1 3775 3777
2391 1 3778 3779
2392 1 3778 3780
2393 1 3781 3782
2394 1 3781 3783
2395 1 3784 3785
2396 1 3784 3786
2397 1 3787 3788
2398 1 3787 3789
2399 1 3790 3791
2400 1 3790 3792
2401 1 3793 3794
2402 1 3793 3795
2403 1 3796 3797
2404 1 3796 3798
2405 1 3799 3800
2406 1 3799 3801
2407 1 3802 3803
2408 1 3802 3804
2409 1 3805 3806
2410 1 3805 3807
2411 1 3808 3809
2412 1 3808 3810
2413 1 3811 3812
2414 1 3811 3813
2415 1 3814 3815
2416 1 3814 3816
2417 1 3817 3818
2418 1 3817 3819
2419 1 3820 3821
2420 1 3820 3822
2421 1 3823 3824
2422 1 3823 3825
2423 1 3826 3827
2424 1 3826 3828
2425 1 3829 3830
2426 1 3829 3831
2427 1 3832 3833
2428 1 3832 3834
2429 1 3835 3836
2430 1 3835 3837
2431 1 3838 3839
2432 1 3838 3840
2433 1 3841 3842
2434 1 3841 3843
2435 1 3844 3845
2436 1 3844 3846
2437 1 3847 3848
2438 1 3847 3849
2439 1 3850 3851
2440 1 3850 3852
2441 1 3853 3854
2442 1 3853 3855
2443 1 3856 3857
2444 1 3856 3858
2445 1 3859 3860
2446 1 3859 3861
2447 1 3862 3863
2448 1 3862 3864
2449 1 3865 3866
2450 1 3865 3867
2451 1 3868 3869
2452 1 3868 3870
2453 1 3871 3872
2454 1 3871 3873
2455 1 3874 3875
2456 1 3874 3876
2457 1 3877 3878
2458 1 3877 3879
2459 1 3880 3881
2460 1 3880 3882
2461 1 3883 3884
2462 1 3883 3885
2463 1 3886 3887
2464 1 3886 3888
2465 1 3889 3890
2466 1 3889 3891
2467 1 3892 3893
2468 1 3892 3894
2469 1 3895 3896
2470 1 3895 3897
2471 1 3898 3899
2472 1 3898 3900
2473 1 3901 3902
2474 1 3901 3903
2475 1 3904 3905
2476 1 3904 3906
2477 1 3907 3908
2478 1 3907 3909
2479 1 3910 3911
2480 1 3910 3912
2481 1 3913 3914
2482 1 3913 3915
2483 1 3916 3917
2484 1 3916 3918
2485 1 3919 3920
2486 1 3919 3921
2487 1 3922 3923
2488 1 3922 3924
2489 1 3925 3926
2490 1 3925 3927
2491 1 3928 3929
2492 1 3928 3930
2493 1 3931 3932
2494 1 3931 3933
2495 1 3934 3935
2496 1 3934 3936
2497 1 3937 3938
2498 1 3937 3939
2499 1 3940 3941
2500 1 3940 3942
2501 1 3943 3944
2502 1 3943 3945
2503 1 3946 3947
2504 1 3946 3948
2505 1 3949 3950
2506 1 3949 3951
2507 1 3952 3953
2508 1 3952 3954
2509 1 3955 3956
2510 1 3955 3957
2511 1 3958 3959
2512 1 3958 3960
2513 1 3961 3962
2514 1 3961 3963
2515 1 3964 3965
2516 1 3964 3966
2517 1 3967 3968
2518 1 3967 3969
2519 1 3970 3971
2520 1 3970 3972
2521 1 3973 3974
2522 1 3973 3975
2523 1 3976 3977
2524 1 3976 3978
2525 1 3979 3980
2526 1 3979 3981
2527 1 3982 3983
2528 1 3982 3984
2529 1 3985 3986
2530 1 3985 3987
2531 1 3988 3989
2532 1 3988 3990
2533 1 3991 3992
2534 1 3991 3993
2535 1 3994 3995
2536 1 3994 3996
2537 1 3997 3998
2538 1 3997 3999
2539 1 4000 4001
2540 1 4000 4002
2541 1 4003 4004
2542 1 4003 4005
2543 1 4006 4007
2544 1 4006 4008
2545 1 4009 4010
2546 1 4009 4011
2547 1 4012 4013
2548 1 4012 4014
2549 1 4015 4016
2550 1 4015 4017
2551 1 4018 4019
2552 1 4018 4020
2553 1 4021 4022
2554 1 4021 4023
2555 1 4024 4025
2556 1 4024 4026
2557 1 4027 4028
2558 1 4027 4029
2559 1 4030 4031
2560 1 4030 4032
2561 1 4033 4034
2562 1 4033 4035
2563 1 4036 4037
2564 1 4036 4038
2565 1 4039 4040
2566 1 4039 4041
2567 1 4042 4043
2568 1 4042 4044
2569 1 4045 4046
2570 1 4045 4047
2571 1 4048 4049
2572 1 4048 4050
2573 1 4051 4052
2574 1 4051 4053
2575 1 4054 4055
2576 1 4054 4056
2577 1 4057 4058
2578 1 4057 4059
2579 1 4060 4061
2580 1 4060 4062
2581 1 4063 4064
2582 1 4063 4065
2583 1 4066 4067
2584 1 4066 4068
2585 1 4069 4070
2586 1 4069 4071
2587 1 4072 4073
2588 1 4072 4074
2589 1 4075 4076
2590 1 4075 4077
2591 1 4078 4079
2592 1 4078 4080
2593 1 4081 4082
2594 1 4081 4083
2595 1 4084 4085
2596 1 4084 4086
2597 1 4087 4088
2598 1 4087 4089
2599 1 4090 4091
2600 1 4090 4092
2601 1 4093 4094
2602 1 4093 4095
2603 1 4096 4097
2604 1 4096 4098
2605 1 4099 4100
2606 1 4099 4101
2607 1 4102 4103
2608 1 4102 4104
2609 1 4105 4106
2610 1 4105 4107
2611 1 4108 4109
2612 1 4108 4110
2613 1 4111 4112
2614 1 4111 4113
2615 1 4114 4115
2616 1 4114 4116
2617 1 4117 4118
2618 1 4117 4119
2619 1 4120 4121
2620 1 4120 4122
2621 1 4123 4124
2622 1 4123 4125
2623 1 4126 4127
2624 1 4126 4128
2625 1 4129 4130
2626 1 4129 4131
2627 1 4132 4133
2628 1 4132 4134
2629 1 4135 4136
2630 1 4135 4137
2631 1 4138 4139
2632 1 4138 4140
2633 1 4141 4142
2634 1 4141 4143
2635 1 4144 4145
2636 1 4144 4146
2637 1 4147 4148
2638 1 4147 4149
2639 1 4150 4151
2640 1 4150 4152
2641 1 4153 4154
2642 1 4153 4155
2643 1 4156 4157
2644 1 4156 4158
2645 1 4159 4160
2646 1 4159 4161
2647 1 4162 4163
2648 1 4162 4164
2649 1 4165 4166
2650 1 4165 4167
2651 1 4168 4169
2652 1 4168 4170
2653 1 4171 4172
2654 1 4171 4173
2655 1 4174 4175
2656 1 4174 4176
2657 1 4177 4178
2658 1 4177 4179
2659 1 4180 4181
2660 1 4180 4182
2661 1 4183 4184
2662 1 4183 4185
2663 1 4186 4187
2664 1 4186 4188
2665 1 4189 4190
2666 1 4189 4191
2667 1 4192 4193
2668 1 4192 4194
2669 1 4195 4196
2670 1 4195 4197
2671 1 4198 4199
2672 1 4198 4200
2673 1 4201 4202
2674 1 4201 4203
2675 1 4204 4205
2676 1 4204 4206
2677 1 4207 4208
2678 1 4207 4209
2679 1 4210 4211
2680 1 4210 4212
2681 1 4213 4214
2682 1 4213 4215
2683 1 4216 4217
2684 1 4216 4218
2685 1 4219 4220
2686 1 4219 4221
2687 1 4222 4223
2688 1 4222 4224
2689 1 4225 4226
2690 1 4225 4227
2691 1 4228 4229
2692 1 4228 4230
2693 1 4231 4232
2694 1 4231 4233
2695 1 4234 4235
2696 1 4234 4236
2697 1 4237 4238
2698 1 4237 4239
2699 1 4240 4241
2700 1 4240 4242
2701 1 4243 4244
2702 1 4243 4245
2703 1 4246 4247
2704 1 4246 4248
2705 1 4249 4250
2706 1 4249 4251
2707 1 4252 4253
2708 1 4252 4254
2709 1 4255 4256
2710 1 4255 4257
2711 1 4258 4259
2712 1 4258 4260
2713 1 4261 4262
2714 1 4261 4263
2715 1 4264 4265
2716 1 4264 4266
2717 1 4267 4268
2718 1 4267 4269
2719 1 4270 4271
2720 1 4270 4272
2721 1 4273 4274
2722 1 4273 4275
2723 1 4276 4277
2724 1 4276 4278
2725 1 4279 4280
2726 1 4279 4281
2727 1 4282 4283
2728 1 4282 4284
2729 1 4285 4286
2730 1 4285 4287
2731 1 4288 4289
2732 1 4288 4290
2733 1 4291 4292
2734 1 4291 4293
2735 1 4294 4295
2736 1 4294 4296
2737 1 4297 4298
2738 1 4297 4299
2739 1 4300 4301
2740 1 4300 4302
2741 1 4303 4304
2742 1 4303 4305
2743 1 4306 4307
2744 1 4306 4308
2745 1 4309 4310
2746 1 4309 4311
2747 1 4312 4313
2748 1 4312 4314
2749 1 4315 4316
2750 1 4315 4317
2751 1 4318 4319
2752 1 4318 4320
2753 1 4321 4322
2754 1 4321 4323
2755 1 4324 4325
2756 1 4324 4326
2757 1 4327 4328
2758 1 4327 4329
2759 1 4330 4331
2760 1 4330 4332
2761 1 4333 4334
2762 1 4333 4335
2763 1 4336 4337
2764 1 4336 4338
2765 1 4339 4340
2766 1 4339 4341
2767 1 4342 4343
2768 1 4342 4344
2769 1 4345 4346
2770 1 4345 4347
2771 1 4348 4349
2772 1 4348 4350
2773 1 4351 4352
2774 1 4351 4353
2775 1 4354 4355
2776 1 4354 4356
2777 1 4357 4358
2778 1 4357 4359
2779 1 4360 4361
2780 1 4360 4362
2781 1 4363 4364
2782 1 4363 4365
2783 1 4366 4367
2784 1 4366 4368
2785 1 4369 4370
2786 1 4369 4371
2787 1 4372 4373
2788 1 4372 4374
2789 1 4375 4376
2790 1 4375 4377
2791 1 4378 4379
2792 1 4378 4380
2793 1 4381 4382
2794 1 4381 4383
2795 1 4384 4385
2796 1 4384 4386
2797 1 4387 4388
2798 1 4387 4389
2799 1 4390 4391
2800 1 4390 4392
2801 1 4393 4394
2802 1 4393 4395
2803 1 4396 4397
2804 1 4396 4398
2805 1 4399 4400
2806 1 4399 4401
2807 1 4402 4403
2808 1 4402 4404
2809 1 4405 4406
2810 1 4405 4407
2811 1 4408 4409
2812 1 4408 4410
2813 1 4411 4412
2814 1 4411 4413
2815 1 4414 4415
2816 1 4414 4416
2817 1 4417 4418
2818 1 4417 4419
2819 1 4420 4421
2820 1 4420 4422
2821 1 4423 4424
2822 1 4423 4425
2823 1 4426 4427
2824 1 4426 4428
2825 1 4429 4430
2826 1 4429 4431
2827 1 4432 4433
2828 1 4432 4434
2829 1 4435 4436
2830 1 4435 4437
2831 1 4438 4439
2832 1 4438 4440
2833 1 4441 4442
2834 1 4441 4443
2835 1 4444 4445
2836 1 4444 4446
2837 1 4447 4448
2838 1 4447 4449
2839 1 4450 4451
2840 1 4450 4452
2841 1 4453 4454
2842 1 4453 4455
2843 1 4456 4457
2844 1 4456 4458
2845 1 4459 4460
2846 1 4459 4461
2847 1 4462 4463
2848 1 4462 4464
2849 1 4465 4466
2850 1 4465 4467
2851 1 4468 4469
2852 1 4468 4470
2853 1 4471 4472
2854 1 4471 4473
2855 1 4474 4475
2856 1 4474 4476
2857 1 4477 4478
2858 1 4477 4479
2859 1 4480 4481
2860 1 4480 4482
2861 1 4483 4484
2862 1 4483 4485
2863 1 4486 4487
2864 1 4486 4488
2865 1 4489 4490
2866 1 4489 4491
2867 1 4492 4493
2868 1 4492 4494
2869 1 4495 4496
2870 1 4495 4497
2871 1 4498 4499
2872 1 4498 4500
2873 1 4501 4502
2874 1 4501 4503
2875 1 4504 4505
2876 1 4504 4506
2877 1 4507 4508
2878 1 4507 4509
2879 1 4510 4511
2880 1 4510 4512
2881 1 4513 4514
2882 1 4513 4515
2883 1 4516 4517
2884 1 4516 4518
2885 1 4519 4520
2886 1 4519 4521
2887 1 4522 4523
2888 1 4522 4524
2889 1 4525 4526
2890 1 4525 4527
2891 1 4528 4529
2892 1 4528 4530
2893 1 4531 4532
2894 1 4531 4533
2895 1 4534 4535
2896 1 4534 4536
2897 1 4537 4538
2898 1 4537 4539
2899 1 4540 4541
2900 1 4540 4542
2901 1 4543 4544
2902 1 4543 4545
2903 1 4546 4547
2904 1 4546 4548
2905 1 4549 4550
2906 1 4549 4551
2907 1 4552 4553
2908 1 4552 4554
2909 1 4555 4556
2910 1 4555 4557
2911 1 4558 4559
2912 1 4558 4560
2913 1 4561 4562
2914 1 4561 4563
2915 1 4564 4565
2916 1 4564 4566
2917 1 4567 4568
2918 1 4567 4569
2919 1 4570 4571
2920 1 4570 4572
2921 1 4573 4574
2922 1 4573 4575
2923 1 4576 4577
2924 1 4576 4578
2925 1 4579 4580
2926 1 4579 4581
2927 1 4582 4583
2928 1 4582 4584
2929 1 4585 4586
2930 1 4585 4587
2931 1 4588 4589
2932 1 4588 4590
2933 1 4591 4592
2934 1 4591 4593
2935 1 4594 4595
2936 1 4594 4596
2937 1 4597 4598
2938 1 4597 4599
2939 1 4600 4601
2940 1 4600 4602
2941 1 4603 4604
2942 1 4603 4605
2943 1 4606 4607
2944 1 4606 4608
2945 1 4609 4610
2946 1 4609 4611
2947 1 4612 4613
2948 1 4612 4614
2949 1 4615 4616
2950 1 4615 4617
2951 1 4618 4619
2952 1 4618 4620
2953 1 4621 4622
2954 1 4621 4623
2955 1 4624 4625
2956 1 4624 4626
2957 1 4627 4628
2958 1 4627 4629
2959 1 4630 4631
2960 1 4630 4632
2961 1 4633 4634
2962 1 4633 4635
2963 1 4636 4637
2964 1 4636 4638
2965 1 4639 4640
2966 1 4639 4641
2967 1 4642 4643
2968 1 4642 4644
2969 1 4645 4646
2970 1 4645 4647
2971 1 4648 4649
2972 1 4648 4650
2973 1 4651 4652
2974 1 4651 4653
2975 1 4654 4655
2976 1 4654 4656
2977 1 4657 4658
2978 1 4657 4659
2979 1 4660 4661
2980 1 4660 4662
2981 1 4663 4664
2982 1 4663 4665
2983 1 4666 4667
2984 1 4666 4668
2985 1 4669 4670
2986 1 4669 4671
2987 1 4672 4673
2988 1 4672 4674
2989 1 4675 4676
2990 1 4675 4677
2991 1 4678 4679
2992 1 4678 4680
2993 1 4681 4682
2994 1 4681 4683
2995 1 4684 4685
2996 1 4684 4686
2997 1 4687 4688
2998 1 4687 4689
2999 1 4690 4691
3000 1 4690 4692
3001 1 4693 4694
3002 1 4693 4695
3003 1 4696 4697
3004 1 4696 4698
3005 1 4699 4700
3006 1 4699 4701
3007 1 4702 4703
3008 1 4702 4704
3009 1 4705 4706
3010 1 4705 4707
3011 1 4708 4709
3012 1 4708 4710
3013 1 4711 4712
3014 1 4711 4713
3015 1 4714 4715
3016 1 4714 4716
3017 1 4717 4718
3018 1 4717 4719
3019 1 4720 4721
3020 1 4720 4722
3021 1 4723 4724
3022 1 4723 4725
3023 1 4726 4727
3024 1 4726 4728
3025 1 4729 4730
3026 1 4729 4731
3027 1 4732 4733
3028 1 4732 4734
3029 1 4735 4736
3030 1 4735 4737
3031 1 4738 4739
3032 1 4738 4740
3033 1 4741 4742
3034 1 4741 4743
3035 1 4744 4745
3036 1 4744 4746
3037 1 4747 4748
3038 1 4747 4749
3039 1 4750 4751
3040 1 4750 4752
3041 1 4753 4754
3042 1 4753 4755
3043 1 4756 4757
3044 1 4756 4758
3045 1 4759 4760
3046 1 4759 4761
3047 1 4762 4763
3048 1 4762 4764
3049 1 4765 4766
3050 1 4765 4767
3051 1 4768 4769
3052 1 4768 4770
3053 1 4771 4772
3054 1 4771 4773
3055 1 4774 4775
3056 1 4774 4776
3057 1 4777 4778
3058 1 4777 4779
3059 1 4780 4781
3060 1 4780 4782
3061 1 4783 4784
3062 1 4783 4785
3063 1 4786 4787
3064 1 4786 4788
3065 1 4789 4790
3066 1 4789 4791
3067 1 4792 4793
3068 1 4792 4794
3069 1 4795 4796
3070 1 4795 4797
3071 1 4798 4799
3072 1 4798 4800
3073 1 4801 4802
3074 1 4801 4803
3075 1 4804 4805
3076 1 4804 4806
3077 1 4807 4808
3078 1 4807 4809
3079 1 4810 4811
3080 1 4810 4812
3081 1 4813 4814
3082 1 4813 4815
3083 1 4816 4817
3084 1 4816 4818
3085 1 4819 4820
3086 1 4819 4821
3087 1 4822 4823
3088 1 4822 4824
3089 1 4825 4826
3090 1 4825 4827
3091 1 4828 4829
3092 1 4828 4830
3093 1 4831 4832
3094 1 4831 4833
3095 1 4834 4835
3096 1 4834 4836
3097 1 4837 4838
3098 1 4837 4839
3099 1 4840 4841
3100 1 4840 4842
3101 1 4843 4844
3102 1 4843 4845
3103 1 4846 4847
3104 1 4846 4848
3105 1 4849 4850
3106 1 4849 4851
3107 1 4852 4853
3108 1 4852 4854
3109 1 4855 4856
3110 1 4855 4857
3111 1 4858 4859
3112 1 4858 4860
3113 1 4861 4862
3114 1 4861 4863
3115 1 4864 4865
3116 1 4864 4866
3117 1 4867 4868
3118 1 4867 4869
3119 1 4870 4871
3120 1 4870 4872
3121 1 4873 4874
3122 1 4873 4875
3123 1 4876 4877
3124 1 4876 4878
3125 1 4879 4880
3126 1 4879 4881
3127 1 4882 4883
3128 1 4882 4884
3129 1 4885 4886
3130 1 4885 4887
3131 1 4888 4889
3132 1 4888 4890
3133 1 4891 4892
3134 1 4891 4893
3135 1 4894 4895
3136 1 4894 4896
3137 1 4897 4898
3138 1 4897 4899
3139 1 4900 4901
3140 1 4900 4902
3141 1 4903 4904
3142 1 4903 4905
3143 1 4906 4907
3144 1 4906 4908
3145 1 4909 4910
3146 1 4909 4911
3147 1 4912 4913
3148 1 4912 4914
3149 1 4915 4916
3150 1 4915 4917
3151 1 4918 4919
3152 1 4918 4920
3153 1 4921 4922
3154 1 4921 4923
3155 1 4924 4925
3156 1 4924 4926
3157 1 4927 4928
3158 1 4927 4929
3159 1 4930 4931
3160 1 4930 4932
3161 1 4933 4934
3162 1 4933 4935
3163 1 4936 4937
3164 1 4936 4938
3165 1 4939 4940
3166 1 4939 4941
3167 1 4942 4943
3168 1 4942 4944
3169 1 4945 4946
3170 1 4945 4947
3171 1 4948 4949
3172 1 4948 4950
3173 1 4951 4952
3174 1 4951 4953
3175 1 4954 4955
3176 1 4954 4956
3177 1 4957 4958
3178 1 4957 4959
3179 1 4960 4961
3180 1 4960 4962
3181 1 4963 4964
3182 1 4963 4965
3183 1 4966 4967
3184 1 4966 4968
3185 1 4969 4970
3186 1 4969 4971
3187 1 4972 4973
3188 1 4972 4974
3189 1 4975 4976
3190 1 4975 4977
3191 1 4978 4979
3192 1 4978 4980
3193 1 4981 4982
3194 1 4981 4983
3195 1 4984 4985
3196 1 4984 4986
3197 1 4987 4988
3198 1 4987 4989
3199 1 4990 4991
3200 1 4990 4992
3201 1 4993 4994
3202 1 4993 4995
3203 1 4996 4997
3204 1 4996 4998
3205 1 4999 5000
3206 1 4999 5001
3207 1 5002 5003
3208 1 5002 5004
3209 1 5005 5006
3210 1 5005 5007
3211 1 5008 5009
3212 1 5008 5010
3213 1 5011 5012
3214 1 5011 5013
3215 1 5014 5015
3216 1 5014 5016
3217 1 5017 5018
3218 1 5017 5019
3219 1 5020 5021
3220 1 5020 5022
3221 1 5023 5024
3222 1 5023 5025
3223 1 5026 5027
3224 1 5026 5028
3225 1 5029 5030
3226 1 5029 5031
3227 1 5032 5033
3228 1 5032 5034
3229 1 5035 5036
3230 1 5035 5037
3231 1 5038 5039
3232 1 5038 5040
3233 1 5041 5042
3234 1 5041 5043
3235 1 5044 5045
3236 1 5044 5046
3237 1 5047 5048
3238 1 5047 5049
3239 1 5050 5051
3240 1 5050 5052
3241 1 5053 5054
3242 1 5053 5055
3243 1 5056 5057
3244 1 5056 5058
3245 1 5059 5060
3246 1 5059 5061
3247 1 5062 5063
3248 1 5062 5064
3249 1 5065 5066
3250 1 5065 5067
3251 1 5068 5069
3252 1 5068 5070
3253 1 5071 5072
3254 1 5071 5073
3255 1 5074 5075
3256 1 5074 5076
3257 1 5077 5078
3258 1 5077 5079
3259 1 5080 5081
3260 1 5080 5082
3261 1 5083 5084
3262 1 5083 5085
3263 1 5086 5087
3264 1 5086 5088
3265 1 5089 5090
3266 1 5089 5091
3267 1 5092 5093
3268 1 5092 5094
3269 1 5095 5096
3270 1 5095 5097
3271 1 5098 5099
3272 1 5098 5100
3273 1 5101 5102
3274 1 5101 5103
3275 1 5104 5105
3276 1 5104 5106
3277 1 5107 5108
3278 1 5107 5109
3279 1 5110 5111
3280 1 5110 5112
3281 1 5113 5114
3282 1 5113 5115
3283 1 5116 5117
3284 1 5116 5118
3285 1 5119 5120
3286 1 5119 5121
3287 1 5122 5123
3288 1 5122 5124
3289 1 5125 5126
3290 1 5125 5127
3291 1 5128 5129
3292 1 5128 5130
3293 1 5131 5132
3294 1 5131 5133
3295 1 5134 5135
3296 1 5134 5136
3297 1 5137 5138
3298 1 5137 5139
3299 1 5140 5141
3300 1 5140 5142
3301 1 5143 5144
3302 1 5143 5145
3303 1 5146 5147
3304 1 5146 5148
3305 1 5149 5150
3306 1 5149 5151
3307 1 5152 5153
3308 1 5152 5154
3309 1 5155 5156
3310 1 5155 5157
3311 1 5158 5159
3312 1 5158 5160
3313 1 5161 5162
3314 1 5161 5163
3315 1 5164 5165
3316 1 5164 5166
3317 1 5167 5168
3318 1 5167 5169
3319 1 5170 5171
3320 1 5170 5172
3321 1 5173 5174
3322 1 5173 5175
3323 1 5176 5177
3324 1 5176 5178
3325 1 5179 5180
3326 1 5179 5181
3327 1 5182 5183
3328 1 5182 5184
3329 1 5185 5186
3330 1 5185 5187
3331 1 5188 5189
3332 1 5188 5190
3333 1 5191 5192
3334 1 5191 5193
3335 1 5194 5195
3336 1 5194 5196
3337 1 5197 5198
3338 1 5197 5199
3339 1 5200 5201
3340 1 5200 5202
3341 1 5203 5204
3342 1 5203 5205
3343 1 5206 5207
3344 1 5206 5208
3345 1 5209 5210
3346 1 5209 5211
3347 1 5212 5213
3348 1 5212 5214
3349 1 5215 5216
3350 1 5215 5217
3351 1 5218 5219
3352 1 5218 5220
3353 1 5221 5222
3354 1 5221 5223
3355 1 5224 5225
3356 1 5224 5226
3357 1 5227 5228
3358 1 5227 5229
3359 1 5230 5231
3360 1 5230 5232
3361 1 5233 5234
3362 1 5233 5235
3363 1 5236 5237
3364 1 5236 5238
3365 1 5239 5240
3366 1 5239 5241
3367 1 5242 5243
3368 1 5242 5244
3369 1 5245 5246
3370 1 5245 5247
3371 1 5248 5249
3372 1 5248 5250
3373 1 5251 5252
3374 1 5251 5253
3375 1 5254 5255
3376 1 5254 5256
3377 1 5257 5258
3378 1 5257 5259
3379 1 5260 5261
3380 1 5260 5262
3381 1 5263 5264
3382 1 5263 5265
3383 1 5266 5267
3384 1 5266 5268
3385 1 5269 5270
3386 1 5269 5271
3387 1 5272 5273
3388 1 5272 5274
3389 1 5275 5276
3390 1 5275 5277
3391 1 5278 5279
3392 1 5278 5280
3393 1 5281 5282
3394 1 5281 5283
3395 1 5284 5285
3396 1 5284 5286
3397 1 5287 5288
3398 1 5287 5289
3399 1 5290 5291
3400 1 5290 5292
3401 1 5293 5294
3402 1 5293 5295
3403 1 5296 5297
3404 1 5296 5298
3405 1 5299 5300
3406 1 5299 5301
3407 1 5302 5303
3408 1 5302 5304
3409 1 5305 5306
3410 1 5305 5307
3411 1 5308 5309
3412 1 5308 5310
3413 1 5311 5312
3414 1 5311 5313
3415 1 5314 5315
3416 1 5314 5316
3417 1 5317 5318
3418 1 5317 5319
3419 1 5320 5321
3420 1 5320 5322
3421 1 5323 5324
3422 1 5323 5325
3423 1 5326 5327
3424 1 5326 5328
3425 1 5329 5330
3426 1 5329 5331
3427 1 5332 5333
3428 1 5332 5334
3429 1 5335 5336
3430 1 5335 5337
3431 1 5338 5339
3432 1 5338 5340
3433 1 5341 5342
3434 1 5341 5343
3435 1 5344 5345
3436 1 5344 5346
3437 1 5347 5348
3438 1 5347 5349
3439 1 5350 5351
3440 1 5350 5352
3441 1 5353 5354
3442 1 5353 5355
3443 1 5356 5357
3444 1 5356 5358
3445 1 5359 5360
3446 1 5359 5361
3447 1 5362 5363
3448 1 5362 5364
3449 1 5365 5366
3450 1 5365 5367
3451 1 5368 5369
3452 1 5368 5370
3453 1 5371 5372
3454 1 5371 5373
3455 1 5374 5375
3456 1 5374 5376
3457 1 5377 5378
3458 1 5377 5379
3459 1 5380 5381
3460 1 5380 5382
3461 1 5383 5384
3462 1 5383 5385
3463 1 5386 5387
3464 1 5386 5388
3465 1 5389 5390
3466 1 5389 5391
3467 1 5392 5393
3468 1 5392 5394
3469 1 5395 5396
3470 1 5395 5397
3471 1 5398 5399
3472 1 5398 5400
3473 1 5401 5402
3474 1 5401 5403
3475 1 5404 5405
3476 1 5404 5406
3477 1 5407 5408
3478 1 5407 5409
3479 1 5410 5411
3480 1 5410 5412
3481 1 5413 5414
3482 1 5413 5415
3483 1 5416 5417
3484 1 5416 5418
3485 1 5419 5420
3486 1 5419 5421
3487 1 5422 5423
3488 1 5422 5424
3489 1 5425 5426
3490 1 5425 5427
3491 1 5428 5429
3492 1 5428 5430
3493 1 5431 5432
3494 1 5431 5433
3495 1 5434 5435
3496 1 5434 5436
3497 1 5437 5438
3498 1 5437 5439
3499 1 5440 5441
3500 1 5440 5442
3501 1 5443 5444
3502 1 5443 5445
3503 1 5446 5447
3504 1 5446 5448
3505 1 5449 5450
3506 1 5449 5451
3507 1 5452 5453
3508 1 5452 5454
3509 1 5455 5456
3510 1 5455 5457
3511 1 5458 5459
3512 1 5458 5460
3513 1 5461 5462
3514 1 5461 5463
3515 1 5464 5465
3516 1 5464 5466
3517 1 5467 5468
3518 1 5467 5469
3519 1 5470 5471
3520 1 5470 5472
3521 1 5473 5474
3522 1 5473 5475
3523 1 5476 5477
3524 1 5476 5478
3525 1 5479 5480
3526 1 5479 5481
3527 1 5482 5483
3528 1 5482 5484
3529 1 5485 5486
3530 1 5485 5487
3531 1 5488 5489
3532 1 5488 5490
3533 1 5491 5492
3534 1 5491 5493
3535 1 5494 5495
3536 1 5494 5496
3537 1 5497 5498
3538 1 5497 5499
3539 1 5500 5501
3540 1 5500 5502
3541 1 5503 5504
3542 1 5503 5505
3543 1 5506 5507
3544 1 5506 5508
3545 1 5509 5510
3546 1 5509 5511
3547 1 5512 5513
3548 1 5512 5514
3549 1 5515 5516
3550 1 5515 5517
3551 1 5518 5519
3552 1 5518 5520
3553 1 5521 5522
3554 1 5521 5523
3555 1 5524 5525
3556 1 5524 5526
3557 1 5527 5528
3558 1 5527 5529
3559 1 5530 5531
3560 1 5530 5532
3561 1 5533 5534
3562 1 5533 5535
3563 1 5536 5537
3564 1 5536 5538
3565 1 5539 5540
3566 1 5539 5541
3567 1 5542 5543
3568 1 5542 5544
3569 1 5545 5546
3570 1 5545 5547
3571 1 5548 5549
3572 1 5548 5550
3573 1 5551 5552
3574 1 5551 5553
3575 1 5554 5555
3576 1 5554 5556
3577 1 5557 5558
3578 1 5557 5559
3579 1 5560 5561
3580 1 5560 5562
3581 1 5563 5564
3582 1 5563 5565
3583 1 5566 5567
3584 1 5566 5568
3585 1 5569 5570
3586 1 5569 5571
3587 1 5572 5573
3588 1 5572 5574
3589 1 5575 5576
3590 1 5575 5577
3591 1 5578 5579
3592 1 5578 5580
3593 1 5581 5582
3594 1 5581 5583
3595 1 5584 5585
3596 1 5584 5586
3597 1 5587 5588
3598 1 5587 5589
3599 1 5590 5591
3600 1 5590 5592
3601 1 5593 5594
3602 1 5593 5595
3603 1 5596 5597
3604 1 5596 5598
3605 1 5599 5600
3606 1 5599 5601
3607 1 5602 5603
3608 1 5602 5604
3609 1 5605 5606
3610 1 5605 5607
3611 1 5608 5609
3612 1 5608 5610
3613 1 5611 5612
3614 1 5611 5613
3615 1 5614 5615
3616 1 5614 5616
3617 1 5617 5618
3618 1 5617 5619
3619 1 5620 5621
3620 1 5620 5622
3621 1 5623 5624
3622 1 5623 5625
3623 1 5626 5627
3624 1 5626 5628
3625 1 5629 5630
3626 1 5629 5631
3627 1 5632 5633
3628 1 5632 5634
3629 1 5635 5636
3630 1 5635 5637
3631 1 5638 5639
3632 1 5638 5640
3633 1 5641 5642
3634 1 5641 5643
3635 1 5644 5645
3636 1 5644 5646
3637 1 5647 5648
3638 1 5647 5649
3639 1 5650 5651
3640 1 5650 5652
3641 1 5653 5654
3642 1 5653 5655
3643 1 5656 5657
3644 1 5656 5658
3645 1 5659 5660
3646 1 5659 5661
3647 1 5662 5663
3648 1 5662 5664
3649 1 5665 5666
3650 1 5665 5667
3651 1 5668 5669
3652 1 5668 5670
3653 1 5671 5672
3654 1 5671 5673
3655 1 5674 5675
3656 1 5674 5676
3657 1 5677 5678
3658 1 5677 5679
3659 1 5680 5681
3660 1 5680 5682
3661 1 5683 5684
3662 1 5683 5685
3663 1 5686 5687
3664 1 5686 5688
3665 1 5689 5690
3666 1 5689 5691
3667 1 5692 5693
3668 1 5692 5694
3669 1 5695 5696
3670 1 5695 5697
3671 1 5698 5699
3672 1 5698 5700
3673 1 5701 5702
3674 1 5701 5703
3675 1 5704 5705
3676 1 5704 5706
3677 1 5707 5708
3678 1 5707 5709
3679 1 5710 5711
3680 1 5710 5712
3681 1 5713 5714
3682 1 5713 5715
3683 1 5716 5717
3684 1 5716 5718
3685 1 5719 5720
3686 1 5719 5721
3687 1 5722 5723
3688 1 5722 5724
3689 1 5725 5726
3690 1 5725 5727
3691 1 5728 5729
3692 1 5728 5730
3693 1 5731 5732
3694 1 5731 5733
3695 1 5734 5735
3696 1 5734 5736
3697 1 5737 5738
3698 1 5737 5739
3699 1 5740 5741
3700 1 5740 5742
3701 1 5743 5744
3702 1 5743 5745
3703 1 5746 5747
3704 1 5746 5748
3705 1 5749 5750
3706 1 5749 5751
3707 1 5752 5753
3708 1 5752 5754
3709 1 5755 5756
3710 1 5755 5757
3711 1 5758 5759
3712 1 5758 5760
3713 1 5761 5762
3714 1 5761 5763
3715 1 5764 5765
3716 1 5764 5766
3717 1 5767 5768
3718 1 5767 5769
3719 1 5770 5771
3720 1 5770 5772
3721 1 5773 5774
3722 1 5773 5775
3723 1 5776 5777
3724 1 5776 5778
3725 1 5779 5780
3726 1 5779 5781
3727 1 5782 5783
3728 1 5782 5784
3729 1 5785 5786
3730 1 5785 5787
3731 1 5788 5789
3732 1 5788 5790
3733 1 5791 5792
3734 1 5791 5793
3735 1 5794 5795
3736 1 5794 5796
3737 1 5797 5798
3738 1 5797 5799
3739 1 5800 5801
3740 1 5800 5802
3741 1 5803 5804
3742 1 5803 5805
3743 1 5806 5807
3744 1 5806 5808
3745 1 5809 5810
3746 1 5809 5811
3747 1 5812 5813
3748 1 5812 5814
3749 1 5815 5816
3750 1 5815 5817
3751 1 5818 5819
3752 1 5818 5820
3753 1 5821 5822
3754 1 5821 5823
3755 1 5824 5825
3756 1 5824 5826
3757 1 5827 5828
3758 1 5827 5829
3759 1 5830 5831
3760 1 5830 5832
3761 1 5833 5834
3762 1 5833 5835
3763 1 5836 5837
3764 1 5836 5838
3765 1 5839 5840
3766 1 5839 5841
3767 1 5842 5843
3768 1 5842 5844
3769 1 5845 5846
3770 1 5845 5847
3771 1 5848 5849
3772 1 5848 5850
3773 1 5851 5852
3774 1 5851 5853
3775 1 5854 5855
3776 1 5854 5856
3777 1 5857 5858
3778 1 5857 5859
3779 1 5860 5861
3780 1 5860 5862
3781 1 5863 5864
3782 1 5863 5865
3783 1 5866 5867
3784 1 5866 5868
3785 1 5869 5870
3786 1 5869 5871
3787 1 5872 5873
3788 1 5872 5874
3789 1 5875 5876
3790 1 5875 5877
3791 1 5878 5879
3792 1 5878 5880
3793 1 5881 5882
3794 1 5881 5883
3795 1 5884 5885
3796 1 5884 5886
3797 1 5887 5888
3798 1 5887 5889
3799 1 5890 5891
3800 1 5890 5892
3801 1 5893 5894
3802 1 5893 5895
3803 1 5896 5897
3804 1 5896 5898
3805 1 5899 5900
3806 1 5899 5901
3807 1 5902 5903
3808 1 5902 5904
3809 1 5905 5906
3810 1 5905 5907
3811 1 5908 5909
3812 1 5908 5910
3813 1 5911 5912
3814 1 5911 5913
3815 1 5914 5915
3816 1 5914 5916
3817 1 5917 5918
3818 1 5917 5919
3819 1 5920 5921
3820 1 5920 5922
3821 1 5923 5924
3822 1 5923 5925
3823 1 5926 5927
3824 1 5926 5928
3825 1 5929 5930
3826 1 5929 5931
3827 1 5932 5933
3828 1 5932 5934
3829 1 5935 5936
3830 1 5935 5937
3831 1 5938 5939
3832 1 5938 5940
3833 1 5941 5942
3834 1 5941 5943
3835 1 5944 5945
3836 1 5944 5946
3837 1 5947 5948
3838 1 5947 5949
3839 1 5950 5951
3840 1 5950 5952
3841 1 5953 5954
3842 1 5953 5955
3843 1 5956 5957
3844 1 5956 5958
3845 1 5959 5960
3846 1 5959 5961
3847 1 5962 5963
3848 1 5962 5964
3849 1 5965 5966
3850 1 5965 5967
3851 1 5968 5969
3852 1 5968 5970
3853 1 5971 5972
3854 1 5971 5973
3855 1 5974 5975
3856 1 5974 5976
3857 1 5977 5978
3858 1 5977 5979
3859 1 5980 5981
3860 1 5980 5982
3861 1 5983 5984
3862 1 5983 5985
3863 1 5986 5987
3864 1 5986 5988
3865 1 5989 5990
3866 1 5989 5991
3867 1 5992 5993
3868 1 5992 5994
3869 1 5995 5996
3870 1 5995 5997
3871 1 5998 5999
3872 1 5998 6000
3873 1 6001 6002
3874 1 6001 6003
3875 1 6004 6005
3876 1 6004 6006
3877 1 6007 6008
3878 1 6007 6009
3879 1 6010 6011
3880 1 6010 6012
3881 1 6013 6014
3882 1 6013 6015
3883 1 6016 6017
3884 1 6016 6018
3885 1 6019 6020
3886 1 6019 6021
3887 1 6022 6023
3888 1 6022 6024
3889 1 6025 6026
3890 1 6025 6027
3891 1 6028 6029
3892 1 6028 6030
3893 1 6031 6032
3894 1 6031 6033
3895 1 6034 6035
3896 1 6034 6036
3897 1 6037 6038
3898 1 6037 6039
3899 1 6040 6041
3900 1 6040 6042
3901 1 6043 6044
3902 1 6043 6045
3903 1 6046 6047
3904 1 6046 6048
3905 1 6049 6050
3906 1 6049 6051
3907 1 6052 6053
3908 1 6052 6054
3909 1 6055 6056
3910 1 6055 6057
3911 1 6058 6059
3912 1 6058 6060
3913 1 6061 6062
3914 1 6061 6063
3915 1 6064 6065
3916 1 6064 6066
3917 1 6067 6068
3918 1 6067 6069
3919 1 6070 6071
3920 1 6070 6072
3921 1 6073 6074
3922 1 6073 6075
3923 1 6076 6077
3924 1 6076 6078
3925 1 6079 6080
3926 1 6079 6081
3927 1 6082 6083
3928 1 6082 6084
3929 1 6085 6086
3930 1 6085 6087
3931 1 6088 6089
3932 1 6088 6090
3933 1 6091 6092
3934 1 6091 6093
3935 1 6094 6095
3936 1 6094 6096
3937 1 6097 6098
3938 1 6097 6099
3939 1 6100 6101
3940 1 6100 6102
3941 1 6103 6104
3942 1 6103 6105
3943 1 6106 6107
3944 1 6106 6108
3945 1 6109 6110
3946 1 6109 6111
3947 1 6112 6113
3948 1 6112 6114
3949 1 6115 6116
3950 1 6115 6117
3951 1 6118 6119
3952 1 6118 6120
3953 1 6121 6122
3954 1 6121 6123
3955 1 6124 6125
3956 1 6124 6126
3957 1 6127 6128
3958 1 6127 6129
3959 1 6130 6131
3960 1 6130 6132
3961 1 6133 6134
3962 1 6133 6135
3963 1 6136 6137
3964 1 6136 6138
3965 1 6139 6140
3966 1 6139 6141
3967 1 6142 6143
3968 1 6142 6144
3969 1 6145 6146
3970 1 6145 6147
3971 1 6148 6149
3972 1 6148 6150
3973 1 6151 6152
3974 1 6151 6153
3975 1 6154 6155
3976 1 6154 6156
3977 1 6157 6158
3978 1 6157 6159
3979 1 6160 6161
3980 1 6160 6162
3981 1 6163 6164
3982 1 6163 6165
3983 1 6166 6167
3984 1 6166 6168
3985 1 6169 6170
3986 1 6169 6171
3987 1 6172 6173
3988 1 6172 6174
3989 1 6175 6176
3990 1 6175 6177
3991 1 6178 6179
3992 1 6178 6180
3993 1 6181 6182
3994 1 6181 6183
3995 1 6184 6185
3996 1 6184 6186
3997 1 6187 6188
3998 1 6187 6189
3999 1 6190 6191
4000 1 6190 6192
4001 1 6193 6194
4002 1 6193 6195
4003 1 6196 6197
4004 1 6196 6198
4005 1 6199 6200
4006 1 6199 6201
4007 1 6202 6203
4008 1 6202 6204
4009 1 6205 6206
4010 1 6205 6207
4011 1 6208 6209
4012 1 6208 6210
4013 1 6211 6212
4014 1 6211 6213
4015 1 6214 6215
4016 1 6214 6216
4017 1 6217 6218
4018 1 6217 6219
4019 1 6220 6221
4020 1 6220 6222
4021 1 6223 6224
4022 1 6223 6225
4023 1 6226 6227
4024 1 6226 6228
4025 1 6229 6230
4026 1 6229 6231
4027 1 6232 6233
4028 1 6232 6234
4029 1 6235 6236
4030 1 6235 6237
4031 1 6238 6239
4032 1 6238 6240
4033 1 6241 6242
4034 1 6241 6243
4035 1 6244 6245
4036 1 6244 6246
4037 1 6247 6248
4038 1 6247 6249
4039 1 6250 6251
4040 1 6250 6252
4041 1 6253 6254
4042 1 6253 6255
4043 1 6256 6257
4044 1 6256 6258
4045 1 6259 6260
4046 1 6259 6261
4047 1 6262 6263
4048 1 6262 6264
4049 1 6265 6266
4050 1 6265 6267
4051 1 6268 6269
4052 1 6268 6270
4053 1 6271 6272
4054 1 6271 6273
4055 1 6274 6275
4056 1 6274 6276
4057 1 6277 6278
4058 1 6277 6279
4059 1 6280 6281
4060 1 6280 6282
4061 1 6283 6284
4062 1 6283 6285
4063 1 6286 6287
4064 1 6286 6288
4065 1 6289 6290
4066 1 6289 6291
4067 1 6292 6293
4068 1 6292 6294
4069 1 6295 6296
4070 1 6295 6297
4071 1 6298 6299
4072 1 6298 6300
4073 1 6301 6302
4074 1 6301 6303
4075 1 6304 6305
4076 1 6304 6306
4077 1 6307 6308
4078 1 6307 6309
4079 1 6310 6311
4080 1 6310 6312
4081 1 6313 6314
4082 1 6313 6315
4083 1 6316 6317
4084 1 6316 6318
4085 1 6319 6320
4086 1 6319 6321
4087 1 6322 6323
4088 1 6322 6324
4089 1 6325 6326
4090 1 6325 6327
4091 1 6328 6329
4092 1 6328 6330
4093 1 6331 6332
4094 1 6331 6333
4095 1 6334 6335
4096 1 6334 6336
4097 1 6337 6338
4098 1 6337 6339
4099 1 6340 6341
4100 1 6340 6342
4101 1 6343 6344
4102 1 6343 6345
4103 1 6346 6347
4104 1 6346 6348
4105 1 6349 6350
4106 1 6349 6351
4107 1 6352 6353
4108 1 6352 6354
4109 1 6355 6356
4110 1 6355 6357
4111 1 6358 6359
4112 1 6358 6360
4113 1 6361 6362
4114 1 6361 6363
4115 1 6364 6365
4116 1 6364 6366
4117 1 6367 6368
4118 1 6367 6369
4119 1 6370 6371
4120 1 6370 6372
4121 1 6373 6374
4122 1 6373 6375
4123 1 6376 6377
4124 1 6376 6378
4125 1 6379 6380
4126 1 6379 6381
4127 1 6382 6383
4128 1 6382 6384
4129 1 6385 6386
4130 1 6385 6387
4131 1 6388 6389
4132 1 6388 6390
4133 1 6391 6392
4134 1 6391 6393
4135 1 6394 6395
4136 1 6394 6396
4137 1 6397 6398
4138 1 6397 6399
4139 1 6400 6401
4140 1 6400 6402
4141 1 6403 6404
4142 1 6403 6405
4143 1 6406 6407
4144 1 6406 6408
4145 1 6409 6410
4146 1 6409 6411
4147 1 6412 6413
4148 1 6412 6414
4149 1 6415 6416
4150 1 6415 6417
4151 1 6418 6419
4152 1 6418 6420
4153 1 6421 6422
4154 1 6421 6423
4155 1 6424 6425
4156 1 6424 6426
4157 1 6427 6428
4158 1 6427 6429
4159 1 6430 6431
4160 1 6430 6432
4161 1 6433 6434
4162 1 6433 6435
4163 1 6436 6437
4164 1 6436 6438
4165 1 6439 6440
4166 1 6439 6441
4167 1 6442 6443
4168 1 6442 6444
4169 1 6445 6446
4170 1 6445 6447
4171 1 6448 6449
4172 1 6448 6450
4173 1 6451 6452
4174 1 6451 6453
4175 1 6454 6455
4176 1 6454 6456
4177 1 6457 6458
4178 1 6457 6459
4179 1 6460 6461
4180 1 6460 6462
4181 1 6463 6464
4182 1 6463 6465
4183 1 6466 6467
4184 1 6466 6468
4185 1 6469 6470
4186 1 6469 6471
4187 1 6472 6473
4188 1 6472 6474
4189 1 6475 6476
4190 1 6475 6477
4191 1 6478 6479
4192 1 6478 6480
4193 1 6481 6482
4194 1 6481 6483
4195 1 6484 6485
4196 1 6484 6486
4197 1 6487 6488
4198 1 6487 6489
4199 1 6490 6491
4200 1 6490 6492
4201 1 6493 6494
4202 1 6493 6495
4203 1 6496 6497
4204 1 6496 6498
4205 1 6499 6500
4206 1 6499 6501
4207 1 6502 6503
4208 1 6502 6504
4209 1 6505 6506
4210 1 6505 6507
4211 1 6508 6509
4212 1 6508 6510
4213 1 6511 6512
4214 1 6511 6513
4215 1 6514 6515
4216 1 6514 6516
4217 1 6517 6518
4218 1 6517 6519
4219 1 6520 6521
4220 1 6520 6522
4221 1 6523 6524
4222 1 6523 6525
4223 1 6526 6527
4224 1 6526 6528
4225 1 6529 6530
4226 1 6529 6531
4227 1 6532 6533
4228 1 6532 6534
4229 1 6535 6536
4230 1 6535 6537
4231 1 6538 6539
4232 1 6538 6540
4233 1 6541 6542
4234 1 6541 6543
4235 1 6544 6545
4236 1 6544 6546
4237 1 6547 6548
4238 1 6547 6549
4239 1 6550 6551
4240 1 6550 6552
4241 1 6553 6554
4242 1 6553 6555
4243 1 6556 6557
4244 1 6556 6558
4245 1 6559 6560
4246 1 6559 6561
4247 1 6562 6563
4248 1 6562 6564
4249 1 6565 6566
4250 1 6565 6567
4251 1 6568 6569
4252 1 6568 6570
4253 1 6571 6572
4254 1 6571 6573
4255 1 6574 6575
4256 1 6574 6576
4257 1 6577 6578
4258 1 6577 6579
4259 1 6580 6581
4260 1 6580 6582
4261 1 6583 6584
4262 1 6583 6585
4263 1 6586 6587
4264 1 6586 6588
4265 1 6589 6590
4266 1 6589 6591
4267 1 6592 6593
4268 1 6592 6594
4269 1 6595 6596
4270 1 6595 6597
4271 1 6598 6599
4272 1 6598 6600
4273 1 6601 6602
4274 1 6601 6603
4275 1 6604 6605
4276 1 6604 6606
4277 1 6607 6608
4278 1 6607 6609
4279 1 6610 6611
4280 1 6610 6612
4281 1 6613 6614
4282 1 6613 6615
4283 1 6616 6617
4284 1 6616 6618
4285 1 6619 6620
4286 1 6619 6621
4287 1 6622 6623
4288 1 6622 6624
4289 1 6625 6626
4290 1 6625 6627
4291 1 6628 6629
4292 1 6628 6630
4293 1 6631 6632
4294 1 6631 6633
4295 1 6634 6635
4296 1 6634 6636
4297 1 6637 6638
4298 1 6637 6639
4299 1 6640 6641
4300 1 6640 6642
4301 1 6643 6644
4302 1 6643 6645
4303 1 6646 6647
4304 1 6646 6648
4305 1 6649 6650
4306 1 6649 6651
4307 1 6652 6653
4308 1 6652 6654
4309 1 6655 6656
4310 1 6655 6657
4311 1 6658 6659
4312 1 6658 6660
4313 1 6661 6662
4314 1 6661 6663
4315 1 6664 6665
4316 1 6664 6666
4317 1 6667 6668
4318 1 6667 6669
4319 1 6670 6671
4320 1 6670 6672
4321 1 6673 6674
4322 1 6673 6675
4323 1 6676 6677
4324 1 6676 6678
4325 1 6679 6680
4326 1 6679 6681
4327 1 6682 6683
4328 1 6682 6684
4329 1 6685 6686
4330 1 6685 6687
4331 1 6688 6689
4332 1 6688 6690
4333 1 6691 6692
4334 1 6691 6693
4335 1 6694 6695
4336 1 6694 6696
4337 1 6697 6698
4338 1 6697 6699
4339 1 6700 6701
4340 1 6700 6702
4341 1 6703 6704
4342 1 6703 6705
4343 1 6706 6707
4344 1 6706 6708
4345 1 6709 6710
4346 1 6709 6711
4347 1 6712 6713
4348 1 6712 6714
4349 1 6715 6716
4350 1 6715 6717
4351 1 6718 6719
4352 1 6718 6720
4353 1 6721 6722
4354 1 6721 6723
4355 1 6724 6725
4356 1 6724 6726
4357 1 6727 6728
4358 1 6727 6729
4359 1 6730 6731
4360 1 6730 6732
4361 1 6733 6734
4362 1 6733 6735
4363 1 6736 6737
4364 1 6736 6738
4365 1 6739 6740
4366 1 6739 6741
4367 1 6742 6743
4368 1 6742 6744
4369 1 6745 6746
4370 1 6745 6747
4371 1 6748 6749
4372 1 6748 6750
4373 1 6751 6752
4374 1 6751 6753
4375 1 6754 6755
4376 1 6754 6756
4377 1 6757 6758
4378 1 6757 6759
4379 1 6760 6761
4380 1 6760 6762
4381 1 6763 6764
4382 1 6763 6765
4383 1 6766 6767
4384 1 6766 6768
4385 1 6769 6770
4386 1 6769 6771
4387 1 6772 6773
4388 1 6772 6774
4389 1 6775 6776
4390 1 6775 6777
4391 1 6778 6779
4392 1 6778 6780
4393 1 6781 6782
4394 1 6781 6783
4395 1 6784 6785
4396 1 6784 6786
4397 1 6787 6788
4398 1 6787 6789
4399 1 6790 6791
4400 1 6790 6792
4401 1 6793 6794
4402 1 6793 6795
4403 1 6796 6797
4404 1 6796 6798
4405 1 6799 6800
4406 1 6799 6801
4407 1 6802 6803
4408 1 6802 6804
4409 1 6805 6806
4410 1 6805 6807
4411 1 6808 6809
4412 1 6808 6810
4413 1 6811 6812
4414 1 6811 6813
4415 1 6814 6815
4416 1 6814 6816
4417 1 6817 6818
4418 1 6817 6819
4419 1 6820 6821
4420 1 6820 6822
4421 1 6823 6824
4422 1 6823 6825
4423 1 6826 6827
4424 1 6826 6828
4425 1 6829 6830
4426 1 6829 6831
4427 1 6832 6833
4428 1 6832 6834
4429 1 6835 6836
4430 1 6835 6837
4431 1 6838 6839
4432 1 6838 6840
4433 1 6841 6842
4434 1 6841 6843
4435 1 6844 6845
4436 1 6844 6846
4437 1 6847 6848
4438 1 6847 6849
4439 1 6850 6851
4440 1 6850 6852
4441 1 6853 6854
4442 1 6853 6855
4443 1 6856 6857
4444 1 6856 6858
4445 1 6859 6860
4446 1 6859 6861
4447 1 6862 6863
4448 1 6862 6864
4449 1 6865 6866
4450 1 6865 6867
4451 1 6868 6869
4452 1 6868 6870
4453 1 6871 6872
4454 1 6871 6873
4455 1 6874 6875
4456 1 6874 6876
4457 1 6877 6878
4458 1 6877 6879
4459 1 6880 6881
4460 1 6880 6882
4461 1 6883 6884
4462 1 6883 6885
4463 1 6886 6887
4464 1 6886 6888
4465 1 6889 6890
4466 1 6889 6891
4467 1 6892 6893
4468 1 6892 6894
4469 1 6895 6896
4470 1 6895 6897
4471 1 6898 6899
4472 1 6898 6900
4473 1 6901 6902
4474 1 6901 6903
4475 1 6904 6905
4476 1 6904 6906
4477 1 6907 6908
4478 1 6907 6909
4479 1 6910 6911
4480 1 6910 6912
4481 1 6913 6914
4482 1 6913 6915
4483 1 6916 6917
4484 1 6916 6918
4485 1 6919 6920
4486 1 6919 6921
4487 1 6922 6923
4488 1 6922 6924
4489 1 6925 6926
4490 1 6925 6927
4491 1 6928 6929
4492 1 6928 6930
4493 1 6931 6932
4494 1 6931 6933
4495 1 6934 6935
4496 1 6934 6936
4497 1 6937 6938
4498 1 6937 6939
4499 1 6940 6941
4500 1 6940 6942
4501 1 6943 6944
4502 1 6943 6945
4503 1 6946 6947
4504 1 6946 6948
4505 1 6949 6950
4506 1 6949 6951
4507 1 6952 6953
4508 1 6952 6954
4509 2 7200 7201
4510 3 7201 7202
4511 4 7200 7203
4512 5 7200 7204
4513 6 7200 7205
4514 7 7201 7206
4515 8 7201 7207
4516 9 7202 7208
4517 10 7203 7209
4518 2 7210 7211
4519 3 7211 7212
4520 4 7210 7213
4521 5 7210 7214
4522 6 7210 7215
4523 7 7211 7216
4524 8 7211 7217
4525 9 7212 7218
4526 10 7213 7219
4527 2 7220 7221
4528 3 7221 7222
4529 4 7220 7223
4530 5 7220 7224
4531 6 7220 7225
4532 7 7221 7226
4533 8 7221 7227
4534 9 7222 7228
4535 10 7223 7229
4536 2 7230 7231
4537 3 7231 7232
4538 4 7230 7233
4539 5 7230 7234
4540 6 7230 7235
4541 7 7231 7236
4542 8 7231 7237
4543 9 7232 7238
4544 10 7233 7239
4545 2 7240 7241
4546 3 7241 7242
4547 4 7240 7243
4548 5 7240 7244
4549 6 7240 7245
4550 7 7241 7246
4551 8 7241 7247
4552 9 7242 7248
4553 10 7243 7249
4554 2 7250 7251
4555 3 7251 7252
4556 4 7250 7253
4557 5 7250 7254
4558 6 7250 7255
4559 7 7251 7256
4560 8 7251 7257
4561 9 7252 7258
4562 10 7253 7259
4563 2 7260 7261
4564 3 7261 7262
4565 4 7260 7263
4566 5 7260 7264
4567 6 7260 7265
4568 7 7261 7266
4569 8 7261 7267
4570 9 7262 7268
4571 10 7263 7269
4572 2 7270 7271
4573 3 7271 7272
4574 4 7270 7273
4575 5 7270 7274
4576 6 7270 7275
4577 7 7271 7276
4578 8 7271 7277
4579 9 7272 7278
4580 10 7273 7279
4581 2 7280 7281
4582 3 7281 7282
4583 4 7280 7283
4584 5 7280 7284
4585 6 7280 7285
4586 7 7281 7286
4587 8 7281 7287
4588 9 7282 7288
4589 10 7283 7289
4590 2 7290 7291
4591 3 7291 7292
4592 4 7290 7293
4593 5 7290 7294
4594 6 7290 7295
4595 7 7291 7296
4596 8 7291 7297
4597 9 7292 7298
4598 10 7293 7299
4599 2 7300 7301
4600 3 7301 7302
4601 4 7300 7303
4602 5 7300 7304
4603 6 7300 7305
4604 7 7301 7306
4605 8 7301 7307
4606 9 7302 7308
4607 10 7303 7309
4608 2 7310 7311
4609 3 7311 7312
4610 4 7310 7313
4611 5 7310 7314
4612 6 7310 7315
4613 7 7311 7316
4614 8 7311 7317
4615 9 7312 7318
4616 10 7313 7319
4617 2 7320 7321
4618 3 7321 7322
4619 4 7320 7323
4620 5 7320 7324
4621 6 7320 7325
4622 7 7321 7326
4623 8 7321 7327
4624 9 7322 7328
4625 10 7323 7329
4626 2 7330 7331
4627 3 7331 7332
4628 4 7330 7333
4629 5 7330 7334
4630 6 7330 7335
4631 7 7331 7336
4632 8 7331 7337
4633 9 7332 7338
4634 10 7333 7339
4635 2 7340 7341
4636 3 7341 7342
4637 4 7340 7343
4638 5 7340 7344
4639 6 7340 7345
4640 7 7341 7346
4641 8 7341 7347
4642 9 7342 7348
4643 10 7343 7349
4644 2 7350 7351
4645 3 7351 7352
4646 4 7350 7353
4647 5 7350 7354
4648 6 7350 7355
4649 7 7351 7356
4650 8 7351 7357
4651 9 7352 7358
4652 10 7353 7359
4653 2 7360 7361
4654 3 7361 7362
4655 4 7360 7363
4656 5 7360 7364
4657 6 7360 7365
4658 7 7361 7366
4659 8 7361 7367
4660 9 7362 7368
4661 10 7363 7369
4662 2 7370 7371
4663 3 7371 7372
4664 4 7370 7373
4665 5 7370 7374
4666 6 7370 7375
4667 7 7371 7376
4668 8 7371 7377
4669 9 7372 7378
4670 10 7373 7379
4671 2 7380 7381
4672 3 7381 7382
4673 4 7380 7383
4674 5 7380 7384
4675 6 7380 7385
4676 7 7381 7386
4677 8 7381 7387
4678 9 7382 7388
4679 10 7383 7389
4680 2 7390 7391
4681 3 7391 7392
4682 4 7390 7393
4683 5 7390 7394
4684 6 7390 7395
4685 7 7391 7396
4686 8 7391 7397
4687 9 7392 7398
4688 10 7393 7399
4689 2 7400 7401
4690 3 7401 7402
4691 4 7400 7403
4692 5 7400 7404
4693 6 7400 7405
4694 7 7401 7406
4695 8 7401 7407
4696 9 7402 7408
4697 10 7403 7409
4698 2 7410 7411
4699 3 7411 7412
4700 4 7410 7413
4701 5 7410 7414
4702 6 7410 7415
4703 7 7411 7416
4704 8 7411 7417
4705 9 7412 7418
4706 10 7413 7419
4707 2 7420 7421
4708 3 7421 7422
4709 4 7420 7423
4710 5 7420 7424
4711 6 7420 7425
4712 7 7421 7426
4713 8 7421 7427
4714 9 7422 7428
4715 10 7423 7429
4716 2 7430 7431
4717 3 7431 7432
4718 4 7430 7433
4719 5 7430 7434
4720 6 7430 7435
4721 7 7431 7436
4722 8 7431 7437
4723 9 7432 7438
4724 10 7433 7439
4725 2 7440 7441
4726 3 7441 7442
4727 4 7440 7443
4728 5 7440 7444
4729 6 7440 7445
4730 7 7441 7446
4731 8 7441 7447
4732 9 7442 7448
4733 10 7443 7449
4734 2 7450 7451
4735 3 7451 7452
4736 4 7450 7453
4737 5 7450 7454
4738 6 7450 7455
4739 7 7451 7456
4740 8 7451 7457
4741 9 7452 7458
4742 10 7453 7459
4743 2 7460 7461
4744 3 7461 7462
4745 4 7460 7463
4746 5 7460 7464
4747 6 7460 7465
4748 7 7461 7466
4749 8 7461 7467
4750 9 7462 7468
4751 10 7463 7469
4752 2 7470 7471
4753 3 7471 7472
4754 4 7470 7473
4755 5 7470 7474
4756 6 7470 7475
4757 7 7471 7476
4758 8 7471 7477
4759 9 7472 7478
4760 10 7473 7479
4761 2 7480 7481
4762 3 7481 7482
4763 4 7480 7483
4764 5 7480 7484
4765 6 7480 7485
4766 7 7481 7486
4767 8 7481 7487
4768 9 7482 7488
4769 10 7483 7489
4770 2 7490 7491
4771 3 7491 7492
4772 4 7490 7493
4773 5 7490 7494
4774 6 7490 7495
4775 7 7491 7496
4776 8 7491 7497
4777 9 7492 7498
4778 10 7493 7499
4779 2 7500 7501
4780 3 7501 7502
4781 4 7500 7503
4782 5 7500 7504
4783 6 7500 7505
4784 7 7501 7506
4785 8 7501 7507
4786 9 7502 7508
4787 10 7503 7509
4788 2 7510 7511
4789 3 7511 7512
4790 4 7510 7513
4791 5 7510 7514
4792 6 7510 7515
4793 7 7511 7516
4794 8 7511 7517
4795 9 7512 7518
4796 10 7513 7519
4797 2 7520 7521
4798 3 7521 7522
4799 4 7520 7523
4800 5 7520 7524
4801 6 7520 7525
4802 7 7521 7526
4803 8 7521 7527
4804 9 7522 7528
4805 10 7523 7529
4806 2 7530 7531
4807 3 7531 7532
4808 4 7530 7533
4809 5 7530 7534
4810 6 7530 7535
4811 7 7531 7536
4812 8 7531 7537
4813 9 7532 7538
4814 10 7533 7539
4815 2 7540 7541
4816 3 7541 7542
4817 4 7540 7543
4818 5 7540 7544
4819 6 7540 7545
4820 7 7541 7546
4821 8 7541 7547
4822 9 7542 7548
4823 10 7543 7549
4824 2 7550 7551
4825 3 7551 7552
4826 4 7550 7553
4827 5 7550 7554
4828 6 7550 7555
4829 7 7551 7556
4830 8 7551 7557
4831 9 7552 7558
4832 10 7553 7559
4833 2 7560 7561
4834 3 7561 7562
4835 4 7560 7563
4836 5 7560 7564
4837 6 7560 7565
4838 7 7561 7566
4839 8 7561 7567
4840 9 7562 7568
4841 10 7563 7569
4842 2 7570 7571
4843 3 7571 7572
4844 4 7570 7573
4845 5 7570 7574
4846 6 7570 7575
4847 7 7571 7576
4848 8 7571 7577
4849 9 7572 7578
4850 10 7573 7579
4851 2 7580 7581
4852 3 7581 7582
4853 4 7580 7583
4854 5 7580 7584
4855 6 7580 7585
4856 7 7581 7586
4857 8 7581 7587
4858 9 7582 7588
4859 10 7583 7589
4860 2 7590 7591
4861 3 7591 7592
4862 4 7590 7593
4863 5 7590 7594
4864 6 7590 7595
4865 7 7591 7596
4866 8 7591 7597
4867 9 7592 7598
4868 10 7593 7599
4869 2 7600 7601
4870 3 7601 7602
4871 4 7600 7603
4872 5 7600 7604
4873 6 7600 7605
4874 7 7601 7606
4875 8 7601 7607
4876 9 7602 7608
4877 10 7603 7609
4878 2 7610 7611
4879 3 7611 7612
4880 4 7610 7613
4881 5 7610 7614
4882 6 7610 7615
4883 7 7611 7616
4884 8 7611 7617
4885 9 7612 7618
4886 10 7613 7619
4887 2 7620 7621
4888 3 7621 7622
4889 4 7620 7623
4890 5 7620 7624
4891 6 7620 7625
4892 7 7621 7626
4893 8 7621 7627
4894 9 7622 7628
4895 10 7623 7629
4896 2 7630 7631
4897 3 7631 7632
4898 4 7630 7633
4899 5 7630 7634
4900 6 7630 7635
4901 7 7631 7636
4902 8 7631 7637
4903 9 7632 7638
4904 10 7633 7639
4905 2 7640 7641
4906 3 7641 7642
4907 4 7640 7643
4908 5 7640 7644
4909 6 7640 7645
4910 7 7641 7646
4911 8 7641 7647
4912 9 7642 7648
4913 10 7643 7649
4914 2 7650 7651
4915 3 7651 7652
4916 4 7650 7653
4917 5 7650 7654
4918 6 7650 7655
4919 7 7651 7656
4920 8 7651 7657
4921 9 7652 7658
4922 10 7653 7659
4923 2 7660 7661
4924 3 7661 7662
4925 4 7660 7663
4926 5 7660 7664
4927 6 7660 7665
4928 7 7661 7666
4929 8 7661 7667
4930 9 7662 7668
4931 10 7663 7669
4932 2 7670 7671
4933 3 7671 7672
4934 4 7670 7673
4935 5 7670 7674
4936 6 7670 7675
4937 7 7671 7676
4938 8 7671 7677
4939 9 7672 7678
4940 10 7673 7679
4941 2 7680 7681
4942 3 7681 7682
4943 4 7680 7683
4944 5 7680 7684
4945 6 7680 7685
4946 7 7681 7686
4947 8 7681 7687
4948 9 7682 7688
4949 10 7683 7689
4950 2 7690 7691
4951 3 7691 7692
4952 4 7690 7693
4953 5 7690 7694
4954 6 7690 7695
4955 7 7691 7696
4956 8 7691 7697
4957 9 7692 7698
4958 10 7693 7699
4959 2 7700 7701
4960 3 7701 7702
4961 4 7700 7703
4962 5 7700 7704
4963 6 7700 7705
4964 7 7701 7706
4965 8 7701 7707
4966 9 7702 7708
4967 10 7703 7709
4968 2 7710 7711
4969 3 7711 7712
4970 4 7710 7713
4971 5 7710 7714
4972 6 7710 7715
4973 7 7711 7716
4974 8 7711 7717
4975 9 7712 7718
4976 10 7713 7719
4977 2 7720 7721
4978 3 7721 7722
4979 4 7720 7723
4980 5 7720 7724
4981 6 7720 7725
4982 7 7721 7726
4983 8 7721 7727
4984 9 7722 7728
4985 10 7723 7729
4986 2 7730 7731
4987 3 7731 7732
4988 4 7730 7733
4989 5 7730 7734
4990 6 7730 7735
4991 7 7731 7736
4992 8 7731 7737
4993 9 7732 7738
4994 10 7733 7739
4995 2 7740 7741
4996 3 7741 7742
4997 4 7740 7743
4998 5 7740 7744
4999 6 7740 7745
5000 7 7741 7746
5001 8 7741 7747
5002 9 7742 7748
5003 10 7743 7749
5004 11 7750 7751
5005 12 7751 7752
5006 13 7752 7753
5007 14 7753 7754
5008 15 7754 7755
5009 16 7752 7756
5010 17 7755 7757
5011 18 7750 7758
5012 19 7750 7759
5013 20 7750 7760
5014 21 7751 7761
5015 22 7751 7762
5016 23 7753 7763
5017 24 7754 7764
5018 25 7756 7765
5019 26 7757 7766
5020 27 7757 7767
5021 28 7757 7768
5022 29 7755 7756

Angles

1 1 2 1 3
2 1 5 4 6
4 1 8 7 9
6 1 11 10 12
8 1 14 13 15
10 1 17 16 18
12 1 20 19 21
14 1 23 22 24
16 1 26 25 27
18 1 29 28 30
19 1 32 31 33
3 1 35 34 36
5 1 38 37 39
7 1 41 40 42
9 1 44 43 45
11 1 47 46 48
13 1 50 49 51
15 1 53 52 54
17 1 56 55 57
20 1 59 58 60
21 1 62 61 63
22 1 65 64 66
23 1 68 67 69
24 1 71 70 72
25 1 74 73 75
26 1 77 76 78
27 1 80 79 81
28 1 83 82 84
29 1 86 85 87
30 1 89 88 90
31 1 92 91 93
32 1 95 94 96
33 1 98 97 99
34 1 101 100 102
35 1 104 103 105
36 1 107 106 108
37 1 110 109 111
38 1 113 112 114
39 1 116 115 117
40 1 119 118 120
41 1 122 121 123
42 1 125 124 126
43 1 128 127 129
44 1 131 130 132
45 1 134 133 135
46 1 137 136 138
47 1 148 147 149
48 1 151 150 152
50 1 154 153 155
52 1 157 156 158
54 1 160 159 161
56 1 163 162 164
58 1 166 165 167
60 1 169 168 170
62 1 172 171 173
64 1 175 174 176
65 1 178 177 179
49 1 181 180 182
51 1 184 183 185
53 1 187 186 188
55 1 190 189 191
57 1 193 192 194
59 1 196 195 197
61 1 199 198 200
63 1 202 201 203
66 1 205 204 206
67 1 208 207 209
68 1 211 210 212
69 1 214 213 215
70 1 217 216 218
71 1 220 219 221
72 1 223 222 224
73 1 226 225 227
74 1 229 228 230
75 1 232 231 233
76 1 235 234 236
77 1 238 237 239
78 1 241 240 242
79 1 244 243 245
80 1 247 246 248
81 1 250 249 251
82 1 253 252 254
83 1 256 255 257
84 1 259 258 260
85 1 262 261 263
86 1 265 264 266
87 1 268 267 269
88 1 271 270 272
89 1 274 273 275
90 1 277 276 278
91 1 280 279 281
92 1 283 282 284
93 1 294 293 295
94 1 297 296 298
96 1 300 299 301
98 1 303 302 304
100 1 306 305 307
102 1 309 308 310
104 1 312 311 313
106 1 315 314 316
108 1 318 317 319
110 1 321 320 322
111 1 324 323 325
95 1 327 326 328
97 1 330 329 331
99 1 333 332 334
101 1 336 335 337
103 1 339 338 340
105 1 342 341 343
107 1 345 344 346
109 1 348 347 349
112 1 351 350 352
113 1 354 353 355
114 1 357 356 358
115 1 360 359 361
116 1 363 362 364
117 1 366 365 367
118 1 369 368 370
119 1 372 371 373
120 1 375 374 376
121 1 378 377 379
122 1 381 380 382
123 1 384 383 385
124 1 387 386 388
125 1 390 389 391
126 1 393 392 394
127 1 396 395 397
128 1 399 398 400
129 1 402 401 403
130 1 405 404 406
131 1 408 407 409
132 1 411 410 412
133 1 414 413 415
134 1 417 416 418
135 1 420 419 421
136 1 423 422 424
137 1 426 425 427
138 1 429 428 430
139 1 440 439 441
140 1 443 442 444
142 1 446 445 447
144 1 449 448 450
146 1 452 451 453
148 1 455 454 456
150 1 458 457 459
152 1 461 460 462
154 1 464 463 465
156 1 467 466 468
157 1 470 469 471
141 1 473 472 474
143 1 476 475 477
145 1 479 478 480
147 1 482 481 483
149 1 485 484 486
151 1 488 487 489
153 1 491 490 492
155 1 494 493 495
158 1 497 496 498
159 1 500 499 501
160 1 503 502 504
161 1 506 505 507
162 1 509 508 510
163 1 512 511 513
164 1 515 514 516
165 1 518 517 519
166 1 521 520 522
167 1 524 523 525
168 1 527 526 528
169 1 530 529 531
170 1 533 532 534
171 1 536 535 537
172 1 539 538 540
173 1 542 541 543
174 1 545 544 546
175 1 548 547 549
176 1 551 550 552
177 1 554 553 555
178 1 557 556 558
179 1 560 559 561
180 1 563 562 564
181 1 566 565 567
182 1 569 568 570
183 1 572 571 573
184 1 575 574 576
185 1 586 585 587
186 1 589 588 590
188 1 592 591 593
190 1 595 594 596
192 1 598 597 599
194 1 601 600 602
196 1 604 603 605
198 1 607 606 608
200 1 610 609 611
202 1 613 612 614
203 1 616 615 617
187 1 619 618 620
189 1 622 621 623
191 1 625 624 626
193 1 628 627 629
195 1 631 630 632
197 1 634 633 635
199 1 637 636 638
201 1 640 639 641
204 1 643 642 644
205 1 646 645 647
206 1 649 648 650
207 1 652 651 653
208 1 655 654 656
209 1 658 657 659
210 1 661 660 662
211 1 664 663 665
212 1 667 666 668
213 1 670 669 671
214 1 673 672 674
215 1 676 675 677
216 1 679 678 680
217 1 682 681 683
218 1 685 684 686
219 1 688 687 689
220 1 691 690 692
221 1 694 693 695
222 1 697 696 698
223 1 700 699 701
224 1 703 702 704
225 1 706 705 707
226 1 709 708 710
227 1 712 711 713
228 1 715 714 716
229 1 718 717 719
230 1 721 720 722
231 1 732 731 733
232 1 735 734 736
234 1 738 737 739
236 1 741 740 742
238 1 744 743 745
240 1 747 746 748
242 1 750 749 751
244 1 753 752 754
246 1 756 755 757
248 1 759 758 760
249 1 762 761 763
233 1 765 764 766
235 1 768 767 769
237 1 771 770 772
239 1 774 773 775
241 1 777 776 778
243 1 780 779 781
245 1 783 782 784
247 1 786 785 787
250 1 789 788 790
251 1 792 791 793
252 1 795 794 796
253 1 798 797 799
254 1 801 800 802
255 1 804 803 805
256 1 807 806 808
257 1 810 809 811
258 1 813 812 814
259 1 816 815 817
260 1 819 818 820
261 1 822 821 823
262 1 825 824 826
263 1 828 827 829
264 1 831 830 832
265 1 834 833 835
266 1 837 836 838
267 1 840 839 841
268 1 843 842 844
269 1 846 845 847
270 1 849 848 850
271 1 852 851 853
272 1 855 854 856
273 1 858 857 859
274 1 861 860 862
275 1 864 863 865
276 1 867 866 868
277 1 878 877 879
278 1 881 880 882
280 1 884 883 885
282 1 887 886 888
284 1 890 889 891
286 1 893 892 894
288 1 896 895 897
290 1 899 898 900
292 1 902 901 903
294 1 905 904 906
295 1 908 907 909
279 1 911 910 912
281 1 914 913 915
283 1 917 916 918
285 1 920 919 921
287 1 923 922 924
289 1 926 925 927
291 1 929 928 930
293 1 932 931 933
296 1 935 934 936
297 1 938 937 939
298 1 941 940 942
299 1 944 943 945
300 1 947 946 948
301 1 950 949 951
302 1 953 952 954
303 1 956 955 957
304 1 959 958 960
305 1 962 961 963
306 1 965 964 966
307 1 968 967 969
308 1 971 970 972
309 1 974 973 975
310 1 977 976 978
311 1 980 979 981
312 1 983 982 984
313 1 986 985 987
314 1 989 988 990
315 1 992 991 993
316 1 995 994 996
317 1 998 997 999
318 1 1001 1000 1002
319 1 1004 1003 1005
320 1 1007 1006 1008
321 1 1010 1009 1011
322 1 1013 1012 1014
323 1 1024 1023 1025
324 1 1027 1026 1028
326 1 1030 1029 1031
328 1 1033 1032 1034
330 1 1036 1035 1037
332 1 1039 1038 1040
334 1 1042 1041 1043
336 1 1045 1044 1046
338 1 1048 1047 1049
340 1 1051 1050 1052
341 1 1054 1053 1055
325 1 1057 1056 1058
327 1 1060 1059 1061
329 1 1063 1062 1064
331 1 1066 1065 1067
333 1 1069 1068 1070
335 1 1072 1071 1073
337 1 1075 1074 1076
339 1 1078 1077 1079
342 1 1081 1080 1082
343 1 1084 1083 1085
344 1 1087 1086 1088
345 1 1090 1089 1091
346 1 1093 1092 1094
347 1 1096 1095 1097
348 1 1099 1098 1100
349 1 1102 1101 1103
350 1 1105 1104 1106
351 1 1108 1107 1109
352 1 1111 1110 1112
353 1 1114 1113 1115
354 1 1117 1116 1118
355 1 1120 1119 1121
356 1 1123 1122 1124
357 1 1126 1125 1127
358 1 1129 1128 1130
359 1 1132 1131 1133
360 1 1135 1134 1136
361 1 1138 1137 1139
362 1 1141 1140 1142
363 1 1144 1143 1145
364 1 1147 1146 1148
365 1 1150 1149 1151
366 1 1153 1152 1154
367 1 1156 1155 1157
368 1 1159 1158 1160
369 1 1170 1169 1171
370 1 1173 1172 1174
372 1 1176 1175 1177
374 1 1179 1178 1180
376 1 1182 1181 1183
378 1 1185 1184 1186
380 1 1188 1187 1189
382 1 1191 1190 1192
384 1 1194 1193 1195
386 1 1197 1196 1198
387 1 1200 1199 1201
371 1 1203 1202 1204
373 1 1206 1205 1207
375 1 1209 1208 1210
377 1 1212 1211 1213
379 1 1215 1214 1216
381 1 1218 1217 1219
383 1 1221 1220 1222
385 1 1224 1223 1225
388 1 1227 1226 1228
389 1 1230 1229 1231
390 1 1233 1232 1234
391 1 1236 1235 1237
392 1 1239 1238 1240
393 1 1242 1241 1243
394 1 1245 1244 1246
395 1 1248 1247 1249
396 1 1251 1250 1252
397 1 1254 1253 1255
398 1 1257 1256 1258
399 1 1260 1259 1261
400 1 1263 1262 1264
401 1 1266 1265 1267
402 1 1269 1268 1270
403 1 1272 1271 1273
404 1 1275 1274 1276
405 1 1278 1277 1279
406 1 1281 1280 1282
407 1 1284 1283 1285
408 1 1287 1286 1288
409 1 1290 1289 1291
410 1 1293 1292 1294
411 1 1296 1295 1297
412 1 1299 1298 1300
413 1 1302 1301 1303
414 1 1305 1304 1306
415 1 1316 1315 1317
416 1 1319 1318 1320
418 1 1322 1321 1323
420 1 1325 1324 1326
422 1 1328 1327 1329
424 1 1331 1330 1332
426 1 1334 1333 1335
428 1 1337 1336 1338
430 1 1340 1339 1341
432 1 1343 1342 1344
433 1 1346 1345 1347
417 1 1349 1348 1350
419 1 1352 1351 1353
421 1 1355 1354 1356
423 1 1358 1357 1359
425 1 1361 1360 1362
427 1 1364 1363 1365
429 1 1367 1366 1368
431 1 1370 1369 1371
434 1 1373 1372 1374
435 1 1376 1375 1377
436 1 1379 1378 1380
437 1 1382 1381 1383
438 1 1385 1384 1386
439 1 1388 1387 1389
440 1 1391 1390 1392
441 1 1394 1393 1395
442 1 1397 1396 1398
443 1 1400 1399 1401
444 1 1403 1402 1404
445 1 1406 1405 1407
446 1 1409 1408 1410
447 1 1412 1411 1413
448 1 1415 1414 1416
449 1 1418 1417 1419
450 1 1421 1420 1422
451 1 1424 1423 1425
452 1 1427 1426 1428
453 1 1430 1429 1431
454 1 1433 1432 1434
455 1 1436 1435 1437
456 1 1439 1438 1440
457 1 1442 1441 1443
458 1 1445 1444 1446
459 1 1448 1447 1449
460 1 1451 1450 1452
461 1 1462 1461 1463
462 1 1465 1464 1466
464 1 1468 1467 1469
466 1 1471 1470 1472
468 1 1474 1473 1475
470 1 1477 1476 1478
472 1 1480 1479 1481
474 1 1483 1482 1484
476 1 1486 1485 1487
478 1 1489 1488 1490
479 1 1492 1491 1493
463 1 1495 1494 1496
465 1 1498 1497 1499
467 1 1501 1500 1502
469 1 1504 1503 1505
471 1 1507 1506 1508
473 1 1510 1509 1511
475 1 1513 1512 1514
477 1 1516 1515 1517
480 1 1519 1518 1520
481 1 1522 1521 1523
482 1 1525 1524 1526
483 1 1528 1527 1529
484 1 1531 1530 1532
485 1 1534 1533 1535
486 1 1537 1536 1538
487 1 1540 1539 1541
488 1 1543 1542 1544
489 1 1546 1545 1547
490 1 1549 1548 1550
491 1 1552 1551 1553
492 1 1555 1554 1556
493 1 1558 1557 1559
494 1 1561 1560 1562
495 1 1564 1563 1565
496 1 1567 1566 1568
497 1 1570 1569 1571
498 1 1573 1572 1574
499 1 1576 1575 1577
500 1 1579 1578 1580
501 1 1582 1581 1583
502 1 1585 1584 1586
503 1 1588 1587 1589
504 1 1591 1590 1592
505 1 1594 1593 1595
506 1 1597 1596 1598
507 1 1608 1607 1609
508 1 1611 1610 1612
510 1 1614 1613 1615
512 1 1617 1616 1618
514 1 1620 1619 1621
516 1 1623 1622 1624
518 1 1626 1625 1627
520 1 1629 1628 1630
522 1 1632 1631 1633
524 1 1635 1634 1636
525 1 1638 1637 1639
509 1 1641 1640 1642
511 1 1644 1643 1645
513 1 1647 1646 1648
515 1 1650 1649 1651
517 1 1653 1652 1654
519 1 1656 1655 1657
521 1 1659 1658 1660
523 1 1662 1661 1663
526 1 1665 1664 1666
527 1 1668 1667 1669
528 1 1671 1670 1672
529 1 1674 1673 1675
530 1 1677 1676 1678
531 1 1680 1679 1681
532 1 1683 1682 1684
533 1 1686 1685 1687
534 1 1689 1688 1690
535 1 1692 1691 1693
536 1 1695 1694 1696
537 1 1698 1697 1699
538 1 1701 1700 1702
539 1 1704 1703 1705
540 1 1707 1706 1708
541 1 1710 1709 1711
542 1 1713 1712 1714
543 1 1716 1715 1717
544 1 1719 1718 1720
545 1 1722 1721 1723
546 1 1725 1724 1726
547 1 1728 1727 1729
548 1 1731 1730 1732
549 1 1734 1733 1735
550 1 1737 1736 1738
551 1 1740 1739 1741
552 1 1743 1742 1744
553 1 1754 1753 1755
554 1 1757 1756 1758
556 1 1760 1759 1761
558 1 1763 1762 1764
560 1 1766 1765 1767
562 1 1769 1768 1770
564 1 1772 1771 1773
566 1 1775 1774 1776
568 1 1778 1777 1779
570 1 1781 1780 1782
571 1 1784 1783 1785
555 1 1787 1786 1788
557 1 1790 1789 1791
559 1 1793 1792 1794
561 1 1796 1795 1797
563 1 1799 1798 1800
565 1 1802 1801 1803
567 1 1805 1804 1806
569 1 1808 1807 1809
572 1 1811 1810 1812
573 1 1814 1813 1815
574 1 1817 1816 1818
575 1 1820 1819 1821
576 1 1823 1822 1824
577 1 1826 1825 1827
578 1 1829 1828 1830
579 1 1832 1831 1833
580 1 1835 1834 1836
581 1 1838 1837 1839
582 1 1841 1840 1842
583 1 1844 1843 1845
584 1 1847 1846 1848
585 1 1850 1849 1851
586 1 1853 1852 1854
587 1 1856 1855 1857
588 1 1859 1858 1860
589 1 1862 1861 1863
590 1 1865 1864 1866
591 1 1868 1867 1869
592 1 1871 1870 1872
593 1 1874 1873 1875
594 1 1877 1876 1878
595 1 1880 1879 1881
596 1 1883 1882 1884
597 1 1886 1885 1887
598 1 1889 1888 1890
599 1 1900 1899 1901
600 1 1903 1902 1904
602 1 1906 1905 1907
604 1 1909 1908 1910
606 1 1912 1911 1913
608 1 1915 1914 1916
610 1 1918 1917 1919
612 1 1921 1920 1922
614 1 1924 1923 1925
616 1 1927 1926 1928
617 1 1930 1929 1931
601 1 1933 1932 1934
603 1 1936 1935 1937
605 1 1939 1938 1940
607 1 1942 1941 1943
609 1 1945 1944 1946
611 1 1948 1947 1949
613 1 1951 1950 1952
615 1 1954 1953 1955
618 1 1957 1956 1958
619 1 1960 1959 1961
620 1 1963 1962 1964
621 1 1966 1965 1967
622 1 1969 1968 1970
623 1 1972 1971 1973
624 1 1975 1974 1976
625 1 1978 1977 1979
626 1 1981 1980 1982
627 1 1984 1983 1985
628 1 1987 1986 1988
629 1 1990 1989 1991
630 1 1993 1992 1994
631 1 1996 1995 1997
632 1 1999 1998 2000
633 1 2002 2001 2003
634 1 2005 2004 2006
635 1 2008 2007 2009
636 1 2011 2010 2012
637 1 2014 2013 2015
638 1 2017 2016 2018
639 1 2020 2019 2021
640 1 2023 2022 2024
641 1 2026 2025 2027
642 1 2029 2028 2030
643 1 2032 2031 2033
644 1 2035 2034 2036
645 1 2046 2045 2047
646 1 2049 2048 2050
648 1 2052 2051 2053
650 1 2055 2054 2056
652 1 2058 2057 2059
654 1 2061 2060 2062
656 1 2064 2063 2065
658 1 2067 2066 2068
660 1 2070 2069 2071
662 1 2073 2072 2074
663 1 2076 2075 2077
647 1 2079 2078 2080
649 1 2082 2081 2083
651 1 2085 2084 2086
653 1 2088 2087 2089
655 1 2091 2090 2092
657 1 2094 2093 2095
659 1 2097 2096 2098
661 1 2100 2099 2101
664 1 2103 2102 2104
665 1 2106 2105 2107
666 1 2109 2108 2110
667 1 2112 2111 2113
668 1 2115 2114 2116
669 1 2118 2117 2119
670 1 2121 2120 2122
671 1 2124 2123 2125
672 1 2127 2126 2128
673 1 2130 2129 2131
674 1 2133 2132 2134
675 1 2136 2135 2137
676 1 2139 2138 2140
677 1 2142 2141 2143
678 1 2145 2144 2146
679 1 2148 2147 2149
680 1 2151 2150 2152
681 1 2154 2153 2155
682 1 2157 2156 2158
683 1 2160 2159 2161
684 1 2163 2162 2164
685 1 2166 2165 2167
686 1 2169 2168 2170
687 1 2172 2171 2173
688 1 2175 2174 2176
689 1 2178 2177 2179
690 1 2181 2180 2182
691 1 2192 2191 2193
692 1 2195 2194 2196
694 1 2198 2197 2199
696 1 2201 2200 2202
698 1 2204 2203 2205
700 1 2207 2206 2208
702 1 2210 2209 2211
704 1 2213 2212 2214
706 1 2216 2215 2217
708 1 2219 2218 2220
709 1 2222 2221 2223
693 1 2225 2224 2226
695 1 2228 2227 2229
697 1 2231 2230 2232
699 1 2234 2233 2235
701 1 2237 2236 2238
703 1 2240 2239 2241
705 1 2243 2242 2244
707 1 2246 2245 2247
710 1 2249 2248 2250
711 1 2252 2251 2253
712 1 2255 2254 2256
713 1 2258 2257 2259
714 1 2261 2260 2262
715 1 2264 2263 2265
716 1 2267 2266 2268
717 1 2270 2269 2271
718 1 2273 2272 2274
719 1 2276 2275 2277
720 1 2279 2278 2280
721 1 2282 2281 2283
722 1 2285 2284 2286
723 1 2288 2287 2289
724 1 2291 2290 2292
725 1 2294 2293 2295
726 1 2297 2296 2298
727 1 2300 2299 2301
728 1 2303 2302 2304
729 1 2306 2305 2307
730 1 2309 2308 2310
731 1 2312 2311 2313
732 1 2315 2314 2316
733 1 2318 2317 2319
734 1 2321 2320 2322
735 1 2324 2323 2325
736 1 2327 2326 2328
737 1 2338 2337 2339
738 1 2341 2340 2342
740 1 2344 2343 2345
742 1 2347 2346 2348
744 1 2350 2349 2351
746 1 2353 2352 2354
748 1 2356 2355 2357
750 1 2359 2358 2360
752 1 2362 2361 2363
754 1 2365 2364 2366
755 1 2368 2367 2369
739 1 2371 2370 2372
741 1 2374 2373 2375
743 1 2377 2376 2378
745 1 2380 2379 2381
747 1 2383 2382 2384
749 1 2386 2385 2387
751 1 2389 2388 2390
753 1 2392 2391 2393
756 1 2395 2394 2396
757 1 2398 2397 2399
758 1 2401 2400 2402
759 1 2404 2403 2405
760 1 2407 2406 2408
761 1 2410 2409 2411
762 1 2413 2412 2414
763 1 2416 2415 2417
764 1 2419 2418 2420
765 1 2422 2421 2423
766 1 2425 2424 2426
767 1 2428 2427 2429
768 1 2431 2430 2432
769 1 2434 2433 2435
770 1 2437 2436 2438
771 1 2440 2439 2441
772 1 2443 2442 2444
773 1 2446 2445 2447
774 1 2449 2448 2450
775 1 2452 2451 2453
776 1 2455 2454 2456
777 1 2458 2457 2459
778 1 2461 2460 2462
779 1 2464 2463 2465
780 1 2467 2466 2468
781 1 2470 2469 2471
782 1 2473 2472 2474
783 1 2484 2483 2485
784 1 2487 2486 2488
786 1 2490 2489 2491
788 1 2493 2492 2494
790 1 2496 2495 2497
792 1 2499 2498 2500
794 1 2502 2501 2503
796 1 2505 2504 2506
798 1 2508 2507 2509
800 1 2511 2510 2512
801 1 2514 2513 2515
785 1 2517 2516 2518
787 1 2520 2519 2521
789 1 2523 2522 2524
791 1 2526 2525 2527
793 1 2529 2528 2530
795 1 2532 2531 2533
797 1 2535 2534 2536
799 1 2538 2537 2539
802 1 2541 2540 2542
803 1 2544 2543 2545
804 1 2547 2546 2548
805 1 2550 2549 2551
806 1 2553 2552 2554
807 1 2556 2555 2557
808 1 2559 2558 2560
809 1 2562 2561 2563
810 1 2565 2564 2566
811 1 2568 2567 2569
812 1 2571 2570 2572
813 1 2574 2573 2575
814 1 2577 2576 2578
815 1 2580 2579 2581
816 1 2583 2582 2584
817 1 2586 2585 2587
818 1 2589 2588 2590
819 1 2592 2591 2593
820 1 2595 2594 2596
821 1 2598 2597 2599
822 1 2601 2600 2602
823 1 2604 2603 2605
824 1 2607 2606 2608
825 1 2610 2609 2611
826 1 2613 2612 2614
827 1 2616 2615 2617
828 1 2619 2618 2620
829 1 2630 2629 2631
830 1 2633 2632 2634
832 1 2636 2635 2637
834 1 2639 2638 2640
836 1 2642 2641 2643
838 1 2645 2644 2646
840 1 2648 2647 2649
842 1 2651 2650 2652
844 1 2654 2653 2655
846 1 2657 2656 2658
847 1 2660 2659 2661
831 1 2663 2662 2664
833 1 2666 2665 2667
835 1 2669 2668 2670
837 1 2672 2671 2673
839 1 2675 2674 2676
841 1 2678 2677 2679
843 1 2681 2680 2682
845 1 2684 2683 2685
848 1 2687 2686 2688
849 1 2690 2689 2691
850 1 2693 2692 2694
851 1 2696 2695 2697
852 1 2699 2698 2700
853 1 2702 2701 2703
854 1 2705 2704 2706
855 1 2708 2707 2709
856 1 2711 2710 2712
857 1 2714 2713 2715
858 1 2717 2716 2718
859 1 2720 2719 2721
860 1 2723 2722 2724
861 1 2726 2725 2727
862 1 2729 2728 2730
863 1 2732 2731 2733
864 1 2735 2734 2736
865 1 2738 2737 2739
866 1 2741 2740 2742
867 1 2744 2743 2745
868 1 2747 2746 2748
869 1 2750 2749 2751
870 1 2753 2752 2754
871 1 2756 2755 2757
872 1 2759 2758 2760
873 1 2762 2761 2763
874 1 2765 2764 2766
875 1 2776 2775 2777
876 1 2779 2778 2780
878 1 2782 2781 2783
880 1 2785 2784 2786
882 1 2788 2787 2789
884 1 2791 2790 2792
886 1 2794 2793 2795
888 1 2797 2796 2798
890 1 2800 2799 2801
892 1 2803 2802 2804
893 1 2806 2805 2807
877 1 2809 2808 2810
879 1 2812 2811 2813
881 1 2815 2814 2816
883 1 2818 2817 2819
885 1 2821 2820 2822
887 1 2824 2823 2825
889 1 2827 2826 2828
891 1 2830 2829 2831
894 1 2833 2832 2834
895 1 2836 2835 2837
896 1 2839 2838 2840
897 1 2842 2841 2843
898 1 2845 2844 2846
899 1 2848 2847 2849
900 1 2851 2850 2852
901 1 2854 2853 2855
902 1 2857 2856 2858
903 1 2860 2859 2861
904 1 2863 2862 2864
905 1 2866 2865 2867
906 1 2869 2868 2870
907 1 2872 2871 2873
908 1 2875 2874 2876
909 1 2878 2877 2879
910 1 2881 2880 2882
911 1 2884 2883 2885
912 1 2887 2886 2888
913 1 2890 2889 2891
914 1 2893 2892 2894
915 1 2896 2895 2897
916 1 2899 2898 2900
917 1 2902 2901 2903
918 1 2905 2904 2906
919 1 2908 2907 2909
920 1 2911 2910 2912
921 1 2922 2921 2923
922 1 2925 2924 2926
924 1 2928 2927 2929
926 1 2931 2930 2932
928 1 2934 2933 2935
930 1 2937 2936 2938
932 1 2940 2939 2941
934 1 2943 2942 2944
936 1 2946 2945 2947
938 1 2949 2948 2950
939 1 2952 2951 2953
923 1 2955 2954 2956
925 1 2958 2957 2959
927 1 2961 2960 2962
929 1 2964 2963 2965
931 1 2967 2966 2968
933 1 2970 2969 2971
935 1 2973 2972 2974
937 1 2976 2975 2977
940 1 2979 2978 2980
941 1 2982 2981 2983
942 1 2985 2984 2986
943 1 2988 2987 2989
944 1 2991 2990 2992
945 1 2994 2993 2995
946 1 2997 2996 2998
947 1 3000 2999 3001
948 1 3003 3002 3004
949 1 3006 3005 3007
950 1 3009 3008 3010
951 1 3012 3011 3013
952 1 3015 3014 3016
953 1 3018 3017 3019
954 1 3021 3020 3022
955 1 3024 3023 3025
956 1 3027 3026 3028
957 1 3030 3029 3031
958 1 3033 3032 3034
959 1 3036 3035 3037
960 1 3039 3038 3040
961 1 3042 3041 3043
962 1 3045 3044 3046
963 1 3048 3047 3049
964 1 3051 3050 3052
965 1 3054 3053 3055
966 1 3057 3056 3058
967 1 3068 3067 3069
968 1 3071 3070 3072
970 1 3074 3073 3075
972 1 3077 3076 3078
974 1 3080 3079 3081
976 1 3083 3082 3084
978 1 3086 3085 3087
980 1 3089 3088 3090
982 1 3092 3091 3093
984 1 3095 3094 3096
985 1 3098 3097 3099
969 1 3101 3100 3102
971 1 3104 3103 3105
973 1 3107 3106 3108
975 1 3110 3109 3111
977 1 3113 3112 3114
979 1 3116 3115 3117
981 1 3119 3118 3120
983 1 3122 3121 3123
986 1 3125 3124 3126
987 1 3128 3127 3129
988 1 3131 3130 3132
989 1 3134 3133 3135
990 1 3137 3136 3138
991 1 3140 3139 3141
992 1 3143 3142 3144
993 1 3146 3145 3147
994 1 3149 3148 3150
995 1 3152 3151 3153
996 1 3155 3154 3156
997 1 3158 3157 3159
998 1 3161 3160 3162
999 1 3164 3163 3165
1000 1 3167 3166 3168
1001 1 3170 3169 3171
1002 1 3173 3172 3174
1003 1 3176 3175 3177
1004 1 3179 3178 3180
1005 1 3182 3181 3183
1006 1 3185 3184 3186
1007 1 3188 3187 3189
1008 1 3191 3190 3192
1009 1 3194 3193 3195
1010 1 3197 3196 3198
1011 1 3200 3199 3201
1012 1 3203 3202 3204
1013 1 3214 3213 3215
1014 1 3217 3216 3218
1016 1 3220 3219 3221
1018 1 3223 3222 3224
1020 1 3226 3225 3227
1022 1 3229 3228 3230
1024 1 3232 3231 3233
1026 1 3235 3234 3236
1028 1 3238 3237 3239
1030 1 3241 3240 3242
1031 1 3244 3243 3245
1015 1 3247 3246 3248
1017 1 3250 3249 3251
1019 1 3253 3252 3254
1021 1 3256 3255 3257
1023 1 3259 3258 3260
1025 1 3262 3261 3263
1027 1 3265 3264 3266
1029 1 3268 3267 3269
1032 1 3271 3270 3272
1033 1 3274 3273 3275
1034 1 3277 3276 3278
1035 1 3280 3279 3281
1036 1 3283 3282 3284
1037 1 3286 3285 3287
1038 1 3289 3288 3290
1039 1 3292 3291 3293
1040 1 3295 3294 3296
1041 1 3298 3297 3299
1042 1 3301 3300 3302
1043 1 3304 3303 3305
1044 1 3307 3306 3308
1045 1 3310 3309 3311
1046 1 3313 3312 3314
1047 1 3316 3315 3317
1048 1 3319 3318 3320
1049 1 3322 3321 3323
1050 1 3325 3324 3326
1051 1 3328 3327 3329
1052 1 3331 3330 3332
1053 1 3334 3333 3335
1054 1 3337 3336 3338
1055 1 3340 3339 3341
1056 1 3343 3342 3344
1057 1 3346 3345 3347
1058 1 3349 3348 3350
1059 1 3360 3359 3361
1060 1 3363 3362 3364
1062 1 3366 3365 3367
1064 1 3369 3368 3370
1066 1 3372 3371 3373
1068 1 3375 3374 3376
1070 1 3378 3377 3379
1072 1 3381 3380 3382
1074 1 3384 3383 3385
1076 1 3387 3386 3388
1077 1 3390 3389 3391
1061 1 3393 3392 3394
1063 1 3396 3395 3397
1065 1 3399 3398 3400
1067 1 3402 3401 3403
1069 1 3405 3404 3406
1071 1 3408 3407 3409
1073 1 3411 3410 3412
1075 1 3414 3413 3415
1078 1 3417 3416 3418
1079 1 3420 3419 3421
1080 1 3423 3422 3424
1081 1 3426 3425 3427
1082 1 3429 3428 3430
1083 1 3432 3431 3433
1084 1 3435 3434 3436
1085 1 3438 3437 3439
1086 1 3441 3440 3442
1087 1 3444 3443 3445
1088 1 3447 3446 3448
1089 1 3450 3449 3451
1090 1 3453 3452 3454
1091 1 3456 3455 3457
1092 1 3459 3458 3460
1093 1 3462 3461 3463
1094 1 3465 3464 3466
1095 1 3468 3467 3469
1096 1 3471 3470 3472
1097 1 3474 3473 3475
1098 1 3477 3476 3478
1099 1 3480 3479 3481
1100 1 3483 3482 3484
1101 1 3486 3485 3487
1102 1 3489 3488 3490
1103 1 3492 3491 3493
1104 1 3495 3494 3496
1105 1 3506 3505 3507
1106 1 3509 3508 3510
1107 1 3512 3511 3513
1108 1 3515 3514 3516
1109 1 3518 3517 3519
1110 1 3521 3520 3522
1111 1 3524 3523 3525
1112 1 3527 3526 3528
1113 1 3530 3529 3531
1114 1 3533 3532 3534
1115 1 3536 3535 3537
1116 1 3539 3538 3540
1117 1 3542 3541 3543
1118 1 3545 3544 3546
1119 1 3548 3547 3549
1120 1 3551 3550 3552
1121 1 3554 3553 3555
1122 1 3557 3556 3558
1123 1 3560 3559 3561
1124 1 3563 3562 3564
1125 1 3566 3565 3567
1126 1 3569 3568 3570
1127 1 3572 3571 3573
1128 1 3575 3574 3576
1129 1 3578 3577 3579
1130 1 3581 3580 3582
1131 1 3584 3583 3585
1132 1 3587 3586 3588
1133 1 3590 3589 3591
1134 1 3593 3592 3594
1135 1 3596 3595 3597
1136 1 3599 3598 3600
1137 1 3602 3601 3603
1138 1 3605 3604 3606
1139 1 3608 3607 3609
1140 1 3611 3610 3612
1141 1 3614 3613 3615
1142 1 3617 3616 3618
1143 1 3620 3619 3621
1144 1 3623 3622 3624
1145 1 3626 3625 3627
1146 1 3629 3628 3630
1147 1 3632 3631 3633
1148 1 3635 3634 3636
1149 1 3638 3637 3639
1150 1 3641 3640 3642
1151 1 3644 3643 3645
1152 1 3647 3646 3648
1153 1 3650 3649 3651
1154 1 3653 3652 3654
1155 1 3656 3655 3657
1156 1 3659 3658 3660
1157 1 3662 3661 3663
1158 1 3665 3664 3666
1159 1 3668 3667 3669
1160 1 3671 3670 3672
1161 1 3674 3673 3675
1162 1 3677 3676 3678
1163 1 3680 3679 3681
1164 1 3683 3682 3684
1165 1 3686 3685 3687
1166 1 3689 3688 3690
1167 1 3692 3691 3693
1168 1 3695 3694 3696
1169 1 3698 3697 3699
1170 1 3701 3700 3702
1171 1 3704 3703 3705
1172 1 3707 3706 3708
1173 1 3710 3709 3711
1174 1 3713 3712 3714
1175 1 3716 3715 3717
1176 1 3719 3718 3720
1177 1 3722 3721 3723
1178 1 3725 3724 3726
1179 1 3728 3727 3729
1180 1 3731 3730 3732
1181 1 3734 3733 3735
1182 1 3737 3736 3738
1183 1 3740 3739 3741
1184 1 3743 3742 3744
1185 1 3746 3745 3747
1186 1 3749 3748 3750
1187 1 3752 3751 3753
1188 1 3755 3754 3756
1189 1 3758 3757 3759
1190 1 3761 3760 3762
1191 1 3764 3763 3765
1192 1 3767 3766 3768
1193 1 3770 3769 3771
1194 1 3773 3772 3774
1195 1 3776 3775 3777
1196 1 3779 3778 3780
1197 1 3782 3781 3783
1198 1 3785 3784 3786
1199 1 3788 3787 3789
1200 1 3791 3790 3792
1201 1 3794 3793 3795
1202 1 3797 3796 3798
1203 1 3800 3799 3801
1204 1 3803 3802 3804
1205 1 3806 3805 3807
1206 1 3809 3808 3810
1207 1 3812 3811 3813
1208 1 3815 3814 3816
1209 1 3818 3817 3819
1210 1 3821 3820 3822
1211 1 3824 3823 3825
1212 1 3827 3826 3828
1213 1 3830 3829 3831
1214 1 3833 3832 3834
1215 1 3836 3835 3837
1216 1 3839 3838 3840
1217 1 3842 3841 3843
1218 1 3845 3844 3846
1219 1 3848 3847 3849
1220 1 3851 3850 3852
1221 1 3854 3853 3855
1222 1 3857 3856 3858
1223 1 3860 3859 3861
1224 1 3863 3862 3864
1225 1 3866 3865 3867
1226 1 3869 3868 3870
1227 1 3872 3871 3873
1228 1 3875 3874 3876
1229 1 3878 3877 3879
1230 1 3881 3880 3882
1231 1 3884 3883 3885
1232 1 3887 3886 3888
1233 1 3890 3889 3891
1234 1 3893 3892 3894
1235 1 3896 3895 3897
1236 1 3899 3898 3900
1237 1 3902 3901 3903
1238 1 3905 3904 3906
1239 1 3908 3907 3909
1240 1 3911 3910 3912
1241 1 3914 3913 3915
1242 1 3917 3916 3918
1243 1 3920 3919 3921
1244 1 3923 3922 3924
1245 1 3926 3925 3927
1246 1 3929 3928 3930
1247 1 3932 3931 3933
1248 1 3935 3934 3936
1249 1 3938 3937 3939
1250 1 3941 3940 3942
1251 1 3944 3943 3945
1252 1 3947 3946 3948
1253 1 3950 3949 3951
1254 1 3953 3952 3954
1255 1 3956 3955 3957
1256 1 3959 3958 3960
1257 1 3962 3961 3963
1258 1 3965 3964 3966
1259 1 3968 3967 3969
1260 1 3971 3970 3972
1261 1 3974 3973 3975
1262 1 3977 3976 3978
1263 1 3980 3979 3981
1264 1 3983 3982 3984
1265 1 3986 3985 3987
1266 1 3989 3988 3990
1267 1 3992 3991 3993
1268 1 3995 3994 3996
1269 1 3998 3997 3999
1270 1 4001 4000 4002
1271 1 4004 4003 4005
1272 1 4007 4006 4008
1273 1 4010 4009 4011
1274 1 4013 4012 4014
1275 1 4016 4015 4017
1276 1 4019 4018 4020
1277 1 4022 4021 4023
1278 1 4025 4024 4026
1279 1 4028 4027 4029
1280 1 4031 4030 4032
1281 1 4034 4033 4035
1282 1 4037 4036 4038
1283 1 4040 4039 4041
1284 1 4043 4042 4044
1285 1 4046 4045 4047
1286 1 4049 4048 4050
1287 1 4052 4051 4053
1288 1 4055 4054 4056
1289 1 4058 4057 4059
1290 1 4061 4060 4062
1291 1 4064 4063 4065
1292 1 4067 4066 4068
1293 1 4070 4069 4071
1294 1 4073 4072 4074
1295 1 4076 4075 4077
1296 1 4079 4078 4080
1297 1 4082 4081 4083
1298 1 4085 4084 4086
1299 1 4088 4087 4089
1300 1 4091 4090 4092
1301 1 4094 4093 4095
1302 1 4097 4096 4098
1303 1 4100 4099 4101
1304 1 4103 4102 4104
1305 1 4106 4105 4107
1306 1 4109 4108 4110
1307 1 4112 4111 4113
1308 1 4115 4114 4116
1309 1 4118 4117 4119
1310 1 4121 4120 4122
1311 1 4124 4123 4125
1312 1 4127 4126 4128
1313 1 4130 4129 4131
1314 1 4133 4132 4134
1315 1 4136 4135 4137
1316 1 4139 4138 4140
1317 1 4142 4141 4143
1318 1 4145 4144 4146
1319 1 4148 4147 4149
1320 1 4151 4150 4152
1321 1 4154 4153 4155
1322 1 4157 4156 4158
1323 1 4160 4159 4161
1324 1 4163 4162 4164
1325 1 4166 4165 4167
1326 1 4169 4168 4170
1327 1 4172 4171 4173
1328 1 4175 4174 4176
1329 1 4178 4177 4179
1330 1 4181 4180 4182
1331 1 4184 4183 4185
1332 1 4187 4186 4188
1333 1 4190 4189 4191
1334 1 4193 4192 4194
1335 1 4196 4195 4197
1336 1 4199 4198 4200
1337 1 4202 4201 4203
1338 1 4205 4204 4206
1339 1 4208 4207 4209
1340 1 4211 4210 4212
1341 1 4214 4213 4215
1342 1 4217 4216 4218
1343 1 4220 4219 4221
1344 1 4223 4222 4224
1345 1 4226 4225 4227
1346 1 4229 4228 4230
1347 1 4232 4231 4233
1348 1 4235 4234 4236
1349 1 4238 4237 4239
1350 1 4241 4240 4242
1351 1 4244 4243 4245
1352 1 4247 4246 4248
1353 1 4250 4249 4251
1354 1 4253 4252 4254
1355 1 4256 4255 4257
1356 1 4259 4258 4260
1357 1 4262 4261 4263
1358 1 4265 4264 4266
1359 1 4268 4267 4269
1360 1 4271 4270 4272
1361 1 4274 4273 4275
1362 1 4277 4276 4278
1363 1 4280 4279 4281
1364 1 4283 4282 4284
1365 1 4286 4285 4287
1366 1 4289 4288 4290
1367 1 4292 4291 4293
1368 1 4295 4294 4296
1369 1 4298 4297 4299
1370 1 4301 4300 4302
1371 1 4304 4303 4305
1372 1 4307 4306 4308
1373 1 4310 4309 4311
1374 1 4313 4312 4314
1375 1 4316 4315 4317
1376 1 4319 4318 4320
1377 1 4322 4321 4323
1378 1 4325 4324 4326
1379 1 4328 4327 4329
1380 1 4331 4330 4332
1381 1 4334 4333 4335
1382 1 4337 4336 4338
1383 1 4340 4339 4341
1384 1 4343 4342 4344
1385 1 4346 4345 4347
1386 1 4349 4348 4350
1387 1 4352 4351 4353
1388 1 4355 4354 4356
1389 1 4358 4357 4359
1390 1 4361 4360 4362
1391 1 4364 4363 4365
1392 1 4367 4366 4368
1393 1 4370 4369 4371
1394 1 4373 4372 4374
1395 1 4376 4375 4377
1396 1 4379 4378 4380
1397 1 4382 4381 4383
1398 1 4385 4384 4386
1399 1 4388 4387 4389
1400 1 4391 4390 4392
1401 1 4394 4393 4395
1402 1 4397 4396 4398
1403 1 4400 4399 4401
1404 1 4403 4402 4404
1405 1 4406 4405 4407
1406 1 4409 4408 4410
1407 1 4412 4411 4413
1408 1 4415 4414 4416
1409 1 4418 4417 4419
1410 1 4421 4420 4422
1411 1 4424 4423 4425
1412 1 4427 4426 4428
1413 1 4430 4429 4431
1414 1 4433 4432 4434
1415 1 4436 4435 4437
1416 1 4439 4438 4440
1417 1 4442 4441 4443
1418 1 4445 4444 4446
1419 1 4448 4447 4449
1420 1 4451 4450 4452
1421 1 4454 4453 4455
1422 1 4457 4456 4458
1423 1 4460 4459 4461
1424 1 4463 4462 4464
1425 1 4466 4465 4467
1426 1 4469 4468 4470
1427 1 4472 4471 4473
1428 1 4475 4474 4476
1429 1 4478 4477 4479
1430 1 4481 4480 4482
1431 1 4484 4483 4485
1432 1 4487 4486 4488
1433 1 4490 4489 4491
1434 1 4493 4492 4494
1435 1 4496 4495 4497
1436 1 4499 4498 4500
1437 1 4502 4501 4503
1438 1 4505 4504 4506
1439 1 4508 4507 4509
1440 1 4511 4510 4512
1441 1 4514 4513 4515
1442 1 4517 4516 4518
1443 1 4520 4519 4521
1444 1 4523 4522 4524
1445 1 4526 4525 4527
1446 1 4529 4528 4530
1447 1 4532 4531 4533
1448 1 4535 4534 4536
1449 1 4538 4537 4539
1450 1 4541 4540 4542
1451 1 4544 4543 4545
1452 1 4547 4546 4548
1453 1 4550 4549 4551
1454 1 4553 4552 4554
1455 1 4556 4555 4557
1456 1 4559 4558 4560
1457 1 4562 4561 4563
1458 1 4565 4564 4566
1459 1 4568 4567 4569
1460 1 4571 4570 4572
1461 1 4574 4573 4575
1462 1 4577 4576 4578
1463 1 4580 4579 4581
1464 1 4583 4582 4584
1465 1 4586 4585 4587
1466 1 4589 4588 4590
1467 1 4592 4591 4593
1468 1 4595 4594 4596
1469 1 4598 4597 4599
1470 1 4601 4600 4602
1471 1 4604 4603 4605
1472 1 4607 4606 4608
1473 1 4610 4609 4611
1474 1 4613 4612 4614
1475 1 4616 4615 4617
1476 1 4619 4618 4620
1477 1 4622 4621 4623
1478 1 4625 4624 4626
1479 1 4628 4627 4629
1480 1 4631 4630 4632
1481 1 4634 4633 4635
1482 1 4637 4636 4638
1483 1 4640 4639 4641
1484 1 4643 4642 4644
1485 1 4646 4645 4647
1486 1 4649 4648 4650
1487 1 4652 4651 4653
1488 1 4655 4654 4656
1489 1 4658 4657 4659
1490 1 4661 4660 4662
1491 1 4664 4663 4665
1492 1 4667 4666 4668
1493 1 4670 4669 4671
1494 1 4673 4672 4674
1495 1 4676 4675 4677
1496 1 4679 4678 4680
1497 1 4682 4681 4683
1498 1 4685 4684 4686
1499 1 4688 4687 4689
1500 1 4691 4690 4692
1501 1 4694 4693 4695
1502 1 4697 4696 4698
1503 1 4700 4699 4701
1504 1 4703 4702 4704
1505 1 4706 4705 4707
1506 1 4709 4708 4710
1507 1 4712 4711 4713
1508 1 4715 4714 4716
1509 1 4718 4717 4719
1510 1 4721 4720 4722
1511 1 4724 4723 4725
1512 1 4727 4726 4728
1513 1 4730 4729 4731
1514 1 4733 4732 4734
1515 1 4736 4735 4737
1516 1 4739 4738 4740
1517 1 4742 4741 4743
1518 1 4745 4744 4746
1519 1 4748 4747 4749
1520 1 4751 4750 4752
1521 1 4754 4753 4755
1522 1 4757 4756 4758
1523 1 4760 4759 4761
1524 1 4763 4762 4764
1525 1 4766 4765 4767
1526 1 4769 4768 4770
1527 1 4772 4771 4773
1528 1 4775 4774 4776
1529 1 4778 4777 4779
1530 1 4781 4780 4782
1531 1 4784 4783 4785
1532 1 4787 4786 4788
1533 1 4790 4789 4791
1534 1 4793 4792 4794
1535 1 4796 4795 4797
1536 1 4799 4798 4800
1537 1 4802 4801 4803
1538 1 4805 4804 4806
1539 1 4808 4807 4809
1540 1 4811 4810 4812
1541 1 4814 4813 4815
1542 1 4817 4816 4818
1543 1 4820 4819 4821
1544 1 4823 4822 4824
1545 1 4826 4825 4827
1546 1 4829 4828 4830
1547 1 4832 4831 4833
1548 1 4835 4834 4836
1549 1 4838 4837 4839
1550 1 4841 4840 4842
1551 1 4844 4843 4845
1552 1 4847 4846 4848
1553 1 4850 4849 4851
1554 1 4853 4852 4854
1555 1 4856 4855 4857
1556 1 4859 4858 4860
1557 1 4862 4861 4863
1558 1 4865 4864 4866
1559 1 4868 4867 4869
1560 1 4871 4870 4872
1561 1 4874 4873 4875
1562 1 4877 4876 4878
1563 1 4880 4879 4881
1564 1 4883 4882 4884
1565 1 4886 4885 4887
1566 1 4889 4888 4890
1567 1 4892 4891 4893
1568 1 4895 4894 4896
1569 1 4898 4897 4899
1570 1 4901 4900 4902
1571 1 4904 4903 4905
1572 1 4907 4906 4908
1573 1 4910 4909 4911
1574 1 4913 4912 4914
1575 1 4916 4915 4917
1576 1 4919 4918 4920
1577 1 4922 4921 4923
1578 1 4925 4924 4926
1579 1 4928 4927 4929
1580 1 4931 4930 4932
1581 1 4934 4933 4935
1582 1 4937 4936 4938
1583 1 4940 4939 4941
1584 1 4943 4942 4944
1585 1 4946 4945 4947
1586 1 4949 4948 4950
1587 1 4952 4951 4953
1588 1 4955 4954 4956
1589 1 4958 4957 4959
1590 1 4961 4960 4962
1591 1 4964 4963 4965
1592 1 4967 4966 4968
1593 1 4970 4969 4971
1594 1 4973 4972 4974
1595 1 4976 4975 4977
1596 1 4979 4978 4980
1597 1 4982 4981 4983
1598 1 4985 4984 4986
1599 1 4988 4987 4989
1600 1 4991 4990 4992
1601 1 4994 4993 4995
1602 1 4997 4996 4998
1603 1 5000 4999 5001
1604 1 5003 5002 5004
1605 1 5006 5005 5007
1606 1 5009 5008 5010
1607 1 5012 5011 5013
1608 1 5015 5014 5016
1609 1 5018 5017 5019
1610 1 5021 5020 5022
1611 1 5024 5023 5025
1612 1 5027 5026 5028
1613 1 5030 5029 5031
1614 1 5033 5032 5034
1615 1 5036 5035 5037
1616 1 5039 5038 5040
1617 1 5042 5041 5043
1618 1 5045 5044 5046
1619 1 5048 5047 5049
1620 1 5051 5050 5052
1621 1 5054 5053 5055
1622 1 5057 5056 5058
1623 1 5060 5059 5061
1624 1 5063 5062 5064
1625 1 5066 5065 5067
1626 1 5069 5068 5070
1627 1 5072 5071 5073
1628 1 5075 5074 5076
1629 1 5078 5077 5079
1630 1 5081 5080 5082
1631 1 5084 5083 5085
1632 1 5087 5086 5088
1633 1 5090 5089 5091
1634 1 5093 5092 5094
1635 1 5096 5095 5097
1636 1 5099 5098 5100
1637 1 5102 5101 5103
1638 1 5105 5104 5106
1639 1 5108 5107 5109
1640 1 5111 5110 5112
1641 1 5114 5113 5115
1642 1 5117 5116 5118
1643 1 5120 5119 5121
1644 1 5123 5122 5124
1645 1 5126 5125 5127
1646 1 5129 5128 5130
1647 1 5132 5131 5133
1648 1 5135 5134 5136
1649 1 5138 5137 5139
1650 1 5141 5140 5142
1651 1 5144 5143 5145
1652 1 5147 5146 5148
1653 1 5150 5149 5151
1654 1 5153 5152 5154
1655 1 5156 5155 5157
1656 1 5159 5158 5160
1657 1 5162 5161 5163
1658 1 5165 5164 5166
1659 1 5168 5167 5169
1660 1 5171 5170 5172
1661 1 5174 5173 5175
1662 1 5177 5176 5178
1663 1 5180 5179 5181
1664 1 5183 5182 5184
1665 1 5186 5185 5187
1666 1 5189 5188 5190
1667 1 5192 5191 5193
1668 1 5195 5194 5196
1669 1 5198 5197 5199
1670 1 5201 5200 5202
1671 1 5204 5203 5205
1672 1 5207 5206 5208
1673 1 5210 5209 5211
1674 1 5213 5212 5214
1675 1 5216 5215 5217
1676 1 5219 5218 5220
1677 1 5222 5221 5223
1678 1 5225 5224 5226
1679 1 5228 5227 5229
1680 1 5231 5230 5232
1681 1 5234 5233 5235
1682 1 5237 5236 5238
1683 1 5240 5239 5241
1684 1 5243 5242 5244
1685 1 5246 5245 5247
1686 1 5249 5248 5250
1687 1 5252 5251 5253
1688 1 5255 5254 5256
1689 1 5258 5257 5259
1690 1 5261 5260 5262
1691 1 5264 5263 5265
1692 1 5267 5266 5268
1693 1 5270 5269 5271
1694 1 5273 5272 5274
1695 1 5276 5275 5277
1696 1 5279 5278 5280
1697 1 5282 5281 5283
1698 1 5285 5284 5286
1699 1 5288 5287 5289
1700 1 5291 5290 5292
1701 1 5294 5293 5295
1702 1 5297 5296 5298
1703 1 5300 5299 5301
1704 1 5303 5302 5304
1705 1 5306 5305 5307
1706 1 5309 5308 5310
1707 1 5312 5311 5313
1708 1 5315 5314 5316
1709 1 5318 5317 5319
1710 1 5321 5320 5322
1711 1 5324 5323 5325
1712 1 5327 5326 5328
1713 1 5330 5329 5331
1714 1 5333 5332 5334
1715 1 5336 5335 5337
1716 1 5339 5338 5340
1717 1 5342 5341 5343
1718 1 5345 5344 5346
1719 1 5348 5347 5349
1720 1 5351 5350 5352
1721 1 5354 5353 5355
1722 1 5357 5356 5358
1723 1 5360 5359 5361
1724 1 5363 5362 5364
1725 1 5366 5365 5367
1726 1 5369 5368 5370
1727 1 5372 5371 5373
1728 1 5375 5374 5376
1729 1 5378 5377 5379
1730 1 5381 5380 5382
1731 1 5384 5383 5385
1732 1 5387 5386 5388
1733 1 5390 5389 5391
1734 1 5393 5392 5394
1735 1 5396 5395 5397
1736 1 5399 5398 5400
1737 1 5402 5401 5403
1738 1 5405 5404 5406
1739 1 5408 5407 5409
1740 1 5411 5410 5412
1741 1 5414 5413 5415
1742 1 5417 5416 5418
1743 1 5420 5419 5421
1744 1 5423 5422 5424
1745 1 5426 5425 5427
1746 1 5429 5428 5430
1747 1 5432 5431 5433
1748 1 5435 5434 5436
1749 1 5438 5437 5439
1750 1 5441 5440 5442
1751 1 5444 5443 5445
1752 1 5447 5446 5448
1753 1 5450 5449 5451
1754 1 5453 5452 5454
1755 1 5456 5455 5457
1756 1 5459 5458 5460
1757 1 5462 5461 5463
1758 1 5465 5464 5466
1759 1 5468 5467 5469
1760 1 5471 5470 5472
1761 1 5474 5473 5475
1762 1 5477 5476 5478
1763 1 5480 5479 5481
1764 1 5483 5482 5484
1765 1 5486 5485 5487
1766 1 5489 5488 5490
1767 1 5492 5491 5493
1768 1 5495 5494 5496
1769 1 5498 5497 5499
1770 1 5501 5500 5502
1771 1 5504 5503 5505
1772 1 5507 5506 5508
1773 1 5510 5509 5511
1774 1 5513 5512 5514
1775 1 5516 5515 5517
1776 1 5519 5518 5520
1777 1 5522 5521 5523
1778 1 5525 5524 5526
1779 1 5528 5527 5529
1780 1 5531 5530 5532
1781 1 5534 5533 5535
1782 1 5537 5536 5538
1783 1 5540 5539 5541
1784 1 5543 5542 5544
1785 1 5546 5545 5547
1786 1 5549 5548 5550
1787 1 5552 5551 5553
1788 1 5555 5554 5556
1789 1 5558 5557 5559
1790 1 5561 5560 5562
1791 1 5564 5563 5565
1792 1 5567 5566 5568
1793 1 5570 5569 5571
1794 1 5573 5572 5574
1795 1 5576 5575 5577
1796 1 5579 5578 5580
1797 1 5582 5581 5583
1798 1 5585 5584 5586
1799 1 5588 5587 5589
1800 1 5591 5590 5592
1801 1 5594 5593 5595
1802 1 5597 5596 5598
1803 1 5600 5599 5601
1804 1 5603 5602 5604
1805 1 5606 5605 5607
1806 1 5609 5608 5610
1807 1 5612 5611 5613
1808 1 5615 5614 5616
1809 1 5618 5617 5619
1810 1 5621 5620 5622
1811 1 5624 5623 5625
1812 1 5627 5626 5628
1813 1 5630 5629 5631
1814 1 5633 5632 5634
1815 1 5636 5635 5637
1816 1 5639 5638 5640
1817 1 5642 5641 5643
1818 1 5645 5644 5646
1819 1 5648 5647 5649
1820 1 5651 5650 5652
1821 1 5654 5653 5655
1822 1 5657 5656 5658
1823 1 5660 5659 5661
1824 1 5663 5662 5664
1825 1 5666 5665 5667
1826 1 5669 5668 5670
1827 1 5672 5671 5673
1828 1 5675 5674 5676
1829 1 5678 5677 5679
1830 1 5681 5680 5682
1831 1 5684 5683 5685
1832 1 5687 5686 5688
1833 1 5690 5689 5691
1834 1 5693 5692 5694
1835 1 5696 5695 5697
1836 1 5699 5698 5700
1837 1 5702 5701 5703
1838 1 5705 5704 5706
1839 1 5708 5707 5709
1840 1 5711 5710 5712
1841 1 5714 5713 5715
1842 1 5717 5716 5718
1843 1 5720 5719 5721
1844 1 5723 5722 5724
1845 1 5726 5725 5727
1846 1 5729 5728 5730
1847 1 5732 5731 5733
1848 1 5735 5734 5736
1849 1 5738 5737 5739
1850 1 5741 5740 5742
1851 1 5744 5743 5745
1852 1 5747 5746 5748
1853 1 5750 5749 5751
1854 1 5753 5752 5754
1855 1 5756 5755 5757
1856 1 5759 5758 5760
1857 1 5762 5761 5763
1858 1 5765 5764 5766
1859 1 5768 5767 5769
1860 1 5771 5770 5772
1861 1 5774 5773 5775
1862 1 5777 5776 5778
1863 1 5780 5779 5781
1864 1 5783 5782 5784
1865 1 5786 5785 5787
1866 1 5789 5788 5790
1867 1 5792 5791 5793
1868 1 5795 5794 5796
1869 1 5798 5797 5799
1870 1 5801 5800 5802
1871 1 5804 5803 5805
1872 1 5807 5806 5808
1873 1 5810 5809 5811
1874 1 5813 5812 5814
1875 1 5816 5815 5817
1876 1 5819 5818 5820
1877 1 5822 5821 5823
1878 1 5825 5824 5826
1879 1 5828 5827 5829
1880 1 5831 5830 5832
1881 1 5834 5833 5835
1882 1 5837 5836 5838
1883 1 5840 5839 5841
1884 1 5843 5842 5844
1885 1 5846 5845 5847
1886 1 5849 5848 5850
1887 1 5852 5851 5853
1888 1 5855 5854 5856
1889 1 5858 5857 5859
1890 1 5861 5860 5862
1891 1 5864 5863 5865
1892 1 5867 5866 5868
1893 1 5870 5869 5871
1894 1 5873 5872 5874
1895 1 5876 5875 5877
1896 1 5879 5878 5880
1897 1 5882 5881 5883
1898 1 5885 5884 5886
1899 1 5888 5887 5889
1900 1 5891 5890 5892
1901 1 5894 5893 5895
1902 1 5897 5896 5898
1903 1 5900 5899 5901
1904 1 5903 5902 5904
1905 1 5906 5905 5907
1906 1 5909 5908 5910
1907 1 5912 5911 5913
1908 1 5915 5914 5916
1909 1 5918 5917 5919
1910 1 5921 5920 5922
1911 1 5924 5923 5925
1912 1 5927 5926 5928
1913 1 5930 5929 5931
1914 1 5933 5932 5934
1915 1 5936 5935 5937
1916 1 5939 5938 5940
1917 1 5942 5941 5943
1918 1 5945 5944 5946
1919 1 5948 5947 5949
1920 1 5951 5950 5952
1921 1 5954 5953 5955
1922 1 5957 5956 5958
1923 1 5960 5959 5961
1924 1 5963 5962 5964
1925 1 5966 5965 5967
1926 1 5969 5968 5970
1927 1 5972 5971 5973
1928 1 5975 5974 5976
1929 1 5978 5977 5979
1930 1 5981 5980 5982
1931 1 5984 5983 5985
1932 1 5987 5986 5988
1933 1 5990 5989 5991
1934 1 5993 5992 5994
1935 1 5996 5995 5997
1936 1 5999 5998 6000
1937 1 6002 6001 6003
1938 1 6005 6004 6006
1939 1 6008 6007 6009
1940 1 6011 6010 6012
1941 1 6014 6013 6015
1942 1 6017 6016 6018
1943 1 6020 6019 6021
1944 1 6023 6022 6024
1945 1 6026 6025 6027
1946 1 6029 6028 6030
1947 1 6032 6031 6033
1948 1 6035 6034 6036
1949 1 6038 6037 6039
1950 1 6041 6040 6042
1951 1 6044 6043 6045
1952 1 6047 6046 6048
1953 1 6050 6049 6051
1954 1 6053 6052 6054
1955 1 6056 6055 6057
1956 1 6059 6058 6060
1957 1 6062 6061 6063
1958 1 6065 6064 6066
1959 1 6068 6067 6069
1960 1 6071 6070 6072
1961 1 6074 6073 6075
1962 1 6077 6076 6078
1963 1 6080 6079 6081
1964 1 6083 6082 6084
1965 1 6086 6085 6087
1966 1 6089 6088 6090
1967 1 6092 6091 6093
1968 1 6095 6094 6096
1969 1 6098 6097 6099
1970 1 6101 6100 6102
1971 1 6104 6103 6105
1972 1 6107 6106 6108
1973 1 6110 6109 6111
1974 1 6113 6112 6114
1975 1 6116 6115 6117
1976 1 6119 6118 6120
1977 1 6122 6121 6123
1978 1 6125 6124 6126
1979 1 6128 6127 6129
1980 1 6131 6130 6132
1981 1 6134 6133 6135
1982 1 6137 6136 6138
1983 1 6140 6139 6141
1984 1 6143 6142 6144
1985 1 6146 6145 6147
1986 1 6149 6148 6150
1987 1 6152 6151 6153
1988 1 6155 6154 6156
1989 1 6158 6157 6159
1990 1 6161 6160 6162
1991 1 6164 6163 6165
1992 1 6167 6166 6168
1993 1 6170 6169 6171
1994 1 6173 6172 6174
1995 1 6176 6175 6177
1996 1 6179 6178 6180
1997 1 6182 6181 6183
1998 1 6185 6184 6186
1999 1 6188 6187 6189
2000 1 6191 6190 6192
2001 1 6194 6193 6195
2002 1 6197 6196 6198
2003 1 6200 6199 6201
2004 1 6203 6202 6204
2005 1 6206 6205 6207
2006 1 6209 6208 6210
2007 1 6212 6211 6213
2008 1 6215 6214 6216
2009 1 6218 6217 6219
2010 1 6221 6220 6222
2011 1 6224 6223 6225
2012 1 6227 6226 6228
2013 1 6230 6229 6231
2014 1 6233 6232 6234
2015 1 6236 6235 6237
2016 1 6239 6238 6240
2017 1 6242 6241 6243
2018 1 6245 6244 6246
2019 1 6248 6247 6249
2020 1 6251 6250 6252
2021 1 6254 6253 6255
2022 1 6257 6256 6258
2023 1 6260 6259 6261
2024 1 6263 6262 6264
2025 1 6266 6265 6267
2026 1 6269 6268 6270
2027 1 6272 6271 6273
2028 1 6275 6274 6276
2029 1 6278 6277 6279
2030 1 6281 6280 6282
2031 1 6284 6283 6285
2032 1 6287 6286 6288
2033 1 6290 6289 6291
2034 1 6293 6292 6294
2035 1 6296 6295 6297
2036 1 6299 6298 6300
2037 1 6302 6301 6303
2038 1 6305 6304 6306
2039 1 6308 6307 6309
2040 1 6311 6310 6312
2041 1 6314 6313 6315
2042 1 6317 6316 6318
2043 1 6320 6319 6321
2044 1 6323 6322 6324
2045 1 6326 6325 6327
2046 1 6329 6328 6330
2047 1 6332 6331 6333
2048 1 6335 6334 6336
2049 1 6338 6337 6339
2050 1 6341 6340 6342
2051 1 6344 6343 6345
2052 1 6347 6346 6348
2053 1 6350 6349 6351
2054 1 6353 6352 6354
2055 1 6356 6355 6357
2056 1 6359 6358 6360
2057 1 6362 6361 6363
2058 1 6365 6364 6366
2059 1 6368 6367 6369
2060 1 6371 6370 6372
2061 1 6374 6373 6375
2062 1 6377 6376 6378
2063 1 6380 6379 6381
2064 1 6383 6382 6384
2065 1 6386 6385 6387
2066 1 6389 6388 6390
2067 1 6392 6391 6393
2068 1 6395 6394 6396
2069 1 6398 6397 6399
2070 1 6401 6400 6402
2071 1 6404 6403 6405
2072 1 6407 6406 6408
2073 1 6410 6409 6411
2074 1 6413 6412 6414
2075 1 6416 6415 6417
2076 1 6419 6418 6420
2077 1 6422 6421 6423
2078 1 6425 6424 6426
2079 1 6428 6427 6429
2080 1 6431 6430 6432
2081 1 6434 6433 6435
2082 1 6437 6436 6438
2083 1 6440 6439 6441
2084 1 6443 6442 6444
2085 1 6446 6445 6447
2086 1 6449 6448 6450
2087 1 6452 6451 6453
2088 1 6455 6454 6456
2089 1 6458 6457 6459
2090 1 6461 6460 6462
2091 1 6464 6463 6465
2092 1 6467 6466 6468
2093 1 6470 6469 6471
2094 1 6473 6472 6474
2095 1 6476 6475 6477
2096 1 6479 6478 6480
2097 1 6482 6481 6483
2098 1 6485 6484 6486
2099 1 6488 6487 6489
2100 1 6491 6490 6492
2101 1 6494 6493 6495
2102 1 6497 6496 6498
2103 1 6500 6499 6501
2104 1 6503 6502 6504
2105 1 6506 6505 6507
2106 1 6509 6508 6510
2107 1 6512 6511 6513
2108 1 6515 6514 6516
2109 1 6518 6517 6519
2110 1 6521 6520 6522
2111 1 6524 6523 6525
2112 1 6527 6526 6528
2113 1 6530 6529 6531
2114 1 6533 6532 6534
2115 1 6536 6535 6537
2116 1 6539 6538 6540
2117 1 6542 6541 6543
2118 1 6545 6544 6546
2119 1 6548 6547 6549
2120 1 6551 6550 6552
2121 1 6554 6553 6555
2122 1 6557 6556 6558
2123 1 6560 6559 6561
2124 1 6563 6562 6564
2125 1 6566 6565 6567
2126 1 6569 6568 6570
2127 1 6572 6571 6573
2128 1 6575 6574 6576
2129 1 6578 6577 6579
2130 1 6581 6580 6582
2131 1 6584 6583 6585
2132 1 6587 6586 6588
2133 1 6590 6589 6591
2134 1 6593 6592 6594
2135 1 6596 6595 6597
2136 1 6599 6598 6600
2137 1 6602 6601 6603
2138 1 6605 6604 6606
2139 1 6608 6607 6609
2140 1 6611 6610 6612
2141 1 6614 6613 6615
2142 1 6617 6616 6618
2143 1 6620 6619 6621
2144 1 6623 6622 6624
2145 1 6626 6625 6627
2146 1 6629 6628 6630
2147 1 6632 6631 6633
2148 1 6635 6634 6636
2149 1 6638 6637 6639
2150 1 6641 6640 6642
2151 1 6644 6643 6645
2152 1 6647 6646 6648
2153 1 6650 6649 6651
2154 1 6653 6652 6654
2155 1 6656 6655 6657
2156 1 6659 6658 6660
2157 1 6662 6661 6663
2158 1 6665 6664 6666
2159 1 6668 6667 6669
2160 1 6671 6670 6672
2161 1 6674 6673 6675
2162 1 6677 6676 6678
2163 1 6680 6679 6681
2164 1 6683 6682 6684
2165 1 6686 6685 6687
2166 1 6689 6688 6690
2167 1 6692 6691 6693
2168 1 6695 6694 6696
2169 1 6698 6697 6699
2170 1 6701 6700 6702
2171 1 6704 6703 6705
2172 1 6707 6706 6708
2173 1 6710 6709 6711
2174 1 6713 6712 6714
2175 1 6716 6715 6717
2176 1 6719 6718 6720
2177 1 6722 6721 6723
2178 1 6725 6724 6726
2179 1 6728 6727 6729
2180 1 6731 6730 6732
2181 1 6734 6733 6735
2182 1 6737 6736 6738
2183 1 6740 6739 6741
2184 1 6743 6742 6744
2185 1 6746 6745 6747
2186 1 6749 6748 6750
2187 1 6752 6751 6753
2188 1 6755 6754 6756
2189 1 6758 6757 6759
2190 1 6761 6760 6762
2191 1 6764 6763 6765
2192 1 6767 6766 6768
2193 1 6770 6769 6771
2194 1 6773 6772 6774
2195 1 6776 6775 6777
2196 1 6779 6778 6780
2197 1 6782 6781 6783
2198 1 6785 6784 6786
2199 1 6788 6787 6789
2200 1 6791 6790 6792
2201 1 6794 6793 6795
2202 1 6797 6796 6798
2203 1 6800 6799 6801
2204 1 6803 6802 6804
2205 1 6806 6805 6807
2206 1 6809 6808 6810
2207 1 6812 6811 6813
2208 1 6815 6814 6816
2209 1 6818 6817 6819
2210 1 6821 6820 6822
2211 1 6824 6823 6825
2212 1 6827 6826 6828
2213 1 6830 6829 6831
2214 1 6833 6832 6834
2215 1 6836 6835 6837
2216 1 6839 6838 6840
2217 1 6842 6841 6843
2218 1 6845 6844 6846
2219 1 6848 6847 6849
2220 1 6851 6850 6852
2221 1 6854 6853 6855
2222 1 6857 6856 6858
2223 1 6860 6859 6861
2224 1 6863 6862 6864
2225 1 6866 6865 6867
2226 1 6869 6868 6870
2227 1 6872 6871 6873
2228 1 6875 6874 6876
2229 1 6878 6877 6879
2230 1 6881 6880 6882
2231 1 6884 6883 6885
2232 1 6887 6886 6888
2233 1 6890 6889 6891
2234 1 6893 6892 6894
2235 1 6896 6895 6897
2236 1 6899 6898 6900
2237 1 6902 6901 6903
2238 1 6905 6904 6906
2239 1 6908 6907 6909
2240 1 6911 6910 6912
2241 1 6914 6913 6915
2242 1 6917 6916 6918
2243 1 6920 6919 6921
2244 1 6923 6922 6924
2245 1 6926 6925 6927
2246 1 6929 6928 6930
2247 1 6932 6931 6933
2248 1 6935 6934 6936
2249 1 6938 6937 6939
2250 1 6941 6940 6942
2251 1 6944 6943 6945
2252 1 6947 6946 6948
2253 1 6950 6949 6951
2254 1 6953 6952 6954
2255 2 7200 7201 7202
2256 3 7201 7200 7203
2257 4 7201 7200 7204
2258 5 7201 7200 7205
2259 6 7200 7201 7206
2260 7 7200 7201 7207
2261 8 7201 7202 7208
2262 9 7200 7203 7209
2263 10 7203 7200 7204
2264 11 7204 7200 7205
2265 12 7202 7201 7206
2266 13 7202 7201 7207
2267 14 7203 7200 7205
2268 15 7206 7201 7207
2269 2 7210 7211 7212
2270 3 7211 7210 7213
2271 4 7211 7210 7214
2272 5 7211 7210 7215
2273 6 7210 7211 7216
2274 7 7210 7211 7217
2275 8 7211 7212 7218
2276 9 7210 7213 7219
2277 10 7213 7210 7214
2278 11 7214 7210 7215
2279 12 7212 7211 7216
2280 13 7212 7211 7217
2281 14 7213 7210 7215
2282 15 7216 7211 7217
2283 2 7220 7221 7222
2284 3 7221 7220 7223
2285 4 7221 7220 7224
2286 5 7221 7220 7225
2287 6 7220 7221 7226
2288 7 7220 7221 7227
2289 8 7221 7222 7228
2290 9 7220 7223 7229
2291 10 7223 7220 7224
2292 11 7224 7220 7225
2293 12 7222 7221 7226
2294 13 7222 7221 7227
2295 14 7223 7220 7225
2296 15 7226 7221 7227
2297 2 7230 7231 7232
2298 3 7231 7230 7233
2299 4 7231 7230 7234
2300 5 7231 7230 7235
2301 6 7230 7231 7236
2302 7 7230 7231 7237
2303 8 7231 7232 7238
2304 9 7230 7233 7239
2305 10 7233 7230 7234
2306 11 7234 7230 7235
2307 12 7232 7231 7236
2308 13 7232 7231 7237
2309 14 7233 7230 7235
2310 15 7236 7231 7237
2311 2 7240 7241 7242
2312 3 7241 7240 7243
2313 4 7241 7240 7244
2314 5 7241 7240 7245
2315 6 7240 7241 7246
2316 7 7240 7241 7247
2317 8 7241 7242 7248
2318 9 7240 7243 7249
2319 10 7243 7240 7244
2320 11 7244 7240 7245
2321 12 7242 7241 7246
2322 13 7242 7241 7247
2323 14 7243 7240 7245
2324 15 7246 7241 7247
2325 2 7250 7251 7252
2326 3 7251 7250 7253
2327 4 7251 7250 7254
2328 5 7251 7250 7255
2329 6 7250 7251 7256
2330 7 7250 7251 7257
2331 8 7251 7252 7258
2332 9 7250 7253 7259
2333 10 7253 7250 7254
2334 11 7254 7250 7255
2335 12 7252 7251 7256
2336 13 7252 7251 7257
2337 14 7253 7250 7255
2338 15 7256 7251 7257
2339 2 7260 7261 7262
2340 3 7261 7260 7263
2341 4 7261 7260 7264
2342 5 7261 7260 7265
2343 6 7260 7261 7266
2344 7 7260 7261 7267
2345 8 7261 7262 7268
2346 9 7260 7263 7269
2347 10 7263 7260 7264
2348 11 7264 7260 7265
2349 12 7262 7261 7266
2350 13 7262 7261 7267
2351 14 7263 7260 7265
2352 15 7266 7261 7267
2353 2 7270 7271 7272
2354 3 7271 7270 7273
2355 4 7271 7270 7274
2356 5 7271 7270 7275
2357 6 7270 7271 7276
2358 7 7270 7271 7277
2359 8 7271 7272 7278
2360 9 7270 7273 7279
2361 10 7273 7270 7274
2362 11 7274 7270 7275
2363 12 7272 7271 7276
2364 13 7272 7271 7277
2365 14 7273 7270 7275
2366 15 7276 7271 7277
2367 2 7280 7281 7282
2368 3 7281 7280 7283
2369 4 7281 7280 7284
2370 5 7281 7280 7285
2371 6 7280 7281 7286
2372 7 7280 7281 7287
2373 8 7281 7282 7288
2374 9 7280 7283 7289
2375 10 7283 7280 7284
2376 11 7284 7280 7285
2377 12 7282 7281 7286
2378 13 7282 7281 7287
2379 14 7283 7280 7285
2380 15 7286 7281 7287
2381 2 7290 7291 7292
2382 3 7291 7290 7293
2383 4 7291 7290 7294
2384 5 7291 7290 7295
2385 6 7290 7291 7296
2386 7 7290 7291 7297
2387 8 7291 7292 7298
2388 9 7290 7293 7299
2389 10 7293 7290 7294
2390 11 7294 7290 7295
2391 12 7292 7291 7296
2392 13 7292 7291 7297
2393 14 7293 7290 7295
2394 15 7296 7291 7297
2395 2 7300 7301 7302
2396 3 7301 7300 7303
2397 4 7301 7300 7304
2398 5 7301 7300 7305
2399 6 7300 7301 7306
2400 7 7300 7301 7307
2401 8 7301 7302 7308
2402 9 7300 7303 7309
2403 10 7303 7300 7304
2404 11 7304 7300 7305
2405 12 7302 7301 7306
2406 13 7302 7301 7307
2407 14 7303 7300 7305
2408 15 7306 7301 7307
2409 2 7310 7311 7312
2410 3 7311 7310 7313
2411 4 7311 7310 7314
2412 5 7311 7310 7315
2413 6 7310 7311 7316
2414 7 7310 7311 7317
2415 8 7311 7312 7318
2416 9 7310 7313 7319
2417 10 7313 7310 7314
2418 11 7314 7310 7315
2419 12 7312 7311 7316
2420 13 7312 7311 7317
2421 14 7313 7310 7315
2422 15 7316 7311 7317
2423 2 7320 7321 7322
2424 3 7321 7320 7323
2425 4 7321 7320 7324
2426 5 7321 7320 7325
2427 6 7320 7321 7326
2428 7 7320 7321 7327
2429 8 7321 7322 7328
2430 9 7320 7323 7329
2431 10 7323 7320 7324
2432 11 7324 7320 7325
2433 12 7322 7321 7326
2434 13 7322 7321 7327
2435 14 7323 7320 7325
2436 15 7326 7321 7327
2437 2 7330 7331 7332
2438 3 7331 7330 7333
2439 4 7331 7330 7334
2440 5 7331 7330 7335
2441 6 7330 7331 7336
2442 7 7330 7331 7337
2443 8 7331 7332 7338
2444 9 7330 7333 7339
2445 10 7333 7330 7334
2446 11 7334 7330 7335
2447 12 7332 7331 7336
2448 13 7332 7331 7337
2449 14 7333 7330 7335
2450 15 7336 7331 7337
2451 2 7340 7341 7342
2452 3 7341 7340 7343
2453 4 7341 7340 7344
2454 5 7341 7340 7345
2455 6 7340 7341 7346
2456 7 7340 7341 7347
2457 8 7341 7342 7348
2458 9 7340 7343 7349
2459 10 7343 7340 7344
2460 11 7344 7340 7345
2461 12 7342 7341 7346
2462 13 7342 7341 7347
2463 14 7343 7340 7345
2464 15 7346 7341 7347
2465 2 7350 7351 7352
2466 3 7351 7350 7353
2467 4 7351 7350 7354
2468 5 7351 7350 7355
2469 6 7350 7351 7356
2470 7 7350 7351 7357
2471 8 7351 7352 7358
2472 9 7350 7353 7359
2473 10 7353 7350 7354
2474 11 7354 7350 7355
2475 12 7352 7351 7356
2476 13 7352 7351 7357
2477 14 7353 7350 7355
2478 15 7356 7351 7357
2479 2 7360 7361 7362
2480 3 7361 7360 7363
2481 4 7361 7360 7364
2482 5 7361 7360 7365
2483 6 7360 7361 7366
2484 7 7360 7361 7367
2485 8 7361 7362 7368
2486 9 7360 7363 7369
2487 10 7363 7360 7364
2488 11 7364 7360 7365
2489 12 7362 7361 7366
2490 13 7362 7361 7367
2491 14 7363 7360 7365
2492 15 7366 7361 7367
2493 2 7370 7371 7372
2494 3 7371 7370 7373
2495 4 7371 7370 7374
2496 5 7371 7370 7375
2497 6 7370 7371 7376
2498 7 7370 7371 7377
2499 8 7371 7372 7378
2500 9 7370 7373 7379
2501 10 7373 7370 7374
2502 11 7374 7370 7375
2503 12 7372 7371 7376
2504 13 7372 7371 7377
2505 14 7373 7370 7375
2506 15 7376 7371 7377
2507 2 7380 7381 7382
2508 3 7381 7380 7383
2509 4 7381 7380 7384
2510 5 7381 7380 7385
2511 6 7380 7381 7386
2512 7 7380 7381 7387
2513 8 7381 7382 7388
2514 9 7380 7383 7389
2515 10 7383 7380 7384
2516 11 7384 7380 7385
2517 12 7382 7381 7386
2518 13 7382 7381 7387
2519 14 7383 7380 7385
2520 15 7386 7381 7387
2521 2 7390 7391 7392
2522 3 7391 7390 7393
2523 4 7391 7390 7394
2524 5 7391 7390 7395
2525 6 7390 7391 7396
2526 7 7390 7391 7397
2527 8 7391 7392 7398
2528 9 7390 7393 7399
2529 10 7393 7390 7394
2530 11 7394 7390 7395
2531 12 7392 7391 7396
2532 13 7392 7391 7397
2533 14 7393 7390 7395
2534 15 7396 7391 7397
2535 2 7400 7401 7402
2536 3 7401 7400 7403
2537 4 7401 7400 7404
2538 5 7401 7400 7405
2539 6 7400 7401 7406
2540 7 7400 7401 7407
2541 8 7401 7402 7408
2542 9 7400 7403 7409
2543 10 7403 7400 7404
2544 11 7404 7400 7405
2545 12 7402 7401 7406
2546 13 7402 7401 7407
2547 14 7403 7400 7405
2548 15 7406 7401 7407
2549 2 7410 7411 7412
2550 3 7411 7410 7413
2551 4 7411 7410 7414
2552 5 7411 7410 7415
2553 6 7410 7411 7416
2554 7 7410 7411 7417
2555 8 7411 7412 7418
2556 9 7410 7413 7419
2557 10 7413 7410 7414
2558 11 7414 7410 7415
2559 12 7412 7411 7416
2560 13 7412 7411 7417
2561 14 7413 7410 7415
2562 15 7416 7411 7417
2563 2 7420 7421 7422
2564 3 7421 7420 7423
2565 4 7421 7420 7424
2566 5 7421 7420 7425
2567 6 7420 7421 7426
2568 7 7420 7421 7427
2569 8 7421 7422 7428
2570 9 7420 7423 7429
2571 10 7423 7420 7424
2572 11 7424 7420 7425
2573 12 7422 7421 7426
2574 13 7422 7421 7427
2575 14 7423 7420 7425
2576 15 7426 7421 7427
2577 2 7430 7431 7432
2578 3 7431 7430 7433
2579 4 7431 7430 7434
2580 5 7431 7430 7435
2581 6 7430 7431 7436
2582 7 7430 7431 7437
2583 8 7431 7432 7438
2584 9 7430 7433 7439
2585 10 7433 7430 7434
2586 11 7434 7430 7435
2587 12 7432 7431 7436
2588 13 7432 7431 7437
2589 14 7433 7430 7435
2590 15 7436 7431 7437
2591 2 7440 7441 7442
2592 3 7441 7440 7443
2593 4 7441 7440 7444
2594 5 7441 7440 7445
2595 6 7440 7441 7446
2596 7 7440 7441 7447
2597 8 7441 7442 7448
2598 9 7440 7443 7449
2599 10 7443 7440 7444
2600 11 7444 7440 7445
2601 12 7442 7441 7446
2602 13 7442 7441 7447
2603 14 7443 7440 7445
2604 15 7446 7441 7447
2605 2 7450 7451 7452
2606 3 7451 7450 7453
2607 4 7451 7450 7454
2608 5 7451 7450 7455
2609 6 7450 7451 7456
2610 7 7450 7451 7457
2611 8 7451 7452 7458
2612 9 7450 7453 7459
2613 10 7453 7450 7454
2614 11 7454 7450 7455
2615 12 7452 7451 7456
2616 13 7452 7451 7457
2617 14 7453 7450 7455
2618 15 7456 7451 7457
2619 2 7460 7461 7462
2620 3 7461 7460 7463
2621 4 7461 7460 7464
2622 5 7461 7460 7465
2623 6 7460 7461 7466
2624 7 7460 7461 7467
2625 8 7461 7462 7468
2626 9 7460 7463 7469
2627 10 7463 7460 7464
2628 11 7464 7460 7465
2629 12 7462 7461 7466
2630 13 7462 7461 7467
2631 14 7463 7460 7465
2632 15 7466 7461 7467
2633 2 7470 7471 7472
2634 3 7471 7470 7473
2635 4 7471 7470 7474
2636 5 7471 7470 7475
2637 6 7470 7471 7476
2638 7 7470 7471 7477
2639 8 7471 7472 7478
2640 9 7470 7473 7479
2641 10 7473 7470 7474
2642 11 7474 7470 7475
2643 12 7472 7471 7476
2644 13 7472 7471 7477
2645 14 7473 7470 7475
2646 15 7476 7471 7477
2647 2 7480 7481 7482
2648 3 7481 7480 7483
2649 4 7481 7480 7484
2650 5 7481 7480 7485
2651 6 7480 7481 7486
2652 7 7480 7481 7487
2653 8 7481 7482 7488
2654 9 7480 7483 7489
2655 10 7483 7480 7484
2656 11 7484 7480 7485
2657 12 7482 7481 7486
2658 13 7482 7481 7487
2659 14 7483 7480 7485
2660 15 7486 7481 7487
2661 2 7490 7491 7492
2662 3 7491 7490 7493
2663 4 7491 7490 7494
2664 5 7491 7490 7495
2665 6 7490 7491 7496
2666 7 7490 7491 7497
2667 8 7491 7492 7498
2668 9 7490 7493 7499
2669 10 7493 7490 7494
2670 11 7494 7490 7495
2671 12 7492 7491 7496
2672 13 7492 7491 7497
2673 14 7493 7490 7495
2674 15 7496 7491 7497
2675 2 7500 7501 7502
2676 3 7501 7500 7503
2677 4 7501 7500 7504
2678 5 7501 7500 7505
2679 6 7500 7501 7506
2680 7 7500 7501 7507
2681 8 7501 7502 7508
2682 9 7500 7503 7509
2683 10 7503 7500 7504
2684 11 7504 7500 7505
2685 12 7502 7501 7506
2686 13 7502 7501 7507
2687 14 7503 7500 7505
2688 15 7506 7501 7507
2689 2 7510 7511 7512
2690 3 7511 7510 7513
2691 4 7511 7510 7514
2692 5 7511 7510 7515
2693 6 7510 7511 7516
2694 7 7510 7511 7517
2695 8 7511 7512 7518
2696 9 7510 7513 7519
2697 10 7513 7510 7514
2698 11 7514 7510 7515
2699 12 7512 7511 7516
2700 13 7512 7511 7517
2701 14 7513 7510 7515
2702 15 7516 7511 7517
2703 2 7520 7521 7522
2704 3 7521 7520 7523
2705 4 7521 7520 7524
2706 5 7521 7520 7525
2707 6 7520 7521 7526
2708 7 7520 7521 7527
2709 8 7521 7522 7528
2710 9 7520 7523 7529
2711 10 7523 7520 7524
2712 11 7524 7520 7525
2713 12 7522 7521 7526
2714 13 7522 7521 7527
2715 14 7523 7520 7525
2716 15 7526 7521 7527
2717 2 7530 7531 7532
2718 3 7531 7530 7533
2719 4 7531 7530 7534
2720 5 7531 7530 7535
2721 6 7530 7531 7536
2722 7 7530 7531 7537
2723 8 7531 7532 7538
2724 9 7530 7533 7539
2725 10 7533 7530 7534
2726 11 7534 7530 7535
2727 12 7532 7531 7536
2728 13 7532 7531 7537
2729 14 7533 7530 7535
2730 15 7536 7531 7537
2731 2 7540 7541 7542
2732 3 7541 7540 7543
2733 4 7541 7540 7544
2734 5 7541 7540 7545
2735 6 7540 7541 7546
2736 7 7540 7541 7547
2737 8 7541 7542 7548
2738 9 7540 7543 7549
2739 10 7543 7540 7544
2740 11 7544 7540 7545
2741 12 7542 7541 7546
2742 13 7542 7541 7547
2743 14 7543 7540 7545
2744 15 7546 7541 7547
2745 2 7550 7551 7552
2746 3 7551 7550 7553
2747 4 7551 7550 7554
2748 5 7551 7550 7555
2749 6 7550 7551 7556
2750 7 7550 7551 7557
2751 8 7551 7552 7558
2752 9 7550 7553 7559
2753 10 7553 7550 7554
2754 11 7554 7550 7555
2755 12 7552 7551 7556
2756 13 7552 7551 7557
2757 14 7553 7550 7555
2758 15 7556 7551 7557
2759 2 7560 7561 7562
2760 3 7561 7560 7563
2761 4 7561 7560 7564
2762 5 7561 7560 7565
2763 6 7560 7561 7566
2764 7 7560 7561 7567
2765 8 7561 7562 7568
2766 9 7560 7563 7569
2767 10 7563 7560 7564
2768 11 7564 7560 7565
2769 12 7562 7561 7566
2770 13 7562 7561 7567
2771 14 7563 7560 7565
2772 15 7566 7561 7567
2773 2 7570 7571 7572
2774 3 7571 7570 7573
2775 4 7571 7570 7574
2776 5 7571 7570 7575
2777 6 7570 7571 7576
2778 7 7570 7571 7577
2779 8 7571 7572 7578
2780 9 7570 7573 7579
2781 10 7573 7570 7574
2782 11 7574 7570 7575
2783 12 7572 7571 7576
2784 13 7572 7571 7577
2785 14 7573 7570 7575
2786 15 7576 7571 7577
2787 2 7580 7581 7582
2788 3 7581 7580 7583
2789 4 7581 7580 7584
2790 5 7581 7580 7585
2791 6 7580 7581 7586
2792 7 7580 7581 7587
2793 8 7581 7582 7588
2794 9 7580 7583 7589
2795 10 7583 7580 7584
2796 11 7584 7580 7585
2797 12 7582 7581 7586
2798 13 7582 7581 7587
2799 14 7583 7580 7585
2800 15 7586 7581 7587
2801 2 7590 7591 7592
2802 3 7591 7590 7593
2803 4 7591 7590 7594
2804 5 7591 7590 7595
2805 6 7590 7591 7596
2806 7 7590 7591 7597
2807 8 7591 7592 7598
2808 9 7590 7593 7599
2809 10 7593 7590 7594
2810 11 7594 7590 7595
2811 12 7592 7591 7596
2812 13 7592 7591 7597
2813 14 7593 7590 7595
2814 15 7596 7591 7597
2815 2 7600 7601 7602
2816 3 7601 7600 7603
2817 4 7601 7600 7604
2818 5 7601 7600 7605
2819 6 7600 7601 7606
2820 7 7600 7601 7607
2821 8 7601 7602 7608
2822 9 7600 7603 7609
2823 10 7603 7600 7604
2824 11 7604 7600 7605
2825 12 7602 7601 7606
2826 13 7602 7601 7607
2827 14 7603 7600 7605
2828 15 7606 7601 7607
2829 2 7610 7611 7612
2830 3 7611 7610 7613
2831 4 7611 7610 7614
2832 5 7611 7610 7615
2833 6 7610 7611 7616
2834 7 7610 7611 7617
2835 8 7611 7612 7618
2836 9 7610 7613 7619
2837 10 7613 7610 7614
2838 11 7614 7610 7615
2839 12 7612 7611 7616
2840 13 7612 7611 7617
2841 14 7613 7610 7615
2842 15 7616 7611 7617
2843 2 7620 7621 7622
2844 3 7621 7620 7623
2845 4 7621 7620 7624
2846 5 7621 7620 7625
2847 6 7620 7621 7626
2848 7 7620 7621 7627
2849 8 7621 7622 7628
2850 9 7620 7623 7629
2851 10 7623 7620 7624
2852 11 7624 7620 7625
2853 12 7622 7621 7626
2854 13 7622 7621 7627
2855 14 7623 7620 7625
2856 15 7626 7621 7627
2857 2 7630 7631 7632
2858 3 7631 7630 7633
2859 4 7631 7630 7634
2860 5 7631 7630 7635
2861 6 7630 7631 7636
2862 7 7630 7631 7637
2863 8 7631 7632 7638
2864 9 7630 7633 7639
2865 10 7633 7630 7634
2866 11 7634 7630 7635
2867 12 7632 7631 7636
2868 13 7632 7631 7637
2869 14 7633 7630 7635
2870 15 7636 7631 7637
2871 2 7640 7641 7642
2872 3 7641 7640 7643
2873 4 7641 7640 7644
2874 5 7641 7640 7645
2875 6 7640 7641 7646
2876 7 7640 7641 7647
2877 8 7641 7642 7648
2878 9 7640 7643 7649
2879 10 7643 7640 7644
2880 11 7644 7640 7645
2881 12 7642 7641 7646
2882 13 7642 7641 7647
2883 14 7643 7640 7645
2884 15 7646 7641 7647
2885 2 7650 7651 7652
2886 3 7651 7650 7653
2887 4 7651 7650 7654
2888 5 7651 7650 7655
2889 6 7650 7651 7656
2890 7 7650 7651 7657
2891 8 7651 7652 7658
2892 9 7650 7653 7659
2893 10 7653 7650 7654
2894 11 7654 7650 7655
2895 12 7652 7651 7656
2896 13 7652 7651 7657
2897 14 7653 7650 7655
2898 15 7656 7651 7657
2899 2 7660 7661 7662
2900 3 7661 7660 7663
2901 4 7661 7660 7664
2902 5 7661 7660 7665
2903 6 7660 7661 7666
2904 7 7660 7661 7667
2905 8 7661 7662 7668
2906 9 7660 7663 7669
2907 10 7663 7660 7664
2908 11 7664 7660 7665
2909 12 7662 7661 7666
2910 13 7662 7661 7667
2911 14 7663 7660 7665
2912 15 7666 7661 7667
2913 2 7670 7671 7672
2914 3 7671 7670 7673
2915 4 7671 7670 7674
2916 5 7671 7670 7675
2917 6 7670 7671 7676
2918 7 7670 7671 7677
2919 8 7671 7672 7678
2920 9 7670 7673 7679
2921 10 7673 7670 7674
2922 11 7674 7670 7675
2923 12 7672 7671 7676
2924 13 7672 7671 7677
2925 14 7673 7670 7675
2926 15 7676 7671 7677
2927 2 7680 7681 7682
2928 3 7681 7680 7683
2929 4 7681 7680 7684
2930 5 7681 7680 7685
2931 6 7680 7681 7686
2932 7 7680 7681 7687
2933 8 7681 7682 7688
2934 9 7680 7683 7689
2935 10 7683 7680 7684
2936 11 7684 7680 7685
2937 12 7682 7681 7686
2938 13 7682 7681 7687
2939 14 7683 7680 7685
2940 15 7686 7681 7687
2941 2 7690 7691 7692
2942 3 7691 7690 7693
2943 4 7691 7690 7694
2944 5 7691 7690 7695
2945 6 7690 7691 7696
2946 7 7690 7691 7697
2947 8 7691 7692 7698
2948 9 7690 7693 7699
2949 10 7693 7690 7694
2950 11 7694 7690 7695
2951 12 7692 7691 7696
2952 13 7692 7691 7697
2953 14 7693 7690 7695
2954 15 7696 7691 7697
2955 2 7700 7701 7702
2956 3 7701 7700 7703
2957 4 7701 7700 7704
2958 5 7701 7700 7705
2959 6 7700 7701 7706
2960 7 7700 7701 7707
2961 8 7701 7702 7708
2962 9 7700 7703 7709
2963 10 7703 7700 7704
2964 11 7704 7700 7705
2965 12 7702 7701 7706
2966 13 7702 7701 7707
2967 14 7703 7700 7705
2968 15 7706 7701 7707
2969 2 7710 7711 7712
2970 3 7711 7710 7713
2971 4 7711 7710 7714
2972 5 7711 7710 7715
2973 6 7710 7711 7716
2974 7 7710 7711 7717
2975 8 7711 7712 7718
2976 9 7710 7713 7719
2977 10 7713 7710 7714
2978 11 7714 7710 7715
2979 12 7712 7711 7716
2980 13 7712 7711 7717
2981 14 7713 7710 7715
2982 15 7716 7711 7717
2983 2 7720 7721 7722
2984 3 7721 7720 7723
2985 4 7721 7720 7724
2986 5 7721 7720 7725
2987 6 7720 7721 7726
2988 7 7720 7721 7727
2989 8 7721 7722 7728
2990 9 7720 7723 7729
2991 10 7723 7720 7724
2992 11 7724 7720 7725
2993 12 7722 7721 7726
2994 13 7722 7721 7727
2995 14 7723 7720 7725
2996 15 7726 7721 7727
2997 2 7730 7731 7732
2998 3 7731 7730 7733
2999 4 7731 7730 7734
3000 5 7731 7730 7735
3001 6 7730 7731 7736
3002 7 7730 7731 7737
3003 8 7731 7732 7738
3004 9 7730 7733 7739
3005 10 7733 7730 7734
3006 11 7734 7730 7735
3007 12 7732 7731 7736
3008 13 7732 7731 7737
3009 14 7733 7730 7735
3010 15 7736 7731 7737
3011 2 7740 7741 7742
3012 3 7741 7740 7743
3013 4 7741 7740 7744
3014 5 7741 7740 7745
3015 6 7740 7741 7746
3016 7 7740 7741 7747
3017 8 7741 7742 7748
3018 9 7740 7743 7749
3019 10 7743 7740 7744
3020 11 7744 7740 7745
3021 12 7742 7741 7746
3022 13 7742 7741 7747
3023 14 7743 7740 7745
3024 15 7746 7741 7747
3025 16 7750 7751 7752
3026 17 7751 7752 7753
3027 18 7752 7753 7754
3028 19 7753 7754 7755
3029 20 7751 7752 7756
3030 21 7754 7755 7757
3031 22 7751 7750 7758
3032 23 7751 7750 7759
3033 24 7751 7750 7760
3034 25 7750 7751 7761
3035 26 7750 7751 7762
3036 27 7752 7753 7763
3037 28 7753 7754 7764
3038 29 7752 7756 7765
3039 30 7755 7757 7766
3040 31 7755 7757 7767
3041 32 7755 7757 7768
3042 33 7754 7753 7763
3043 34 7761 7751 7762
3044 35 7766 7757 7768
3045 36 7754 7755 7756
3046 37 7766 7757 7767
3047 38 7753 7752 7756
3048 39 7752 7756 7755
3049 40 7755 7754 7764
3050 41 7756 7755 7757
3051 42 7752 7751 7761
3052 43 7767 7757 7768
3053 44 7759 7750 7760
3054 45 7752 7751 7762
3055 46 7758 7750 7759
3056 47 7758 7750 7760
3057 48 7755 7756 7765

Dihedrals

1 1 7202 7201 7200 7203
2 2 7200 7201 7202 7208
3 3 7201 7200 7203 7209
4 4 7202 7201 7200 7204
5 5 7205 7200 7201 7207
6 6 7204 7200 7203 7209
7 7 7207 7201 7202 7208
8 8 7206 7201 7202 7208
9 9 7204 7200 7201 7206
10 10 7205 7200 7201 7206
11 11 7203 7200 7201 7207
12 12 7205 7200 7203 7209
13 13 7204 7200 7201 7207
14 14 7202 7201 7200 7205
15 15 7203 7200 7201 7206
16 1 7212 7211 7210 7213
17 2 7210 7211 7212 7218
18 3 7211 7210 7213 7219
19 4 7212 7211 7210 7214
20 5 7215 7210 7211 7217
21 6 7214 7210 7213 7219
22 7 7217 7211 7212 7218
23 8 7216 7211 7212 7218
24 9 7214 7210 7211 7216
25 10 7215 7210 7211 7216
26 11 7213 7210 7211 7217
27 12 7215 7210 7213 7219
28 13 7214 7210 7211 7217
29 14 7212 7211 7210 7215
30 15 7213 7210 7211 7216
31 1 7222 7221 7220 7223
32 2 7220 7221 7222 7228
33 3 7221 7220 7223 7229
34 4 7222 7221 7220 7224
35 5 7225 7220 7221 7227
36 6 7224 7220 7223 7229
37 7 7227 7221 7222 7228
38 8 7226 7221 7222 7228
39 9 7224 7220 7221 7226
40 10 7225 7220 7221 7226
41 11 7223 7220 7221 7227
42 12 7225 7220 7223 7229
43 13 7224 7220 7221 7227
44 14 7222 7221 7220 7225
45 15 7223 7220 7221 7226
46 1 7232 7231 7230 7233
47 2 7230 7231 7232 7238
48 3 7231 7230 7233 7239
49 4 7232 7231 7230 7234
50 5 7235 7230 7231 7237
51 6 7234 7230 7233 7239
52 7 7237 7231 7232 7238
53 8 7236 7231 7232 7238
54 9 7234 7230 7231 7236
55 10 7235 7230 7231 7236
56 11 7233 7230 7231 7237
57 12 7235 7230 7233 7239
58 13 7234 7230 7231 7237
59 14 7232 7231 7230 7235
60 15 7233 7230 7231 7236
61 1 7242 7241 7240 7243
62 2 7240 7241 7242 7248
63 3 7241 7240 7243 7249
64 4 7242 7241 7240 7244
65 5 7245 7240 7241 7247
66 6 7244 7240 7243 7249
67 7 7247 7241 7242 7248
68 8 7246 7241 7242 7248
69 9 7244 7240 7241 7246
70 10 7245 7240 7241 7246
71 11 7243 7240 7241 7247
72 12 7245 7240 7243 7249
73 13 7244 7240 7241 7247
74 14 7242 7241 7240 7245
75 15 7243 7240 7241 7246
76 1 7252 7251 7250 7253
77 2 7250 7251 7252 7258
78 3 7251 7250 7253 7259
79 4 7252 7251 7250 7254
80 5 7255 7250 7251 7257
81 6 7254 7250 7253 7259
82 7 7257 7251 7252 7258
83 8 7256 7251 7252 7258
84 9 7254 7250 7251 7256
85 10 7255 7250 7251 7256
86 11 7253 7250 7251 7257
87 12 7255 7250 7253 7259
88 13 7254 7250 7251 7257
89 14 7252 7251 7250 7255
90 15 7253 7250 7251 7256
91 1 7262 7261 7260 7263
92 2 7260 7261 7262 7268
93 3 7261 7260 7263 7269
94 4 7262 7261 7260 7264
95 5 7265 7260 7261 7267
96 6 7264 7260 7263 7269
97 7 7267 7261 7262 7268
98 8 7266 7261 7262 7268
99 9 7264 7260 7261 7266
100 10 7265 7260 7261 7266
101 11 7263 7260 7261 7267
102 12 7265 7260 7263 7269
103 13 7264 7260 7261 7267
104 14 7262 7261 7260 7265
105 15 7263 7260 7261 7266
106 1 7272 7271 7270 7273
107 2 7270 7271 7272 7278
108 3 7271 7270 7273 7279
109 4 7272 7271 7270 7274
110 5 7275 7270 7271 7277
111 6 7274 7270 7273 7279
112 7 7277 7271 7272 7278
113 8 7276 7271 7272 7278
114 9 7274 7270 7271 7276
115 10 7275 7270 7271 7276
116 11 7273 7270 7271 7277
117 12 7275 7270 7273 7279
118 13 7274 7270 7271 7277
119 14 7272 7271 7270 7275
120 15 7273 7270 7271 7276
121 1 7282 7281 7280 7283
122 2 7280 7281 7282 7288
123 3 7281 7280 7283 7289
124 4 7282 7281 7280 7284
125 5 7285 7280 7281 7287
126 6 7284 7280 7283 7289
127 7 7287 7281 7282 7288
128 8 7286 7281 7282 7288
129 9 7284 7280 7281 7286
130 10 7285 7280 7281 7286
131 11 7283 7280 7281 7287
132 12 7285 7280 7283 7289
133 13 7284 7280 7281 7287
134 14 7282 7281 7280 7285
135 15 7283 7280 7281 7286
136 1 7292 7291 7290 7293
137 2 7290 7291 7292 7298
138 3 7291 7290 7293 7299
139 4 7292 7291 7290 7294
140 5 7295 7290 7291 7297
141 6 7294 7290 7293 7299
142 7 7297 7291 7292 7298
143 8 7296 7291 7292 7298
144 9 7294 7290 7291 7296
145 10 7295 7290 7291 7296
146 11 7293 7290 7291 7297
147 12 7295 7290 7293 7299
148 13 7294 7290 7291 7297
149 14 7292 7291 7290 7295
150 15 7293 7290 7291 7296
151 1 7302 7301 7300 7303
152 2 7300 7301 7302 7308
153 3 7301 7300 7303 7309
154 4 7302 7301 7300 7304
155 5 7305 7300 7301 7307
156 6 7304 7300 7303 7309
157 7 7307 7301 7302 7308
158 8 7306 7301 7302 7308
159 9 7304 7300 7301 7306
160 10 7305 7300 7301 7306
161 11 7303 7300 7301 7307
162 12 7305 7300 7303 7309
163 13 7304 7300 7301 7307
164 14 7302 7301 7300 7305
165 15 7303 7300 7301 7306
166 1 7312 7311 7310 7313
167 2 7310 7311 7312 7318
168 3 7311 7310 7313 7319
169 4 7312 7311 7310 7314
170 5 7315 7310 7311 7317
171 6 7314 7310 7313 7319
172 7 7317 7311 7312 7318
173 8 7316 7311 7312 7318
174 9 7314 7310 7311 7316
175 10 7315 7310 7311 7316
176 11 7313 7310 7311 7317
177 12 7315 7310 7313 7319
178 13 7314 7310 7311 7317
179 14 7312 7311 7310 7315
180 15 7313 7310 7311 7316
181 1 7322 7321 7320 7323
182 2 7320 7321 7322 7328
183 3 7321 7320 7323 7329
184 4 7322 7321 7320 7324
185 5 7325 7320 7321 7327
186 6 7324 7320 7323 7329
187 7 7327 7321 7322 7328
188 8 7326 7321 7322 7328
189 9 7324 7320 7321 7326
190 10 7325 7320 7321 7326
191 11 7323 7320 7321 7327
192 12 7325 7320 7323 7329
193 13 7324 7320 7321 7327
194 14 7322 7321 7320 7325
195 15 7323 7320 7321 7326
196 1 7332 7331 7330 7333
197 2 7330 7331 7332 7338
198 3 7331 7330 7333 7339
199 4 7332 7331 7330 7334
200 5 7335 7330 7331 7337
201 6 7334 7330 7333 7339
202 7 7337 7331 7332 7338
203 8 7336 7331 7332 7338
204 9 7334 7330 7331 7336
205 10 7335 7330 7331 7336
206 11 7333 7330 7331 7337
207 12 7335 7330 7333 7339
208 13 7334 7330 7331 7337
209 14 7332 7331 7330 7335
210 15 7333 7330 7331 7336
211 1 7342 7341 7340 7343
212 2 7340 7341 7342 7348
213 3 7341 7340 7343 7349
214 4 7342 7341 7340 7344
215 5 7345 7340 7341 7347
216 6 7344 7340 7343 7349
217 7 7347 7341 7342 7348
218 8 7346 7341 7342 7348
219 9 7344 7340 7341 7346
220 10 7345 7340 7341 7346
221 11 7343 7340 7341 7347
222 12 7345 7340 7343 7349
223 13 7344 7340 7341 7347
224 14 7342 7341 7340 7345
225 15 7343 7340 7341 7346
226 1 7352 7351 7350 7353
227 2 7350 7351 7352 7358
228 3 7351 7350 7353 7359
229 4 7352 7351 7350 7354
230 5 7355 7350 7351 7357
231 6 7354 7350 7353 7359
232 7 7357 7351 7352 7358
233 8 7356 7351 7352 7358
234 9 7354 7350 7351 7356
235 10 7355 7350 7351 7356
236 11 7353 7350 7351 7357
237 12 7355 7350 7353 7359
238 13 7354 7350 7351 7357
239 14 7352 7351 7350 7355
240 15 7353 7350 7351 7356
241 1 7362 7361 7360 7363
242 2 7360 7361 7362 7368
243 3 7361 7360 7363 7369
244 4 7362 7361 7360 7364
245 5 7365 7360 7361 7367
246 6 7364 7360 7363 7369
247 7 7367 7361 7362 7368
248 8 7366 7361 7362 7368
249 9 7364 7360 7361 7366
250 10 7365 7360 7361 7366
251 11 7363 7360 7361 7367
252 12 7365 7360 7363 7369
253 13 7364 7360 7361 7367
254 14 7362 7361 7360 7365
255 15 7363 7360 7361 7366
256 1 7372 7371 7370 7373
257 2 7370 7371 7372 7378
258 3 7371 7370 7373 7379
259 4 7372 7371 7370 7374
260 5 7375 7370 7371 7377
261 6 7374 7370 7373 7379
262 7 7377 7371 7372 7378
263 8 7376 7371 7372 7378
264 9 7374 7370 7371 7376
265 10 7375 7370 7371 7376
266 11 7373 7370 7371 7377
267 12 7375 7370 7373 7379
268 13 7374 7370 7371 7377
269 14 7372 7371 7370 7375
270 15 7373 7370 7371 7376
271 1 7382 7381 7380 7383
272 2 7380 7381 7382 7388
273 3 7381 7380 7383 7389
274 4 7382 7381 7380 7384
275 5 7385 7380 7381 7387
276 6 7384 7380 7383 7389
277 7 7387 7381 7382 7388
278 8 7386 7381 7382 7388
279 9 7384 7380 7381 7386
280 10 7385 7380 7381 7386
281 11 7383 7380 7381 7387
282 12 7385 7380 7383 7389
283 13 7384 7380 7381 7387
284 14 7382 7381 7380 7385
285 15 7383 7380 7381 7386
286 1 7392 7391 7390 7393
287 2 7390 7391 7392 7398
288 3 7391 7390 7393 7399
289 4 7392 7391 7390 7394
290 5 7395 7390 7391 7397
291 6 7394 7390 7393 7399
292 7 7397 7391 7392 7398
293 8 7396 7391 7392 7398
294 9 7394 7390 7391 7396
295 10 7395 7390 7391 7396
296 11 7393 7390 7391 7397
297 12 7395 7390 7393 7399
298 13 7394 7390 7391 7397
299 14 7392 7391 7390 7395
300 15 7393 7390 7391 7396
301 1 7402 7401 7400 7403
302 2 7400 7401 7402 7408
303 3 7401 7400 7403 7409
304 4 7402 7401 7400 7404
305 5 7405 7400 7401 7407
306 6 7404 7400 7403 7409
307 7 7407 7401 7402 7408
308 8 7406 7401 7402 7408
309 9 7404 7400 7401 7406
310 10 7405 7400 7401 7406
311 11 7403 7400 7401 7407
312 12 7405 7400 7403 7409
313 13 7404 7400 7401 7407
314 14 7402 7401 7400 7405
315 15 7403 7400 7401 7406
316 1 7412 7411 7410 7413
317 2 7410 7411 7412 7418
318 3 7411 7410 7413 7419
319 4 7412 7411 7410 7414
320 5 7415 7410 7411 7417
321 6 7414 7410 7413 7419
322 7 7417 7411 7412 7418
323 8 7416 7411 7412 7418
324 9 7414 7410 7411 7416
325 10 7415 7410 7411 7416
326 11 7413 7410 7411 7417
327 12 7415 7410 7413 7419
328 13 7414 7410 7411 7417
329 14 7412 7411 7410 7415
330 15 7413 7410 7411 7416
331 1 7422 7421 7420 7423
332 2 7420 7421 7422 7428
333 3 7421 7420 7423 7429
334 4 7422 7421 7420 7424
335 5 7425 7420 7421 7427
336 6 7424 7420 7423 7429
337 7 7427 7421 7422 7428
338 8 7426 7421 7422 7428
339 9 7424 7420 7421 7426
340 10 7425 7420 7421 7426
341 11 7423 7420 7421 7427
342 12 7425 7420 7423 7429
343 13 7424 7420 7421 7427
344 14 7422 7421 7420 7425
345 15 7423 7420 7421 7426
346 1 7432 7431 7430 7433
347 2 7430 7431 7432 7438
348 3 7431 7430 7433 7439
349 4 7432 7431 7430 7434
350 5 7435 7430 7431 7437
351 6 7434 7430 7433 7439
352 7 7437 7431 7432 7438
353 8 7436 7431 7432 7438
354 9 7434 7430 7431 7436
355 10 7435 7430 7431 7436
356 11 7433 7430 7431 7437
357 12 7435 7430 7433 7439
358 13 7434 7430 7431 7437
359 14 7432 7431 7430 7435
360 15 7433 7430 7431 7436
361 1 7442 7441 7440 7443
362 2 7440 7441 7442 7448
363 3 7441 7440 7443 7449
364 4 7442 7441 7440 7444
365 5 7445 7440 7441 7447
366 6 7444 7440 7443 7449
367 7 7447 7441 7442 7448
368 8 7446 7441 7442 7448
369 9 7444 7440 7441 7446
370 10 7445 7440 7441 7446
371 11 7443 7440 7441 7447
372 12 7445 7440 7443 7449
373 13 7444 7440 7441 7447
374 14 7442 7441 7440 7445
375 15 7443 7440 7441 7446
376 1 7452 7451 7450 7453
377 2 7450 7451 7452 7458
378 3 7451 7450 7453 7459
379 4 7452 7451 7450 7454
380 5 7455 7450 7451 7457
381 6 7454 7450 7453 7459
382 7 7457 7451 7452 7458
383 8 7456 7451 7452 7458
384 9 7454 7450 7451 7456
385 10 7455 7450 7451 7456
386 11 7453 7450 7451 7457
387 12 7455 7450 7453 7459
388 13 7454 7450 7451 7457
389 14 7452 7451 7450 7455
390 15 7453 7450 7451 7456
391 1 7462 7461 7460 7463
392 2 7460 7461 7462 7468
393 3 7461 7460 7463 7469
394 4 7462 7461 7460 7464
395 5 7465 7460 7461 7467
396 6 7464 7460 7463 7469
397 7 7467 7461 7462 7468
398 8 7466 7461 7462 7468
399 9 7464 7460 7461 7466
400 10 7465 7460 7461 7466
401 11 7463 7460 7461 7467
402 12 7465 7460 7463 7469
403 13 7464 7460 7461 7467
404 14 7462 7461 7460 7465
405 15 7463 7460 7461 7466
406 1 7472 7471 7470 7473
407 2 7470 7471 7472 7478
408 3 7471 7470 7473 7479
409 4 7472 7471 7470 7474
410 5 7475 7470 7471 7477
411 6 7474 7470 7473 7479
412 7 7477 7471 7472 7478
413 8 7476 7471 7472 7478
414 9 7474 7470 7471 7476
415 10 7475 7470 7471 7476
416 11 7473 7470 7471 7477
417 12 7475 7470 7473 7479
418 13 7474 7470 7471 7477
419 14 7472 7471 7470 7475
420 15 7473 7470 7471 7476
421 1 7482 7481 7480 7483
422 2 7480 7481 7482 7488
423 3 7481 7480 7483 7489
424 4 7482 7481 7480 7484
425 5 7485 7480 7481 7487
426 6 7484 7480 7483 7489
427 7 7487 7481 7482 7488
428 8 7486 7481 7482 7488
429 9 7484 7480 7481 7486
430 10 7485 7480 7481 7486
431 11 7483 7480 7481 7487
432 12 7485 7480 7483 7489
433 13 7484 7480 7481 7487
434 14 7482 7481 7480 7485
435 15 7483 7480 7481 7486
436 1 7492 7491 7490 7493
437 2 7490 7491 7492 7498
438 3 7491 7490 7493 7499
439 4 7492 7491 7490 7494
440 5 7495 7490 7491 7497
441 6 7494 7490 7493 7499
442 7 7497 7491 7492 7498
443 8 7496 7491 7492 7498
444 9 7494 7490 7491 7496
445 10 7495 7490 7491 7496
446 11 7493 7490 7491 7497
447 12 7495 7490 7493 7499
448 13 7494 7490 7491 7497
449 14 7492 7491 7490 7495
450 15 7493 7490 7491 7496
451 1 7502 7501 7500 7503
452 2 7500 7501 7502 7508
453 3 7501 7500 7503 7509
454 4 7502 7501 7500 7504
455 5 7505 7500 7501 7507
456 6 7504 7500 7503 7509
457 7 7507 7501 7502 7508
458 8 7506 7501 7502 7508
459 9 7504 7500 7501 7506
460 10 7505 7500 7501 7506
461 11 7503 7500 7501 7507
462 12 7505 7500 7503 7509
463 13 7504 7500 7501 7507
464 14 7502 7501 7500 7505
465 15 7503 7500 7501 7506
466 1 7512 7511 7510 7513
467 2 7510 7511 7512 7518
468 3 7511 7510 7513 7519
469 4 7512 7511 7510 7514
470 5 7515 7510 7511 7517
471 6 7514 7510 7513 7519
472 7 7517 7511 7512 7518
473 8 7516 7511 7512 7518
474 9 7514 7510 7511 7516
475 10 7515 7510 7511 7516
476 11 7513 7510 7511 7517
477 12 7515 7510 7513 7519
478 13 7514 7510 7511 7517
479 14 7512 7511 7510 7515
480 15 7513 7510 7511 7516
481 1 7522 7521 7520 7523
482 2 7520 7521 7522 7528
483 3 7521 7520 7523 7529
484 4 7522 7521 7520 7524
485 5 7525 7520 7521 7527
486 6 7524 7520 7523 7529
487 7 7527 7521 7522 7528
488 8 7526 7521 7522 7528
489 9 7524 7520 7521 7526
490 10 7525 7520 7521 7526
491 11 7523 7520 7521 7527
492 12 7525 7520 7523 7529
493 13 7524 7520 7521 7527
494 14 7522 7521 7520 7525
495 15 7523 7520 7521 7526
496 1 7532 7531 7530 7533
497 2 7530 7531 7532 7538
498 3 7531 7530 7533 7539
499 4 7532 7531 7530 7534
500 5 7535 7530 7531 7537
501 6 7534 7530 7533 7539
502 7 7537 7531 7532 7538
503 8 7536 7531 7532 7538
504 9 7534 7530 7531 7536
505 10 7535 7530 7531 7536
506 11 7533 7530 7531 7537
507 12 7535 7530 7533 7539
508 13 7534 7530 7531 7537
509 14 7532 7531 7530 7535
510 15 7533 7530 7531 7536
511 1 7542 7541 7540 7543
512 2 7540 7541 7542 7548
513 3 7541 7540 7543 7549
514 4 7542 7541 7540 7544
515 5 7545 7540 7541 7547
516 6 7544 7540 7543 7549
517 7 7547 7541 7542 7548
518 8 7546 7541 7542 7548
519 9 7544 7540 7541 7546
520 10 7545 7540 7541 7546
521 11 7543 7540 7541 7547
522 12 7545 7540 7543 7549
523 13 7544 7540 7541 7547
524 14 7542 7541 7540 7545
525 15 7543 7540 7541 7546
526 1 7552 7551 7550 7553
527 2 7550 7551 7552 7558
528 3 7551 7550 7553 7559
529 4 7552 7551 7550 7554
530 5 7555 7550 7551 7557
531 6 7554 7550 7553 7559
532 7 7557 7551 7552 7558
533 8 7556 7551 7552 7558
534 9 7554 7550 7551 7556
535 10 7555 7550 7551 7556
536 11 7553 7550 7551 7557
537 12 7555 7550 7553 7559
538 13 7554 7550 7551 7557
539 14 7552 7551 7550 7555
540 15 7553 7550 7551 7556
541 1 7562 7561 7560 7563
542 2 7560 7561 7562 7568
543 3 7561 7560 7563 7569
544 4 7562 7561 7560 7564
545 5 7565 7560 7561 7567
546 6 7564 7560 7563 7569
547 7 7567 7561 7562 7568
548 8 7566 7561 7562 7568
549 9 7564 7560 7561 7566
550 10 7565 7560 7561 7566
551 11 7563 7560 7561 7567
552 12 7565 7560 7563 7569
553 13 7564 7560 7561 7567
554 14 7562 7561 7560 7565
555 15 7563 7560 7561 7566
556 1 7572 7571 7570 7573
557 2 7570 7571 7572 7578
558 3 7571 7570 7573 7579
559 4 7572 7571 7570 7574
560 5 7575 7570 7571 7577
561 6 7574 7570 7573 7579
562 7 7577 7571 7572 7578
563 8 7576 7571 7572 7578
564 9 7574 7570 7571 7576
565 10 7575 7570 7571 7576
566 11 7573 7570 7571 7577
567 12 7575 7570 7573 7579
568 13 7574 7570 7571 7577
569 14 7572 7571 7570 7575
570 15 7573 7570 7571 7576
571 1 7582 7581 7580 7583
572 2 7580 7581 7582 7588
573 3 7581 7580 7583 7589
574 4 7582 7581 7580 7584
575 5 7585 7580 7581 7587
576 6 7584 7580 7583 7589
577 7 7587 7581 7582 7588
578 8 7586 7581 7582 7588
579 9 7584 7580 7581 7586
580 10 7585 7580 7581 7586
581 11 7583 7580 7581 7587
582 12 7585 7580 7583 7589
583 13 7584 7580 7581 7587
584 14 7582 7581 7580 7585
585 15 7583 7580 7581 7586
586 1 7592 7591 7590 7593
587 2 7590 7591 7592 7598
588 3 7591 7590 7593 7599
589 4 7592 7591 7590 7594
590 5 7595 7590 7591 7597
591 6 7594 7590 7593 7599
592 7 7597 7591 7592 7598
593 8 7596 7591 7592 7598
594 9 7594 7590 7591 7596
595 10 7595 7590 7591 7596
596 11 7593 7590 7591 7597
597 12 7595 7590 7593 7599
598 13 7594 7590 7591 7597
599 14 7592 7591 7590 7595
600 15 7593 7590 7591 7596
601 1 7602 7601 7600 7603
602 2 7600 7601 7602 7608
603 3 7601 7600 7603 7609
604 4 7602 7601 7600 7604
605 5 7605 7600 7601 7607
606 6 7604 7600 7603 7609
607 7 7607 7601 7602 7608
608 8 7606 7601 7602 7608
609 9 7604 7600 7601 7606
610 10 7605 7600 7601 7606
611 11 7603 7600 7601 7607
612 12 7605 7600 7603 7609
613 13 7604 7600 7601 7607
614 14 7602 7601 7600 7605
615 15 7603 7600 7601 7606
616 1 7612 7611 7610 7613
617 2 7610 7611 7612 7618
618 3 7611 7610 7613 7619
619 4 7612 7611 7610 7614
620 5 7615 7610 7611 7617
621 6 7614 7610 7613 7619
622 7 7617 7611 7612 7618
623 8 7616 7611 7612 7618
624 9 7614 7610 7611 7616
625 10 7615 7610 7611 7616
626 11 7613 7610 7611 7617
627 12 7615 7610 7613 7619
628 13 7614 7610 7611 7617
629 14 7612 7611 7610 7615
630 15 7613 7610 7611 7616
631 1 7622 7621 7620 7623
632 2 7620 7621 7622 7628
633 3 7621 7620 7623 7629
634 4 7622 7621 7620 7624
635 5 7625 7620 7621 7627
636 6 7624 7620 7623 7629
637 7 7627 7621 7622 7628
638 8 7626 7621 7622 7628
639 9 7624 7620 7621 7626
640 10 7625 7620 7621 7626
641 11 7623 7620 7621 7627
642 12 7625 7620 7623 7629
643 13 7624 7620 7621 7627
644 14 7622 7621 7620 7625
645 15 7623 7620 7621 7626
646 1 7632 7631 7630 7633
647 2 7630 7631 7632 7638
648 3 7631 7630 7633 7639
649 4 7632 7631 7630 7634
650 5 7635 7630 7631 7637
651 6 7634 7630 7633 7639
652 7 7637 7631 7632 7638
653 8 7636 7631 7632 7638
654 9 7634 7630 7631 7636
655 10 7635 7630 7631 7636
656 11 7633 7630 7631 7637
657 12 7635 7630 7633 7639
658 13 7634 7630 7631 7637
659 14 7632 7631 7630 7635
660 15 7633 7630 7631 7636
661 1 7642 7641 7640 7643
662 2 7640 7641 7642 7648
663 3 7641 7640 7643 7649
664 4 7642 7641 7640 7644
665 5 7645 7640 7641 7647
666 6 7644 7640 7643 7649
667 7 7647 7641 7642 7648
668 8 7646 7641 7642 7648
669 9 7644 7640 7641 7646
670 10 7645 7640 7641 7646
671 11 7643 7640 7641 7647
672 12 7645 7640 7643 7649
673 13 7644 7640 7641 7647
674 14 7642 7641 7640 7645
675 15 7643 7640 7641 7646
676 1 7652 7651 7650 7653
677 2 7650 7651 7652 7658
678 3 7651 7650 7653 7659
679 4 7652 7651 7650 7654
680 5 7655 7650 7651 7657
681 6 7654 7650 7653 7659
682 7 7657 7651 7652 7658
683 8 7656 7651 7652 7658
684 9 7654 7650 7651 7656
685 10 7655 7650 7651 7656
686 11 7653 7650 7651 7657
687 12 7655 7650 7653 7659
688 13 7654 7650 7651 7657
689 14 7652 7651 7650 7655
690 15 7653 7650 7651 7656
691 1 7662 7661 7660 7663
692 2 7660 7661 7662 7668
693 3 7661 7660 7663 7669
694 4 7662 7661 7660 7664
695 5 7665 7660 7661 7667
696 6 7664 7660 7663 7669
697 7 7667 7661 7662 7668
698 8 7666 7661 7662 7668
699 9 7664 7660 7661 7666
700 10 7665 7660 7661 7666
701 11 7663 7660 7661 7667
702 12 7665 7660 7663 7669
703 13 7664 7660 7661 7667
704 14 7662 7661 7660 7665
705 15 7663 7660 7661 7666
706 1 7672 7671 7670 7673
707 2 7670 7671 7672 7678
708 3 7671 7670 7673 7679
709 4 7672 7671 7670 7674
710 5 7675 7670 7671 7677
711 6 7674 7670 7673 7679
712 7 7677 7671 7672 7678
713 8 7676 7671 7672 7678
714 9 7674 7670 7671 7676
715 10 7675 7670 7671 7676
716 11 7673 7670 7671 7677
717 12 7675 7670 7673 7679
718 13 7674 7670 7671 7677
719 14 7672 7671 7670 7675
720 15 7673 7670 7671 7676
721 1 7682 7681 7680 7683
722 2 7680 7681 7682 7688
723 3 7681 7680 7683 7689
724 4 7682 7681 7680 7684
725 5 7685 7680 7681 7687
726 6 7684 7680 7683 7689
727 7 7687 7681 7682 7688
728 8 7686 7681 7682 7688
729 9 7684 7680 7681 7686
730 10 7685 7680 7681 7686
731 11 7683 7680 7681 7687
732 12 7685 7680 7683 7689
733 13 7684 7680 7681 7687
734 14 7682 7681 7680 7685
735 15 7683 7680 7681 7686
736 1 7692 7691 7690 7693
737 2 7690 7691 7692 7698
738 3 7691 7690 7693 7699
739 4 7692 7691 7690 7694
740 5 7695 7690 7691 7697
741 6 7694 7690 7693 7699
742 7 7697 7691 7692 7698
743 8 7696 7691 7692 7698
744 9 7694 7690 7691 7696
745 10 7695 7690 7691 7696
746 11 7693 7690 7691 7697
747 12 7695 7690 7693 7699
748 13 7694 7690 7691 7697
749 14 7692 7691 7690 7695
750 15 7693 7690 7691 7696
751 1 7702 7701 7700 7703
752 2 7700 7701 7702 7708
753 3 7701 7700 7703 7709
754 4 7702 7701 7700 7704
755 5 7705 7700 7701 7707
756 6 7704 7700 7703 7709
757 7 7707 7701 7702 7708
758 8 7706 7701 7702 7708
759 9 7704 7700 7701 7706
760 10 7705 7700 7701 7706
761 11 7703 7700 7701 7707
762 12 7705 7700 7703 7709
763 13 7704 7700 7701 7707
764 14 7702 7701 7700 7705
765 15 7703 7700 7701 7706
766 1 7712 7711 7710 7713
767 2 7710 7711 7712 7718
768 3 7711 7710 7713 7719
769 4 7712 7711 7710 7714
770 5 7715 7710 7711 7717
771 6 7714 7710 7713 7719
772 7 7717 7711 7712 7718
773 8 7716 7711 7712 7718
774 9 7714 7710 7711 7716
775 10 7715 7710 7711 7716
776 11 7713 7710 7711 7717
777 12 7715 7710 7713 7719
778 13 7714 7710 7711 7717
779 14 7712 7711 7710 7715
780 15 7713 7710 7711 7716
781 1 7722 7721 7720 7723
782 2 7720 7721 7722 7728
783 3 7721 7720 7723 7729
784 4 7722 7721 7720 7724
785 5 7725 7720 7721 7727
786 6 7724 7720 7723 7729
787 7 7727 7721 7722 7728
788 8 7726 7721 7722 7728
789 9 7724 7720 7721 7726
790 10 7725 7720 7721 7726
791 11 7723 7720 7721 7727
792 12 7725 7720 7723 7729
793 13 7724 7720 7721 7727
794 14 7722 7721 7720 7725
795 15 7723 7720 7721 7726
796 1 7732 7731 7730 7733
797 2 7730 7731 7732 7738
798 3 7731 7730 7733 7739
799 4 7732 7731 7730 7734
800 5 7735 7730 7731 7737
801 6 7734 7730 7733 7739
802 7 7737 7731 7732 7738
803 8 7736 7731 7732 7738
804 9 7734 7730 7731 7736
805 10 7735 7730 7731 7736
806 11 7733 7730 7731 7737
807 12 7735 7730 7733 7739
808 13 7734 7730 7731 7737
809 14 7732 7731 7730 7735
810 15 7733 7730 7731 7736
811 1 7742 7741 7740 7743
812 2 7740 7741 7742 7748
813 3 7741 7740 7743 7749
814 4 7742 7741 7740 7744
815 5 7745 7740 7741 7747
816 6 7744 7740 7743 7749
817 7 7747 7741 7742 7748
818 8 7746 7741 7742 7748
819 9 7744 7740 7741 7746
820 10 7745 7740 7741 7746
821 11 7743 7740 7741 7747
822 12 7745 7740 7743 7749
823 13 7744 7740 7741 7747
824 14 7742 7741 7740 7745
825 15 7743 7740 7741 7746
826 16 7750 7751 7752 7753
827 17 7751 7752 7753 7754
828 18 7752 7753 7754 7755
829 19 7752 7751 7750 7758
830 20 7754 7755 7757 7766
831 21 7756 7752 7751 7761
832 22 7754 7753 7752 7756
833 23 7756 7752 7751 7762
834 24 7751 7752 7753 7763
835 25 7754 7755 7757 7767
836 26 7756 7755 7757 7766
837 27 7757 7755 7754 7764
838 28 7752 7751 7750 7760
839 29 7753 7752 7756 7755
840 30 7754 7755 7757 7768
841 31 7751 7752 7756 7755
842 32 7756 7755 7757 7768
843 33 7757 7755 7756 7765
844 34 7750 7751 7752 7756
845 35 7753 7752 7756 7765
846 36 7752 7756 7755 7754
847 37 7763 7753 7754 7764
848 38 7753 7754 7755 7757
849 39 7760 7750 7751 7762
850 40 7753 7752 7751 7761
851 41 7756 7755 7757 7767
852 42 7756 7755 7754 7764
853 43 7753 7752 7751 7762
854 44 7752 7756 7755 7757
855 45 7752 7753 7754 7764
856 46 7753 7754 7755 7756
857 47 7760 7750 7751 7761
858 48 7759 7750 7751 7762
859 49 7752 7751 7750 7759
860 50 7754 7755 7756 7765
861 51 7751 7752 7756 7765
862 52 7758 7750 7751 7762
863 53 7756 7752 7753 7763
864 54 7759 7750 7751 7761
865 55 7755 7754 7753 7763
866 56 7758 7750 7751 7761

Impropers

1 1 7200 7201 7203 7204
2 2 7200 7201 7203 7205
3 3 7201 7200 7202 7206
4 4 7201 7200 7202 7207
5 1 7210 7211 7213 7214
6 2 7210 7211 7213 7215
7 3 7211 7210 7212 7216
8 4 7211 7210 7212 7217
9 1 7220 7221 7223 7224
10 2 7220 7221 7223 7225
11 3 7221 7220 7222 7226
12 4 7221 7220 7222 7227
13 1 7230 7231 7233 7234
14 2 7230 7231 7233 7235
15 3 7231 7230 7232 7236
16 4 7231 7230 7232 7237
17 1 7240 7241 7243 7244
18 2 7240 7241 7243 7245
19 3 7241 7240 7242 7246
20 4 7241 7240 7242 7247
21 1 7250 7251 7253 7254
22 2 7250 7251 7253 7255
23 3 7251 7250 7252 7256
24 4 7251 7250 7252 7257
25 1 7260 7261 7263 7264
26 2 7260 7261 7263 7265
27 3 7261 7260 7262 7266
28 4 7261 7260 7262 7267
29 1 7270 7271 7273 7274
30 2 7270 7271 7273 7275
31 3 7271 7270 7272 7276
32 4 7271 7270 7272 7277
33 1 7280 7281 7283 7284
34 2 7280 7281 7283 7285
35 3 7281 7280 7282 7286
36 4 7281 7280 7282 7287
37 1 7290 7291 7293 7294
38 2 7290 7291 7293 7295
39 3 7291 7290 7292 7296
40 4 7291 7290 7292 7297
41 1 7300 7301 7303 7304
42 2 7300 7301 7303 7305
43 3 7301 7300 7302 7306
44 4 7301 7300 7302 7307
45 1 7310 7311 7313 7314
46 2 7310 7311 7313 7315
47 3 7311 7310 7312 7316
48 4 7311 7310 7312 7317
49 1 7320 7321 7323 7324
50 2 7320 7321 7323 7325
51 3 7321 7320 7322 7326
52 4 7321 7320 7322 7327
53 1 7330 7331 7333 7334
54 2 7330 7331 7333 7335
55 3 7331 7330 7332 7336
56 4 7331 7330 7332 7337
57 1 7340 7341 7343 7344
58 2 7340 7341 7343 7345
59 3 7341 7340 7342 7346
60 4 7341 7340 7342 7347
61 1 7350 7351 7353 7354
62 2 7350 7351 7353 7355
63 3 7351 7350 7352 7356
64 4 7351 7350 7352 7357
65 1 7360 7361 7363 7364
66 2 7360 7361 7363 7365
67 3 7361 7360 7362 7366
68 4 7361 7360 7362 7367
69 1 7370 7371 7373 7374
70 2 7370 7371 7373 7375
71 3 7371 7370 7372 7376
72 4 7371 7370 7372 7377
73 1 7380 7381 7383 7384
74 2 7380 7381 7383 7385
75 3 7381 7380 7382 7386
76 4 7381 7380 7382 7387
77 1 7390 7391 7393 7394
78 2 7390 7391 7393 7395
79 3 7391 7390 7392 7396
80 4 7391 7390 7392 7397
81 1 7400 7401 7403 7404
82 2 7400 7401 7403 7405
83 3 7401 7400 7402 7406
84 4 7401 7400 7402 7407
85 1 7410 7411 7413 7414
86 2 7410 7411 7413 7415
87 3 7411 7410 7412 7416
88 4 7411 7410 7412 7417
89 1 7420 7421 7423 7424
90 2 7420 7421 7423 7425
91 3 7421 7420 7422 7426
92 4 7421 7420 7422 7427
93 1 7430 7431 7433 7434
94 2 7430 7431 7433 7435
95 3 7431 7430 7432 7436
96 4 7431 7430 7432 7437
97 1 7440 7441 7443 7444
98 2 7440 7441 7443 7445
99 3 7441 7440 7442 7446
100 4 7441 7440 7442 7447
101 1 7450 7451 7453 7454
102 2 7450 7451 7453 7455
103 3 7451 7450 7452 7456
104 4 7451 7450 7452 7457
105 1 7460 7461 7463 7464
106 2 7460 7461 7463 7465
107 3 7461 7460 7462 7466
108 4 7461 7460 7462 7467
109 1 7470 7471 7473 7474
110 2 7470 7471 7473 7475
111 3 7471 7470 7472 7476
112 4 7471 7470 7472 7477
113 1 7480 7481 7483 7484
114 2 7480 7481 7483 7485
115 3 7481 7480 7482 7486
116 4 7481 7480 7482 7487
117 1 7490 7491 7493 7494
118 2 7490 7491 7493 7495
119 3 7491 7490 7492 7496
120 4 7491 7490 7492 7497
121 1 7500 7501 7503 7504
122 2 7500 7501 7503 7505
123 3 7501 7500 7502 7506
124 4 7501 7500 7502 7507
125 1 7510 7511 7513 7514
126 2 7510 7511 7513 7515
127 3 7511 7510 7512 7516
128 4 7511 7510 7512 7517
129 1 7520 7521 7523 7524
130 2 7520 7521 7523 7525
131 3 7521 7520 7522 7526
132 4 7521 7520 7522 7527
133 1 7530 7531 7533 7534
134 2 7530 7531 7533 7535
135 3 7531 7530 7532 7536
136 4 7531 7530 7532 7537
137 1 7540 7541 7543 7544
138 2 7540 7541 7543 7545
139 3 7541 7540 7542 7546
140 4 7541 7540 7542 7547
141 1 7550 7551 7553 7554
142 2 7550 7551 7553 7555
143 3 7551 7550 7552 7556
144 4 7551 7550 7552 7557
145 1 7560 7561 7563 7564
146 2 7560 7561 7563 7565
147 3 7561 7560 7562 7566
148 4 7561 7560 7562 7567
149 1 7570 7571 7573 7574
150 2 7570 7571 7573 7575
151 3 7571 7570 7572 7576
152 4 7571 7570 7572 7577
153 1 7580 7581 7583 7584
154 2 7580 7581 7583 7585
155 3 7581 7580 7582 7586
156 4 7581 7580 7582 7587
157 1 7590 7591 7593 7594
158 2 7590 7591 7593 7595
159 3 7591 7590 7592 7596
160 4 7591 7590 7592 7597
161 1 7600 7601 7603 7604
162 2 7600 7601 7603 7605
163 3 7601 7600 7602 7606
164 4 7601 7600 7602 7607
165 1 7610 7611 7613 7614
166 2 7610 7611 7613 7615
167 3 7611 7610 7612 7616
168 4 7611 7610 7612 7617
169 1 7620 7621 7623 7624
170 2 7620 7621 7623 7625
171 3 7621 7620 7622 7626
172 4 7621 7620 7622 7627
173 1 7630 7631 7633 7634
174 2 7630 7631 7633 7635
175 3 7631 7630 7632 7636
176 4 7631 7630 7632 7637
177 1 7640 7641 7643 7644
178 2 7640 7641 7643 7645
179 3 7641 7640 7642 7646
180 4 7641 7640 7642 7647
181 1 7650 7651 7653 7654
182 2 7650 7651 7653 7655
183 3 7651 7650 7652 7656
184 4 7651 7650 7652 7657
185 1 7660 7661 7663 7664
186 2 7660 7661 7663 7665
187 3 7661 7660 7662 7666
188 4 7661 7660 7662 7667
189 1 7670 7671 7673 7674
190 2 7670 7671 7673 7675
191 3 7671 7670 7672 7676
192 4 7671 7670 7672 7677
193 1 7680 7681 7683 7684
194 2 7680 7681 7683 7685
195 3 7681 7680 7682 7686
196 4 7681 7680 7682 7687
197 1 7690 7691 7693 7694
198 2 7690 7691 7693 7695
199 3 7691 7690 7692 7696
200 4 7691 7690 7692 7697
201 1 7700 7701 7703 7704
202 2 7700 7701 7703 7705
203 3 7701 7700 7702 7706
204 4 7701 7700 7702 7707
205 1 7710 7711 7713 7714
206 2 7710 7711 7713 7715
207 3 7711 7710 7712 7716
208 4 7711 7710 7712 7717
209 1 7720 7721 7723 7724
210 2 7720 7721 7723 7725
211 3 7721 7720 7722 7726
212 4 7721 7720 7722 7727
213 1 7730 7731 7733 7734
214 2 7730 7731 7733 7735
215 3 7731 7730 7732 7736
216 4 7731 7730 7732 7737
217 1 7740 7741 7743 7744
218 2 7740 7741 7743 7745
219 3 7741 7740 7742 7746
220 4 7741 7740 7742 7747
221 5 7752 7751 7753 7756
222 6 7755 7754 7756 7757
223 7 7750 7758 7759 7751
224 8 7750 7751 7760 7758
225 9 7751 7750 7752 7761
226 10 7751 7750 7752 7762
227 11 7753 7752 7754 7763
228 12 7754 7753 7755 7764
229 13 7756 7752 7755 7765
230 14 7757 7766 7767 7755
231 15 7757 7766 7768 7755

