LAMMPS Description

7622  atoms
4868  bonds
2788  angles
376  dihedrals
55  impropers

29  atom types
24  bond types
38  angle types
45  dihedral types
11  improper types

0.0 23.7750 xlo xhi
0.0 100 ylo yhi
0.0 35.6625 zlo zhi

Masses

1 15.999400  # O
2 1.007970  # H
3 16.043030  # CT
4 24.3  # Mg
5 35.453  # Cl
6 15.999  # OH
7 1.008  # HO
8 1.008  # HC
9 12.01  # CT
10 12.011  # type1
11 12.011  # type2
12 14.007  # type3
13 12.011  # type4
14 12.011  # type5
15 14.007  # type6
16 12.011  # type7
17 12.011  # type8
18 15.999  # type9
19 1.008  # type10
20 1.008  # type11
21 1.008  # type12
22 1.008  # type13
23 1.008  # type14
24 1.008  # type15
25 1.008  # type16
26 1.008  # type17
27 1.008  # type18
28 1.008  # type19
29 1.008  # type20

Atoms

1 1 1 -1.1794 0.000000 5.943750 2.971875
2 1 2 0.5897 0.009656 6.746382 2.401692
3 1 2 0.5897 0.819206 6.078805 3.500477
4 1 1 -1.1794 0.000000 5.943750 8.915625
5 1 2 0.5897 0.281067 6.808436 9.277971
6 1 2 0.5897 0.723234 5.812773 8.254920
7 1 1 -1.1794 2.971875 0.000000 5.943750
8 1 2 0.5897 2.409366 0.112795 6.741859
9 1 2 0.5897 3.506404 0.826096 5.955505
10 1 1 -1.1794 8.915625 0.000000 5.943750
11 1 2 0.5897 8.353117 0.798110 6.056546
12 1 2 0.5897 9.450153 0.011753 6.769848
13 1 1 -1.1794 5.943750 2.971875 0.000000
14 1 2 0.5897 6.224823 3.334227 0.864683
15 1 2 0.5897 6.666985 2.311172 -0.130979
16 1 1 -1.1794 5.943750 8.915625 0.000000
17 1 2 0.5897 5.953409 8.345441 0.802632
18 1 2 0.5897 6.762955 9.444227 0.135054
19 1 1 -1.1794 2.195740 2.195740 2.195740
20 1 2 0.5897 1.930743 1.402781 2.721735
21 1 2 0.5897 2.708046 2.708072 2.862811
22 1 1 -1.1794 9.691760 9.691760 2.195740
23 1 2 0.5897 9.978388 10.516781 2.648501
24 1 2 0.5897 9.116718 10.043814 1.480933
25 1 1 -1.1794 9.691760 2.195740 9.691760
26 1 2 0.5897 9.154281 2.782308 9.104938
27 1 2 0.5897 10.452871 2.782332 9.905926
28 1 1 -1.1794 2.195740 9.691760 9.691760
29 1 2 0.5897 1.433515 9.188865 10.050449
30 1 2 0.5897 2.654073 9.949780 10.533970
31 1 1 -1.1794 8.139490 8.139490 3.748010
32 1 2 0.5897 8.055452 8.606915 4.601005
33 1 2 0.5897 8.845452 8.644310 3.294149
34 1 1 -1.1794 3.748010 3.748010 3.748010
35 1 2 0.5897 4.002365 3.184788 4.519697
36 1 2 0.5897 4.639981 3.970836 3.410372
37 1 1 -1.1794 8.139490 3.748010 8.139490
38 1 2 0.5897 7.353136 4.110945 8.609681
39 1 2 0.5897 8.567214 4.572992 7.810198
40 1 1 -1.1794 3.748010 8.139490 8.139490
41 1 2 0.5897 3.235613 8.731546 8.742287
42 1 2 0.5897 4.491456 7.869471 8.725499
43 1 1 -1.1794 9.691760 9.691760 9.691760
44 1 2 0.5897 9.946137 10.463442 9.128541
45 1 2 0.5897 10.583721 9.354096 9.914592
46 1 1 -1.1794 2.195740 2.195740 9.691760
47 1 2 0.5897 1.409385 2.665929 10.054694
48 1 2 0.5897 2.623464 1.866447 10.516742
49 1 1 -1.1794 2.195740 9.691760 2.195740
50 1 2 0.5897 2.111703 10.544755 2.663166
51 1 2 0.5897 2.901702 9.237898 2.700560
52 1 1 -1.1794 9.691760 2.195740 2.195740
53 1 2 0.5897 9.179361 2.798535 2.787796
54 1 2 0.5897 10.435205 2.781750 1.925722
55 1 1 -1.1794 3.748010 3.748010 8.139490
56 1 2 0.5897 3.210531 3.161188 8.726058
57 1 2 0.5897 4.509120 3.962177 8.726082
58 1 1 -1.1794 8.139490 8.139490 8.139490
59 1 2 0.5897 7.874494 8.665484 7.346530
60 1 2 0.5897 8.651795 8.806563 8.651821
61 1 1 -1.1794 3.748010 8.139490 3.748010
62 1 2 0.5897 4.034637 8.592251 4.573031
63 1 2 0.5897 3.172969 7.424681 4.100063
64 1 1 -1.1794 8.139490 3.748010 3.748010
65 1 2 0.5897 7.377269 4.106705 3.245111
66 1 2 0.5897 8.597826 4.590218 4.006031
67 1 1 -1.1794 0.000000 3.679775 1.385607
68 1 2 0.5897 0.035498 4.459067 1.989457
69 1 2 0.5897 0.798485 3.179090 1.671756
70 1 1 -1.1794 0.000000 8.207725 1.385607
71 1 2 0.5897 -0.758631 8.731842 1.737352
72 1 2 0.5897 0.759372 8.779826 1.670376
73 1 1 -1.1794 0.000000 3.679775 10.501893
74 1 2 0.5897 -0.044368 3.851890 11.469464
75 1 2 0.5897 -0.018559 4.578141 10.109946
76 1 1 -1.1794 0.000000 8.207725 10.501893
77 1 2 0.5897 0.205529 8.274438 11.469986
78 1 2 0.5897 -0.779451 7.629397 10.587942
79 1 1 -1.1794 1.385607 0.000000 3.679775
80 1 2 0.5897 0.417726 -0.094659 3.821134
81 1 2 0.5897 1.754570 -0.099428 4.581968
82 1 1 -1.1794 1.385607 0.000000 8.207725
83 1 2 0.5897 1.716836 0.746754 8.758036
84 1 2 0.5897 1.714706 -0.771043 8.726950
85 1 1 -1.1794 10.501893 0.000000 3.679775
86 1 2 0.5897 9.916808 0.006667 4.472479
87 1 2 0.5897 10.184338 0.799264 3.201735
88 1 1 -1.1794 10.501893 0.000000 8.207725
89 1 2 0.5897 10.305638 0.798873 8.749125
90 1 2 0.5897 11.480928 0.066494 8.116678
91 1 1 -1.1794 3.679775 1.385607 0.000000
92 1 2 0.5897 3.181486 1.660080 0.803227
93 1 2 0.5897 4.465410 1.972311 0.037997
94 1 1 -1.1794 8.207725 1.385607 0.000000
95 1 2 0.5897 8.780854 1.614855 0.769515
96 1 2 0.5897 8.792041 1.653488 -0.747865
97 1 1 -1.1794 3.679775 10.501893 0.000000
98 1 2 0.5897 3.869586 11.452377 0.104347
99 1 2 0.5897 4.546334 10.068458 0.112136
100 1 1 -1.1794 8.207725 10.501893 0.000000
101 1 2 0.5897 8.122284 11.478258 -0.083426
102 1 2 0.5897 8.687717 10.276857 -0.827363
103 1 1 -1.1794 9.623525 5.943750 4.558143
104 1 2 0.5897 9.813335 6.048098 5.508627
105 1 2 0.5897 10.490084 6.055885 4.124708
106 1 1 -1.1794 2.263975 5.943750 4.558143
107 1 2 0.5897 2.178531 5.860324 5.534508
108 1 2 0.5897 2.743967 5.116387 4.333108
109 1 1 -1.1794 9.623525 5.943750 7.329357
110 1 2 0.5897 9.125238 6.746978 7.603833
111 1 2 0.5897 10.409160 5.981743 7.916061
112 1 1 -1.1794 2.263975 5.943750 7.329357
113 1 2 0.5897 2.837102 6.713267 7.558605
114 1 2 0.5897 2.848293 5.195886 7.597239
115 1 1 -1.1794 5.943750 7.329357 2.263975
116 1 2 0.5897 5.185122 7.681106 2.788093
117 1 2 0.5897 6.703124 7.614122 2.836075
118 1 1 -1.1794 5.943750 7.329357 9.623525
119 1 2 0.5897 5.979250 7.933206 10.402818
120 1 2 0.5897 6.742237 7.615502 9.122842
121 1 1 -1.1794 5.943750 4.558143 2.263975
122 1 2 0.5897 6.149264 5.526242 2.330661
123 1 2 0.5897 5.164278 4.644161 1.685681
124 1 1 -1.1794 5.943750 4.558143 9.623525
125 1 2 0.5897 5.899383 5.525713 9.795644
126 1 2 0.5897 5.925192 4.166192 10.521889
127 1 1 -1.1794 7.329357 9.623525 5.943750
128 1 2 0.5897 6.361476 9.764884 5.849090
129 1 2 0.5897 7.698320 10.525718 5.844322
130 1 1 -1.1794 7.329357 2.263975 5.943750
131 1 2 0.5897 7.660588 2.814285 6.690503
132 1 2 0.5897 7.658458 2.783199 5.172706
133 1 1 -1.1794 4.558143 9.623525 5.943750
134 1 2 0.5897 3.973056 10.416229 5.950416
135 1 2 0.5897 4.240588 9.145485 6.743014
136 1 1 -1.1794 4.558143 2.263975 5.943750
137 1 2 0.5897 4.361890 2.805372 6.742625
138 1 2 0.5897 5.537178 2.172928 6.010242
139 1 3 0.0 0.000000 0.000000 0.000000
140 1 3 0.0 5.943750 5.943750 5.943750
141 1 3 0.0 0.000000 2.971875 5.943750
142 1 3 0.0 0.000000 8.915625 5.943750
143 1 3 0.0 5.943750 0.000000 2.971875
144 1 3 0.0 5.943750 0.000000 8.915625
145 1 3 0.0 2.971875 5.943750 0.000000
146 1 3 0.0 8.915625 5.943750 0.000000
147 2 1 -1.1794 0.000000 5.943750 14.859375
148 2 2 0.5897 0.009656 6.746382 14.289192
149 2 2 0.5897 0.819206 6.078805 15.387977
150 2 1 -1.1794 0.000000 5.943750 20.803125
151 2 2 0.5897 0.281067 6.808436 21.165471
152 2 2 0.5897 0.723234 5.812773 20.142420
153 2 1 -1.1794 2.971875 0.000000 17.831250
154 2 2 0.5897 2.409366 0.112795 18.629359
155 2 2 0.5897 3.506404 0.826096 17.843005
156 2 1 -1.1794 8.915625 0.000000 17.831250
157 2 2 0.5897 8.353117 0.798110 17.944046
158 2 2 0.5897 9.450153 0.011753 18.657348
159 2 1 -1.1794 5.943750 2.971875 11.887500
160 2 2 0.5897 6.224823 3.334227 12.752183
161 2 2 0.5897 6.666985 2.311172 11.756521
162 2 1 -1.1794 5.943750 8.915625 11.887500
163 2 2 0.5897 5.953409 8.345441 12.690132
164 2 2 0.5897 6.762955 9.444227 12.022554
165 2 1 -1.1794 2.195740 2.195740 14.083240
166 2 2 0.5897 1.930743 1.402781 14.609235
167 2 2 0.5897 2.708046 2.708072 14.750311
168 2 1 -1.1794 9.691760 9.691760 14.083240
169 2 2 0.5897 9.978388 10.516781 14.536001
170 2 2 0.5897 9.116718 10.043814 13.368433
171 2 1 -1.1794 9.691760 2.195740 21.579260
172 2 2 0.5897 9.154281 2.782308 20.992438
173 2 2 0.5897 10.452871 2.782332 21.793426
174 2 1 -1.1794 2.195740 9.691760 21.579260
175 2 2 0.5897 1.433515 9.188865 21.937949
176 2 2 0.5897 2.654073 9.949780 22.421470
177 2 1 -1.1794 8.139490 8.139490 15.635510
178 2 2 0.5897 8.055452 8.606915 16.488505
179 2 2 0.5897 8.845452 8.644310 15.181649
180 2 1 -1.1794 3.748010 3.748010 15.635510
181 2 2 0.5897 4.002365 3.184788 16.407197
182 2 2 0.5897 4.639981 3.970836 15.297872
183 2 1 -1.1794 8.139490 3.748010 20.026990
184 2 2 0.5897 7.353136 4.110945 20.497181
185 2 2 0.5897 8.567214 4.572992 19.697698
186 2 1 -1.1794 3.748010 8.139490 20.026990
187 2 2 0.5897 3.235613 8.731546 20.629787
188 2 2 0.5897 4.491456 7.869471 20.612999
189 2 1 -1.1794 9.691760 9.691760 21.579260
190 2 2 0.5897 9.946137 10.463442 21.016041
191 2 2 0.5897 10.583721 9.354096 21.802092
192 2 1 -1.1794 2.195740 2.195740 21.579260
193 2 2 0.5897 1.409385 2.665929 21.942194
194 2 2 0.5897 2.623464 1.866447 22.404242
195 2 1 -1.1794 2.195740 9.691760 14.083240
196 2 2 0.5897 2.111703 10.544755 14.550666
197 2 2 0.5897 2.901702 9.237898 14.588060
198 2 1 -1.1794 9.691760 2.195740 14.083240
199 2 2 0.5897 9.179361 2.798535 14.675296
200 2 2 0.5897 10.435205 2.781750 13.813222
201 2 1 -1.1794 3.748010 3.748010 20.026990
202 2 2 0.5897 3.210531 3.161188 20.613558
203 2 2 0.5897 4.509120 3.962177 20.613582
204 2 1 -1.1794 8.139490 8.139490 20.026990
205 2 2 0.5897 7.874494 8.665484 19.234030
206 2 2 0.5897 8.651795 8.806563 20.539321
207 2 1 -1.1794 3.748010 8.139490 15.635510
208 2 2 0.5897 4.034637 8.592251 16.460531
209 2 2 0.5897 3.172969 7.424681 15.987563
210 2 1 -1.1794 8.139490 3.748010 15.635510
211 2 2 0.5897 7.377269 4.106705 15.132611
212 2 2 0.5897 8.597826 4.590218 15.893531
213 2 1 -1.1794 0.000000 3.679775 13.273107
214 2 2 0.5897 0.035498 4.459067 13.876957
215 2 2 0.5897 0.798485 3.179090 13.559256
216 2 1 -1.1794 0.000000 8.207725 13.273107
217 2 2 0.5897 -0.758631 8.731842 13.624852
218 2 2 0.5897 0.759372 8.779826 13.557876
219 2 1 -1.1794 0.000000 3.679775 22.389393
220 2 2 0.5897 -0.044368 3.851890 23.356964
221 2 2 0.5897 -0.018559 4.578141 21.997446
222 2 1 -1.1794 0.000000 8.207725 22.389393
223 2 2 0.5897 0.205529 8.274438 23.357486
224 2 2 0.5897 -0.779451 7.629397 22.475442
225 2 1 -1.1794 1.385607 0.000000 15.567275
226 2 2 0.5897 0.417726 -0.094659 15.708634
227 2 2 0.5897 1.754570 -0.099428 16.469468
228 2 1 -1.1794 1.385607 0.000000 20.095225
229 2 2 0.5897 1.716836 0.746754 20.645536
230 2 2 0.5897 1.714706 -0.771043 20.614450
231 2 1 -1.1794 10.501893 0.000000 15.567275
232 2 2 0.5897 9.916808 0.006667 16.359979
233 2 2 0.5897 10.184338 0.799264 15.089235
234 2 1 -1.1794 10.501893 0.000000 20.095225
235 2 2 0.5897 10.305638 0.798873 20.636625
236 2 2 0.5897 11.480928 0.066494 20.004178
237 2 1 -1.1794 3.679775 1.385607 11.887500
238 2 2 0.5897 3.181486 1.660080 12.690727
239 2 2 0.5897 4.465410 1.972311 11.925497
240 2 1 -1.1794 8.207725 1.385607 11.887500
241 2 2 0.5897 8.780854 1.614855 12.657015
242 2 2 0.5897 8.792041 1.653488 11.139635
243 2 1 -1.1794 3.679775 10.501893 11.887500
244 2 2 0.5897 3.869586 11.452377 11.991847
245 2 2 0.5897 4.546334 10.068458 11.999636
246 2 1 -1.1794 8.207725 10.501893 11.887500
247 2 2 0.5897 8.122284 11.478258 11.804074
248 2 2 0.5897 8.687717 10.276857 11.060137
249 2 1 -1.1794 9.623525 5.943750 16.445643
250 2 2 0.5897 9.813335 6.048098 17.396127
251 2 2 0.5897 10.490084 6.055885 16.012208
252 2 1 -1.1794 2.263975 5.943750 16.445643
253 2 2 0.5897 2.178531 5.860324 17.422008
254 2 2 0.5897 2.743967 5.116387 16.220608
255 2 1 -1.1794 9.623525 5.943750 19.216857
256 2 2 0.5897 9.125238 6.746978 19.491333
257 2 2 0.5897 10.409160 5.981743 19.803561
258 2 1 -1.1794 2.263975 5.943750 19.216857
259 2 2 0.5897 2.837102 6.713267 19.446105
260 2 2 0.5897 2.848293 5.195886 19.484739
261 2 1 -1.1794 5.943750 7.329357 14.151475
262 2 2 0.5897 5.185122 7.681106 14.675593
263 2 2 0.5897 6.703124 7.614122 14.723575
264 2 1 -1.1794 5.943750 7.329357 21.511025
265 2 2 0.5897 5.979250 7.933206 22.290318
266 2 2 0.5897 6.742237 7.615502 21.010342
267 2 1 -1.1794 5.943750 4.558143 14.151475
268 2 2 0.5897 6.149264 5.526242 14.218161
269 2 2 0.5897 5.164278 4.644161 13.573181
270 2 1 -1.1794 5.943750 4.558143 21.511025
271 2 2 0.5897 5.899383 5.525713 21.683144
272 2 2 0.5897 5.925192 4.166192 22.409389
273 2 1 -1.1794 7.329357 9.623525 17.831250
274 2 2 0.5897 6.361476 9.764884 17.736590
275 2 2 0.5897 7.698320 10.525718 17.731822
276 2 1 -1.1794 7.329357 2.263975 17.831250
277 2 2 0.5897 7.660588 2.814285 18.578003
278 2 2 0.5897 7.658458 2.783199 17.060206
279 2 1 -1.1794 4.558143 9.623525 17.831250
280 2 2 0.5897 3.973056 10.416229 17.837916
281 2 2 0.5897 4.240588 9.145485 18.630514
282 2 1 -1.1794 4.558143 2.263975 17.831250
283 2 2 0.5897 4.361890 2.805372 18.630125
284 2 2 0.5897 5.537178 2.172928 17.897742
285 2 3 0.0 0.000000 0.000000 11.887500
286 2 3 0.0 5.943750 5.943750 17.831250
287 2 3 0.0 0.000000 2.971875 17.831250
288 2 3 0.0 0.000000 8.915625 17.831250
289 2 3 0.0 5.943750 0.000000 14.859375
290 2 3 0.0 5.943750 0.000000 20.803125
291 2 3 0.0 2.971875 5.943750 11.887500
292 2 3 0.0 8.915625 5.943750 11.887500
293 3 1 -1.1794 0.000000 5.943750 26.746875
294 3 2 0.5897 0.009656 6.746382 26.176692
295 3 2 0.5897 0.819206 6.078805 27.275477
296 3 1 -1.1794 0.000000 5.943750 32.690625
297 3 2 0.5897 0.281067 6.808436 33.052971
298 3 2 0.5897 0.723234 5.812773 32.029920
299 3 1 -1.1794 2.971875 0.000000 29.718750
300 3 2 0.5897 2.409366 0.112795 30.516859
301 3 2 0.5897 3.506404 0.826096 29.730505
302 3 1 -1.1794 8.915625 0.000000 29.718750
303 3 2 0.5897 8.353117 0.798110 29.831546
304 3 2 0.5897 9.450153 0.011753 30.544848
305 3 1 -1.1794 5.943750 2.971875 23.775000
306 3 2 0.5897 6.224823 3.334227 24.639683
307 3 2 0.5897 6.666985 2.311172 23.644021
308 3 1 -1.1794 5.943750 8.915625 23.775000
309 3 2 0.5897 5.953409 8.345441 24.577632
310 3 2 0.5897 6.762955 9.444227 23.910054
311 3 1 -1.1794 2.195740 2.195740 25.970740
312 3 2 0.5897 1.930743 1.402781 26.496735
313 3 2 0.5897 2.708046 2.708072 26.637811
314 3 1 -1.1794 9.691760 9.691760 25.970740
315 3 2 0.5897 9.978388 10.516781 26.423501
316 3 2 0.5897 9.116718 10.043814 25.255933
317 3 1 -1.1794 9.691760 2.195740 33.466760
318 3 2 0.5897 9.154281 2.782308 32.879938
319 3 2 0.5897 10.452871 2.782332 33.680926
320 3 1 -1.1794 2.195740 9.691760 33.466760
321 3 2 0.5897 1.433515 9.188865 33.825449
322 3 2 0.5897 2.654073 9.949780 34.308970
323 3 1 -1.1794 8.139490 8.139490 27.523010
324 3 2 0.5897 8.055452 8.606915 28.376005
325 3 2 0.5897 8.845452 8.644310 27.069149
326 3 1 -1.1794 3.748010 3.748010 27.523010
327 3 2 0.5897 4.002365 3.184788 28.294697
328 3 2 0.5897 4.639981 3.970836 27.185372
329 3 1 -1.1794 8.139490 3.748010 31.914490
330 3 2 0.5897 7.353136 4.110945 32.384681
331 3 2 0.5897 8.567214 4.572992 31.585198
332 3 1 -1.1794 3.748010 8.139490 31.914490
333 3 2 0.5897 3.235613 8.731546 32.517287
334 3 2 0.5897 4.491456 7.869471 32.500499
335 3 1 -1.1794 9.691760 9.691760 33.466760
336 3 2 0.5897 9.946137 10.463442 32.903541
337 3 2 0.5897 10.583721 9.354096 33.689592
338 3 1 -1.1794 2.195740 2.195740 33.466760
339 3 2 0.5897 1.409385 2.665929 33.829694
340 3 2 0.5897 2.623464 1.866447 34.291742
341 3 1 -1.1794 2.195740 9.691760 25.970740
342 3 2 0.5897 2.111703 10.544755 26.438166
343 3 2 0.5897 2.901702 9.237898 26.475560
344 3 1 -1.1794 9.691760 2.195740 25.970740
345 3 2 0.5897 9.179361 2.798535 26.562796
346 3 2 0.5897 10.435205 2.781750 25.700722
347 3 1 -1.1794 3.748010 3.748010 31.914490
348 3 2 0.5897 3.210531 3.161188 32.501058
349 3 2 0.5897 4.509120 3.962177 32.501082
350 3 1 -1.1794 8.139490 8.139490 31.914490
351 3 2 0.5897 7.874494 8.665484 31.121530
352 3 2 0.5897 8.651795 8.806563 32.426821
353 3 1 -1.1794 3.748010 8.139490 27.523010
354 3 2 0.5897 4.034637 8.592251 28.348031
355 3 2 0.5897 3.172969 7.424681 27.875063
356 3 1 -1.1794 8.139490 3.748010 27.523010
357 3 2 0.5897 7.377269 4.106705 27.020111
358 3 2 0.5897 8.597826 4.590218 27.781031
359 3 1 -1.1794 0.000000 3.679775 25.160607
360 3 2 0.5897 0.035498 4.459067 25.764457
361 3 2 0.5897 0.798485 3.179090 25.446756
362 3 1 -1.1794 0.000000 8.207725 25.160607
363 3 2 0.5897 -0.758631 8.731842 25.512352
364 3 2 0.5897 0.759372 8.779826 25.445376
365 3 1 -1.1794 0.000000 3.679775 34.276893
366 3 2 0.5897 -0.044368 3.851890 35.244464
367 3 2 0.5897 -0.018559 4.578141 33.884946
368 3 1 -1.1794 0.000000 8.207725 34.276893
369 3 2 0.5897 0.205529 8.274438 35.244986
370 3 2 0.5897 -0.779451 7.629397 34.362942
371 3 1 -1.1794 1.385607 0.000000 27.454775
372 3 2 0.5897 0.417726 -0.094659 27.596134
373 3 2 0.5897 1.754570 -0.099428 28.356968
374 3 1 -1.1794 1.385607 0.000000 31.982725
375 3 2 0.5897 1.716836 0.746754 32.533036
376 3 2 0.5897 1.714706 -0.771043 32.501950
377 3 1 -1.1794 10.501893 0.000000 27.454775
378 3 2 0.5897 9.916808 0.006667 28.247479
379 3 2 0.5897 10.184338 0.799264 26.976735
380 3 1 -1.1794 10.501893 0.000000 31.982725
381 3 2 0.5897 10.305638 0.798873 32.524125
382 3 2 0.5897 11.480928 0.066494 31.891678
383 3 1 -1.1794 3.679775 1.385607 23.775000
384 3 2 0.5897 3.181486 1.660080 24.578227
385 3 2 0.5897 4.465410 1.972311 23.812997
386 3 1 -1.1794 8.207725 1.385607 23.775000
387 3 2 0.5897 8.780854 1.614855 24.544515
388 3 2 0.5897 8.792041 1.653488 23.027135
389 3 1 -1.1794 3.679775 10.501893 23.775000
390 3 2 0.5897 3.869586 11.452377 23.879347
391 3 2 0.5897 4.546334 10.068458 23.887136
392 3 1 -1.1794 8.207725 10.501893 23.775000
393 3 2 0.5897 8.122284 11.478258 23.691574
394 3 2 0.5897 8.687717 10.276857 22.947637
395 3 1 -1.1794 9.623525 5.943750 28.333143
396 3 2 0.5897 9.813335 6.048098 29.283627
397 3 2 0.5897 10.490084 6.055885 27.899708
398 3 1 -1.1794 2.263975 5.943750 28.333143
399 3 2 0.5897 2.178531 5.860324 29.309508
400 3 2 0.5897 2.743967 5.116387 28.108108
401 3 1 -1.1794 9.623525 5.943750 31.104357
402 3 2 0.5897 9.125238 6.746978 31.378833
403 3 2 0.5897 10.409160 5.981743 31.691061
404 3 1 -1.1794 2.263975 5.943750 31.104357
405 3 2 0.5897 2.837102 6.713267 31.333605
406 3 2 0.5897 2.848293 5.195886 31.372239
407 3 1 -1.1794 5.943750 7.329357 26.038975
408 3 2 0.5897 5.185122 7.681106 26.563093
409 3 2 0.5897 6.703124 7.614122 26.611075
410 3 1 -1.1794 5.943750 7.329357 33.398525
411 3 2 0.5897 5.979250 7.933206 34.177818
412 3 2 0.5897 6.742237 7.615502 32.897842
413 3 1 -1.1794 5.943750 4.558143 26.038975
414 3 2 0.5897 6.149264 5.526242 26.105661
415 3 2 0.5897 5.164278 4.644161 25.460681
416 3 1 -1.1794 5.943750 4.558143 33.398525
417 3 2 0.5897 5.899383 5.525713 33.570644
418 3 2 0.5897 5.925192 4.166192 34.296889
419 3 1 -1.1794 7.329357 9.623525 29.718750
420 3 2 0.5897 6.361476 9.764884 29.624090
421 3 2 0.5897 7.698320 10.525718 29.619322
422 3 1 -1.1794 7.329357 2.263975 29.718750
423 3 2 0.5897 7.660588 2.814285 30.465503
424 3 2 0.5897 7.658458 2.783199 28.947706
425 3 1 -1.1794 4.558143 9.623525 29.718750
426 3 2 0.5897 3.973056 10.416229 29.725416
427 3 2 0.5897 4.240588 9.145485 30.518014
428 3 1 -1.1794 4.558143 2.263975 29.718750
429 3 2 0.5897 4.361890 2.805372 30.517625
430 3 2 0.5897 5.537178 2.172928 29.785242
431 3 3 0.0 0.000000 0.000000 23.775000
432 3 3 0.0 5.943750 5.943750 29.718750
433 3 3 0.0 0.000000 2.971875 29.718750
434 3 3 0.0 0.000000 8.915625 29.718750
435 3 3 0.0 5.943750 0.000000 26.746875
436 3 3 0.0 5.943750 0.000000 32.690625
437 3 3 0.0 2.971875 5.943750 23.775000
438 3 3 0.0 8.915625 5.943750 23.775000
439 4 1 -1.1794 0.000000 17.831250 2.971875
440 4 2 0.5897 0.009656 18.633882 2.401692
441 4 2 0.5897 0.819206 17.966305 3.500477
442 4 1 -1.1794 0.000000 17.831250 8.915625
443 4 2 0.5897 0.281067 18.695936 9.277971
444 4 2 0.5897 0.723234 17.700273 8.254920
445 4 1 -1.1794 2.971875 11.887500 5.943750
446 4 2 0.5897 2.409366 12.000295 6.741859
447 4 2 0.5897 3.506404 12.713596 5.955505
448 4 1 -1.1794 8.915625 11.887500 5.943750
449 4 2 0.5897 8.353117 12.685610 6.056546
450 4 2 0.5897 9.450153 11.899253 6.769848
451 4 1 -1.1794 5.943750 14.859375 0.000000
452 4 2 0.5897 6.224823 15.221727 0.864683
453 4 2 0.5897 6.666985 14.198672 -0.130979
454 4 1 -1.1794 5.943750 20.803125 0.000000
455 4 2 0.5897 5.953409 20.232941 0.802632
456 4 2 0.5897 6.762955 21.331727 0.135054
457 4 1 -1.1794 2.195740 14.083240 2.195740
458 4 2 0.5897 1.930743 13.290281 2.721735
459 4 2 0.5897 2.708046 14.595572 2.862811
460 4 1 -1.1794 9.691760 21.579260 2.195740
461 4 2 0.5897 9.978388 22.404281 2.648501
462 4 2 0.5897 9.116718 21.931314 1.480933
463 4 1 -1.1794 9.691760 14.083240 9.691760
464 4 2 0.5897 9.154281 14.669808 9.104938
465 4 2 0.5897 10.452871 14.669832 9.905926
466 4 1 -1.1794 2.195740 21.579260 9.691760
467 4 2 0.5897 1.433515 21.076365 10.050449
468 4 2 0.5897 2.654073 21.837280 10.533970
469 4 1 -1.1794 8.139490 20.026990 3.748010
470 4 2 0.5897 8.055452 20.494415 4.601005
471 4 2 0.5897 8.845452 20.531810 3.294149
472 4 1 -1.1794 3.748010 15.635510 3.748010
473 4 2 0.5897 4.002365 15.072288 4.519697
474 4 2 0.5897 4.639981 15.858336 3.410372
475 4 1 -1.1794 8.139490 15.635510 8.139490
476 4 2 0.5897 7.353136 15.998445 8.609681
477 4 2 0.5897 8.567214 16.460492 7.810198
478 4 1 -1.1794 3.748010 20.026990 8.139490
479 4 2 0.5897 3.235613 20.619046 8.742287
480 4 2 0.5897 4.491456 19.756971 8.725499
481 4 1 -1.1794 9.691760 21.579260 9.691760
482 4 2 0.5897 9.946137 22.350942 9.128541
483 4 2 0.5897 10.583721 21.241596 9.914592
484 4 1 -1.1794 2.195740 14.083240 9.691760
485 4 2 0.5897 1.409385 14.553429 10.054694
486 4 2 0.5897 2.623464 13.753947 10.516742
487 4 1 -1.1794 2.195740 21.579260 2.195740
488 4 2 0.5897 2.111703 22.432255 2.663166
489 4 2 0.5897 2.901702 21.125398 2.700560
490 4 1 -1.1794 9.691760 14.083240 2.195740
491 4 2 0.5897 9.179361 14.686035 2.787796
492 4 2 0.5897 10.435205 14.669250 1.925722
493 4 1 -1.1794 3.748010 15.635510 8.139490
494 4 2 0.5897 3.210531 15.048688 8.726058
495 4 2 0.5897 4.509120 15.849677 8.726082
496 4 1 -1.1794 8.139490 20.026990 8.139490
497 4 2 0.5897 7.874494 20.552984 7.346530
498 4 2 0.5897 8.651795 20.694063 8.651821
499 4 1 -1.1794 3.748010 20.026990 3.748010
500 4 2 0.5897 4.034637 20.479751 4.573031
501 4 2 0.5897 3.172969 19.312181 4.100063
502 4 1 -1.1794 8.139490 15.635510 3.748010
503 4 2 0.5897 7.377269 15.994205 3.245111
504 4 2 0.5897 8.597826 16.477718 4.006031
505 4 1 -1.1794 0.000000 15.567275 1.385607
506 4 2 0.5897 0.035498 16.346567 1.989457
507 4 2 0.5897 0.798485 15.066590 1.671756
508 4 1 -1.1794 0.000000 20.095225 1.385607
509 4 2 0.5897 -0.758631 20.619342 1.737352
510 4 2 0.5897 0.759372 20.667326 1.670376
511 4 1 -1.1794 0.000000 15.567275 10.501893
512 4 2 0.5897 -0.044368 15.739390 11.469464
513 4 2 0.5897 -0.018559 16.465641 10.109946
514 4 1 -1.1794 0.000000 20.095225 10.501893
515 4 2 0.5897 0.205529 20.161938 11.469986
516 4 2 0.5897 -0.779451 19.516897 10.587942
517 4 1 -1.1794 1.385607 11.887500 3.679775
518 4 2 0.5897 0.417726 11.792841 3.821134
519 4 2 0.5897 1.754570 11.788072 4.581968
520 4 1 -1.1794 1.385607 11.887500 8.207725
521 4 2 0.5897 1.716836 12.634254 8.758036
522 4 2 0.5897 1.714706 11.116457 8.726950
523 4 1 -1.1794 10.501893 11.887500 3.679775
524 4 2 0.5897 9.916808 11.894167 4.472479
525 4 2 0.5897 10.184338 12.686764 3.201735
526 4 1 -1.1794 10.501893 11.887500 8.207725
527 4 2 0.5897 10.305638 12.686373 8.749125
528 4 2 0.5897 11.480928 11.953994 8.116678
529 4 1 -1.1794 3.679775 13.273107 0.000000
530 4 2 0.5897 3.181486 13.547580 0.803227
531 4 2 0.5897 4.465410 13.859811 0.037997
532 4 1 -1.1794 8.207725 13.273107 0.000000
533 4 2 0.5897 8.780854 13.502355 0.769515
534 4 2 0.5897 8.792041 13.540988 -0.747865
535 4 1 -1.1794 3.679775 22.389393 0.000000
536 4 2 0.5897 3.869586 23.339877 0.104347
537 4 2 0.5897 4.546334 21.955958 0.112136
538 4 1 -1.1794 8.207725 22.389393 0.000000
539 4 2 0.5897 8.122284 23.365758 -0.083426
540 4 2 0.5897 8.687717 22.164357 -0.827363
541 4 1 -1.1794 9.623525 17.831250 4.558143
542 4 2 0.5897 9.813335 17.935598 5.508627
543 4 2 0.5897 10.490084 17.943385 4.124708
544 4 1 -1.1794 2.263975 17.831250 4.558143
545 4 2 0.5897 2.178531 17.747824 5.534508
546 4 2 0.5897 2.743967 17.003887 4.333108
547 4 1 -1.1794 9.623525 17.831250 7.329357
548 4 2 0.5897 9.125238 18.634478 7.603833
549 4 2 0.5897 10.409160 17.869243 7.916061
550 4 1 -1.1794 2.263975 17.831250 7.329357
551 4 2 0.5897 2.837102 18.600767 7.558605
552 4 2 0.5897 2.848293 17.083386 7.597239
553 4 1 -1.1794 5.943750 19.216857 2.263975
554 4 2 0.5897 5.185122 19.568606 2.788093
555 4 2 0.5897 6.703124 19.501622 2.836075
556 4 1 -1.1794 5.943750 19.216857 9.623525
557 4 2 0.5897 5.979250 19.820706 10.402818
558 4 2 0.5897 6.742237 19.503002 9.122842
559 4 1 -1.1794 5.943750 16.445643 2.263975
560 4 2 0.5897 6.149264 17.413742 2.330661
561 4 2 0.5897 5.164278 16.531661 1.685681
562 4 1 -1.1794 5.943750 16.445643 9.623525
563 4 2 0.5897 5.899383 17.413213 9.795644
564 4 2 0.5897 5.925192 16.053692 10.521889
565 4 1 -1.1794 7.329357 21.511025 5.943750
566 4 2 0.5897 6.361476 21.652384 5.849090
567 4 2 0.5897 7.698320 22.413218 5.844322
568 4 1 -1.1794 7.329357 14.151475 5.943750
569 4 2 0.5897 7.660588 14.701785 6.690503
570 4 2 0.5897 7.658458 14.670699 5.172706
571 4 1 -1.1794 4.558143 21.511025 5.943750
572 4 2 0.5897 3.973056 22.303729 5.950416
573 4 2 0.5897 4.240588 21.032985 6.743014
574 4 1 -1.1794 4.558143 14.151475 5.943750
575 4 2 0.5897 4.361890 14.692872 6.742625
576 4 2 0.5897 5.537178 14.060428 6.010242
577 4 3 0.0 0.000000 11.887500 0.000000
578 4 3 0.0 5.943750 17.831250 5.943750
579 4 3 0.0 0.000000 14.859375 5.943750
580 4 3 0.0 0.000000 20.803125 5.943750
581 4 3 0.0 5.943750 11.887500 2.971875
582 4 3 0.0 5.943750 11.887500 8.915625
583 4 3 0.0 2.971875 17.831250 0.000000
584 4 3 0.0 8.915625 17.831250 0.000000
585 5 1 -1.1794 0.000000 17.831250 14.859375
586 5 2 0.5897 0.009656 18.633882 14.289192
587 5 2 0.5897 0.819206 17.966305 15.387977
588 5 1 -1.1794 0.000000 17.831250 20.803125
589 5 2 0.5897 0.281067 18.695936 21.165471
590 5 2 0.5897 0.723234 17.700273 20.142420
591 5 1 -1.1794 2.971875 11.887500 17.831250
592 5 2 0.5897 2.409366 12.000295 18.629359
593 5 2 0.5897 3.506404 12.713596 17.843005
594 5 1 -1.1794 8.915625 11.887500 17.831250
595 5 2 0.5897 8.353117 12.685610 17.944046
596 5 2 0.5897 9.450153 11.899253 18.657348
597 5 1 -1.1794 5.943750 14.859375 11.887500
598 5 2 0.5897 6.224823 15.221727 12.752183
599 5 2 0.5897 6.666985 14.198672 11.756521
600 5 1 -1.1794 5.943750 20.803125 11.887500
601 5 2 0.5897 5.953409 20.232941 12.690132
602 5 2 0.5897 6.762955 21.331727 12.022554
603 5 1 -1.1794 2.195740 14.083240 14.083240
604 5 2 0.5897 1.930743 13.290281 14.609235
605 5 2 0.5897 2.708046 14.595572 14.750311
606 5 1 -1.1794 9.691760 21.579260 14.083240
607 5 2 0.5897 9.978388 22.404281 14.536001
608 5 2 0.5897 9.116718 21.931314 13.368433
609 5 1 -1.1794 9.691760 14.083240 21.579260
610 5 2 0.5897 9.154281 14.669808 20.992438
611 5 2 0.5897 10.452871 14.669832 21.793426
612 5 1 -1.1794 2.195740 21.579260 21.579260
613 5 2 0.5897 1.433515 21.076365 21.937949
614 5 2 0.5897 2.654073 21.837280 22.421470
615 5 1 -1.1794 8.139490 20.026990 15.635510
616 5 2 0.5897 8.055452 20.494415 16.488505
617 5 2 0.5897 8.845452 20.531810 15.181649
618 5 1 -1.1794 3.748010 15.635510 15.635510
619 5 2 0.5897 4.002365 15.072288 16.407197
620 5 2 0.5897 4.639981 15.858336 15.297872
621 5 1 -1.1794 8.139490 15.635510 20.026990
622 5 2 0.5897 7.353136 15.998445 20.497181
623 5 2 0.5897 8.567214 16.460492 19.697698
624 5 1 -1.1794 3.748010 20.026990 20.026990
625 5 2 0.5897 3.235613 20.619046 20.629787
626 5 2 0.5897 4.491456 19.756971 20.612999
627 5 1 -1.1794 9.691760 21.579260 21.579260
628 5 2 0.5897 9.946137 22.350942 21.016041
629 5 2 0.5897 10.583721 21.241596 21.802092
630 5 1 -1.1794 2.195740 14.083240 21.579260
631 5 2 0.5897 1.409385 14.553429 21.942194
632 5 2 0.5897 2.623464 13.753947 22.404242
633 5 1 -1.1794 2.195740 21.579260 14.083240
634 5 2 0.5897 2.111703 22.432255 14.550666
635 5 2 0.5897 2.901702 21.125398 14.588060
636 5 1 -1.1794 9.691760 14.083240 14.083240
637 5 2 0.5897 9.179361 14.686035 14.675296
638 5 2 0.5897 10.435205 14.669250 13.813222
639 5 1 -1.1794 3.748010 15.635510 20.026990
640 5 2 0.5897 3.210531 15.048688 20.613558
641 5 2 0.5897 4.509120 15.849677 20.613582
642 5 1 -1.1794 8.139490 20.026990 20.026990
643 5 2 0.5897 7.874494 20.552984 19.234030
644 5 2 0.5897 8.651795 20.694063 20.539321
645 5 1 -1.1794 3.748010 20.026990 15.635510
646 5 2 0.5897 4.034637 20.479751 16.460531
647 5 2 0.5897 3.172969 19.312181 15.987563
648 5 1 -1.1794 8.139490 15.635510 15.635510
649 5 2 0.5897 7.377269 15.994205 15.132611
650 5 2 0.5897 8.597826 16.477718 15.893531
651 5 1 -1.1794 0.000000 15.567275 13.273107
652 5 2 0.5897 0.035498 16.346567 13.876957
653 5 2 0.5897 0.798485 15.066590 13.559256
654 5 1 -1.1794 0.000000 20.095225 13.273107
655 5 2 0.5897 -0.758631 20.619342 13.624852
656 5 2 0.5897 0.759372 20.667326 13.557876
657 5 1 -1.1794 0.000000 15.567275 22.389393
658 5 2 0.5897 -0.044368 15.739390 23.356964
659 5 2 0.5897 -0.018559 16.465641 21.997446
660 5 1 -1.1794 0.000000 20.095225 22.389393
661 5 2 0.5897 0.205529 20.161938 23.357486
662 5 2 0.5897 -0.779451 19.516897 22.475442
663 5 1 -1.1794 1.385607 11.887500 15.567275
664 5 2 0.5897 0.417726 11.792841 15.708634
665 5 2 0.5897 1.754570 11.788072 16.469468
666 5 1 -1.1794 1.385607 11.887500 20.095225
667 5 2 0.5897 1.716836 12.634254 20.645536
668 5 2 0.5897 1.714706 11.116457 20.614450
669 5 1 -1.1794 10.501893 11.887500 15.567275
670 5 2 0.5897 9.916808 11.894167 16.359979
671 5 2 0.5897 10.184338 12.686764 15.089235
672 5 1 -1.1794 10.501893 11.887500 20.095225
673 5 2 0.5897 10.305638 12.686373 20.636625
674 5 2 0.5897 11.480928 11.953994 20.004178
675 5 1 -1.1794 3.679775 13.273107 11.887500
676 5 2 0.5897 3.181486 13.547580 12.690727
677 5 2 0.5897 4.465410 13.859811 11.925497
678 5 1 -1.1794 8.207725 13.273107 11.887500
679 5 2 0.5897 8.780854 13.502355 12.657015
680 5 2 0.5897 8.792041 13.540988 11.139635
681 5 1 -1.1794 3.679775 22.389393 11.887500
682 5 2 0.5897 3.869586 23.339877 11.991847
683 5 2 0.5897 4.546334 21.955958 11.999636
684 5 1 -1.1794 8.207725 22.389393 11.887500
685 5 2 0.5897 8.122284 23.365758 11.804074
686 5 2 0.5897 8.687717 22.164357 11.060137
687 5 1 -1.1794 9.623525 17.831250 16.445643
688 5 2 0.5897 9.813335 17.935598 17.396127
689 5 2 0.5897 10.490084 17.943385 16.012208
690 5 1 -1.1794 2.263975 17.831250 16.445643
691 5 2 0.5897 2.178531 17.747824 17.422008
692 5 2 0.5897 2.743967 17.003887 16.220608
693 5 1 -1.1794 9.623525 17.831250 19.216857
694 5 2 0.5897 9.125238 18.634478 19.491333
695 5 2 0.5897 10.409160 17.869243 19.803561
696 5 1 -1.1794 2.263975 17.831250 19.216857
697 5 2 0.5897 2.837102 18.600767 19.446105
698 5 2 0.5897 2.848293 17.083386 19.484739
699 5 1 -1.1794 5.943750 19.216857 14.151475
700 5 2 0.5897 5.185122 19.568606 14.675593
701 5 2 0.5897 6.703124 19.501622 14.723575
702 5 1 -1.1794 5.943750 19.216857 21.511025
703 5 2 0.5897 5.979250 19.820706 22.290318
704 5 2 0.5897 6.742237 19.503002 21.010342
705 5 1 -1.1794 5.943750 16.445643 14.151475
706 5 2 0.5897 6.149264 17.413742 14.218161
707 5 2 0.5897 5.164278 16.531661 13.573181
708 5 1 -1.1794 5.943750 16.445643 21.511025
709 5 2 0.5897 5.899383 17.413213 21.683144
710 5 2 0.5897 5.925192 16.053692 22.409389
711 5 1 -1.1794 7.329357 21.511025 17.831250
712 5 2 0.5897 6.361476 21.652384 17.736590
713 5 2 0.5897 7.698320 22.413218 17.731822
714 5 1 -1.1794 7.329357 14.151475 17.831250
715 5 2 0.5897 7.660588 14.701785 18.578003
716 5 2 0.5897 7.658458 14.670699 17.060206
717 5 1 -1.1794 4.558143 21.511025 17.831250
718 5 2 0.5897 3.973056 22.303729 17.837916
719 5 2 0.5897 4.240588 21.032985 18.630514
720 5 1 -1.1794 4.558143 14.151475 17.831250
721 5 2 0.5897 4.361890 14.692872 18.630125
722 5 2 0.5897 5.537178 14.060428 17.897742
723 5 3 0.0 0.000000 11.887500 11.887500
724 5 3 0.0 5.943750 17.831250 17.831250
725 5 3 0.0 0.000000 14.859375 17.831250
726 5 3 0.0 0.000000 20.803125 17.831250
727 5 3 0.0 5.943750 11.887500 14.859375
728 5 3 0.0 5.943750 11.887500 20.803125
729 5 3 0.0 2.971875 17.831250 11.887500
730 5 3 0.0 8.915625 17.831250 11.887500
731 6 1 -1.1794 0.000000 17.831250 26.746875
732 6 2 0.5897 0.009656 18.633882 26.176692
733 6 2 0.5897 0.819206 17.966305 27.275477
734 6 1 -1.1794 0.000000 17.831250 32.690625
735 6 2 0.5897 0.281067 18.695936 33.052971
736 6 2 0.5897 0.723234 17.700273 32.029920
737 6 1 -1.1794 2.971875 11.887500 29.718750
738 6 2 0.5897 2.409366 12.000295 30.516859
739 6 2 0.5897 3.506404 12.713596 29.730505
740 6 1 -1.1794 8.915625 11.887500 29.718750
741 6 2 0.5897 8.353117 12.685610 29.831546
742 6 2 0.5897 9.450153 11.899253 30.544848
743 6 1 -1.1794 5.943750 14.859375 23.775000
744 6 2 0.5897 6.224823 15.221727 24.639683
745 6 2 0.5897 6.666985 14.198672 23.644021
746 6 1 -1.1794 5.943750 20.803125 23.775000
747 6 2 0.5897 5.953409 20.232941 24.577632
748 6 2 0.5897 6.762955 21.331727 23.910054
749 6 1 -1.1794 2.195740 14.083240 25.970740
750 6 2 0.5897 1.930743 13.290281 26.496735
751 6 2 0.5897 2.708046 14.595572 26.637811
752 6 1 -1.1794 9.691760 21.579260 25.970740
753 6 2 0.5897 9.978388 22.404281 26.423501
754 6 2 0.5897 9.116718 21.931314 25.255933
755 6 1 -1.1794 9.691760 14.083240 33.466760
756 6 2 0.5897 9.154281 14.669808 32.879938
757 6 2 0.5897 10.452871 14.669832 33.680926
758 6 1 -1.1794 2.195740 21.579260 33.466760
759 6 2 0.5897 1.433515 21.076365 33.825449
760 6 2 0.5897 2.654073 21.837280 34.308970
761 6 1 -1.1794 8.139490 20.026990 27.523010
762 6 2 0.5897 8.055452 20.494415 28.376005
763 6 2 0.5897 8.845452 20.531810 27.069149
764 6 1 -1.1794 3.748010 15.635510 27.523010
765 6 2 0.5897 4.002365 15.072288 28.294697
766 6 2 0.5897 4.639981 15.858336 27.185372
767 6 1 -1.1794 8.139490 15.635510 31.914490
768 6 2 0.5897 7.353136 15.998445 32.384681
769 6 2 0.5897 8.567214 16.460492 31.585198
770 6 1 -1.1794 3.748010 20.026990 31.914490
771 6 2 0.5897 3.235613 20.619046 32.517287
772 6 2 0.5897 4.491456 19.756971 32.500499
773 6 1 -1.1794 9.691760 21.579260 33.466760
774 6 2 0.5897 9.946137 22.350942 32.903541
775 6 2 0.5897 10.583721 21.241596 33.689592
776 6 1 -1.1794 2.195740 14.083240 33.466760
777 6 2 0.5897 1.409385 14.553429 33.829694
778 6 2 0.5897 2.623464 13.753947 34.291742
779 6 1 -1.1794 2.195740 21.579260 25.970740
780 6 2 0.5897 2.111703 22.432255 26.438166
781 6 2 0.5897 2.901702 21.125398 26.475560
782 6 1 -1.1794 9.691760 14.083240 25.970740
783 6 2 0.5897 9.179361 14.686035 26.562796
784 6 2 0.5897 10.435205 14.669250 25.700722
785 6 1 -1.1794 3.748010 15.635510 31.914490
786 6 2 0.5897 3.210531 15.048688 32.501058
787 6 2 0.5897 4.509120 15.849677 32.501082
788 6 1 -1.1794 8.139490 20.026990 31.914490
789 6 2 0.5897 7.874494 20.552984 31.121530
790 6 2 0.5897 8.651795 20.694063 32.426821
791 6 1 -1.1794 3.748010 20.026990 27.523010
792 6 2 0.5897 4.034637 20.479751 28.348031
793 6 2 0.5897 3.172969 19.312181 27.875063
794 6 1 -1.1794 8.139490 15.635510 27.523010
795 6 2 0.5897 7.377269 15.994205 27.020111
796 6 2 0.5897 8.597826 16.477718 27.781031
797 6 1 -1.1794 0.000000 15.567275 25.160607
798 6 2 0.5897 0.035498 16.346567 25.764457
799 6 2 0.5897 0.798485 15.066590 25.446756
800 6 1 -1.1794 0.000000 20.095225 25.160607
801 6 2 0.5897 -0.758631 20.619342 25.512352
802 6 2 0.5897 0.759372 20.667326 25.445376
803 6 1 -1.1794 0.000000 15.567275 34.276893
804 6 2 0.5897 -0.044368 15.739390 35.244464
805 6 2 0.5897 -0.018559 16.465641 33.884946
806 6 1 -1.1794 0.000000 20.095225 34.276893
807 6 2 0.5897 0.205529 20.161938 35.244986
808 6 2 0.5897 -0.779451 19.516897 34.362942
809 6 1 -1.1794 1.385607 11.887500 27.454775
810 6 2 0.5897 0.417726 11.792841 27.596134
811 6 2 0.5897 1.754570 11.788072 28.356968
812 6 1 -1.1794 1.385607 11.887500 31.982725
813 6 2 0.5897 1.716836 12.634254 32.533036
814 6 2 0.5897 1.714706 11.116457 32.501950
815 6 1 -1.1794 10.501893 11.887500 27.454775
816 6 2 0.5897 9.916808 11.894167 28.247479
817 6 2 0.5897 10.184338 12.686764 26.976735
818 6 1 -1.1794 10.501893 11.887500 31.982725
819 6 2 0.5897 10.305638 12.686373 32.524125
820 6 2 0.5897 11.480928 11.953994 31.891678
821 6 1 -1.1794 3.679775 13.273107 23.775000
822 6 2 0.5897 3.181486 13.547580 24.578227
823 6 2 0.5897 4.465410 13.859811 23.812997
824 6 1 -1.1794 8.207725 13.273107 23.775000
825 6 2 0.5897 8.780854 13.502355 24.544515
826 6 2 0.5897 8.792041 13.540988 23.027135
827 6 1 -1.1794 3.679775 22.389393 23.775000
828 6 2 0.5897 3.869586 23.339877 23.879347
829 6 2 0.5897 4.546334 21.955958 23.887136
830 6 1 -1.1794 8.207725 22.389393 23.775000
831 6 2 0.5897 8.122284 23.365758 23.691574
832 6 2 0.5897 8.687717 22.164357 22.947637
833 6 1 -1.1794 9.623525 17.831250 28.333143
834 6 2 0.5897 9.813335 17.935598 29.283627
835 6 2 0.5897 10.490084 17.943385 27.899708
836 6 1 -1.1794 2.263975 17.831250 28.333143
837 6 2 0.5897 2.178531 17.747824 29.309508
838 6 2 0.5897 2.743967 17.003887 28.108108
839 6 1 -1.1794 9.623525 17.831250 31.104357
840 6 2 0.5897 9.125238 18.634478 31.378833
841 6 2 0.5897 10.409160 17.869243 31.691061
842 6 1 -1.1794 2.263975 17.831250 31.104357
843 6 2 0.5897 2.837102 18.600767 31.333605
844 6 2 0.5897 2.848293 17.083386 31.372239
845 6 1 -1.1794 5.943750 19.216857 26.038975
846 6 2 0.5897 5.185122 19.568606 26.563093
847 6 2 0.5897 6.703124 19.501622 26.611075
848 6 1 -1.1794 5.943750 19.216857 33.398525
849 6 2 0.5897 5.979250 19.820706 34.177818
850 6 2 0.5897 6.742237 19.503002 32.897842
851 6 1 -1.1794 5.943750 16.445643 26.038975
852 6 2 0.5897 6.149264 17.413742 26.105661
853 6 2 0.5897 5.164278 16.531661 25.460681
854 6 1 -1.1794 5.943750 16.445643 33.398525
855 6 2 0.5897 5.899383 17.413213 33.570644
856 6 2 0.5897 5.925192 16.053692 34.296889
857 6 1 -1.1794 7.329357 21.511025 29.718750
858 6 2 0.5897 6.361476 21.652384 29.624090
859 6 2 0.5897 7.698320 22.413218 29.619322
860 6 1 -1.1794 7.329357 14.151475 29.718750
861 6 2 0.5897 7.660588 14.701785 30.465503
862 6 2 0.5897 7.658458 14.670699 28.947706
863 6 1 -1.1794 4.558143 21.511025 29.718750
864 6 2 0.5897 3.973056 22.303729 29.725416
865 6 2 0.5897 4.240588 21.032985 30.518014
866 6 1 -1.1794 4.558143 14.151475 29.718750
867 6 2 0.5897 4.361890 14.692872 30.517625
868 6 2 0.5897 5.537178 14.060428 29.785242
869 6 3 0.0 0.000000 11.887500 23.775000
870 6 3 0.0 5.943750 17.831250 29.718750
871 6 3 0.0 0.000000 14.859375 29.718750
872 6 3 0.0 0.000000 20.803125 29.718750
873 6 3 0.0 5.943750 11.887500 26.746875
874 6 3 0.0 5.943750 11.887500 32.690625
875 6 3 0.0 2.971875 17.831250 23.775000
876 6 3 0.0 8.915625 17.831250 23.775000
877 7 1 -1.1794 0.000000 29.718750 2.971875
878 7 2 0.5897 0.009656 30.521382 2.401692
879 7 2 0.5897 0.819206 29.853805 3.500477
880 7 1 -1.1794 0.000000 29.718750 8.915625
881 7 2 0.5897 0.281067 30.583436 9.277971
882 7 2 0.5897 0.723234 29.587773 8.254920
883 7 1 -1.1794 2.971875 23.775000 5.943750
884 7 2 0.5897 2.409366 23.887795 6.741859
885 7 2 0.5897 3.506404 24.601096 5.955505
886 7 1 -1.1794 8.915625 23.775000 5.943750
887 7 2 0.5897 8.353117 24.573110 6.056546
888 7 2 0.5897 9.450153 23.786753 6.769848
889 7 1 -1.1794 5.943750 26.746875 0.000000
890 7 2 0.5897 6.224823 27.109227 0.864683
891 7 2 0.5897 6.666985 26.086172 -0.130979
892 7 1 -1.1794 5.943750 32.690625 0.000000
893 7 2 0.5897 5.953409 32.120441 0.802632
894 7 2 0.5897 6.762955 33.219227 0.135054
895 7 1 -1.1794 2.195740 25.970740 2.195740
896 7 2 0.5897 1.930743 25.177781 2.721735
897 7 2 0.5897 2.708046 26.483072 2.862811
898 7 1 -1.1794 9.691760 33.466760 2.195740
899 7 2 0.5897 9.978388 34.291781 2.648501
900 7 2 0.5897 9.116718 33.818814 1.480933
901 7 1 -1.1794 9.691760 25.970740 9.691760
902 7 2 0.5897 9.154281 26.557308 9.104938
903 7 2 0.5897 10.452871 26.557332 9.905926
904 7 1 -1.1794 2.195740 33.466760 9.691760
905 7 2 0.5897 1.433515 32.963865 10.050449
906 7 2 0.5897 2.654073 33.724780 10.533970
907 7 1 -1.1794 8.139490 31.914490 3.748010
908 7 2 0.5897 8.055452 32.381915 4.601005
909 7 2 0.5897 8.845452 32.419310 3.294149
910 7 1 -1.1794 3.748010 27.523010 3.748010
911 7 2 0.5897 4.002365 26.959788 4.519697
912 7 2 0.5897 4.639981 27.745836 3.410372
913 7 1 -1.1794 8.139490 27.523010 8.139490
914 7 2 0.5897 7.353136 27.885945 8.609681
915 7 2 0.5897 8.567214 28.347992 7.810198
916 7 1 -1.1794 3.748010 31.914490 8.139490
917 7 2 0.5897 3.235613 32.506546 8.742287
918 7 2 0.5897 4.491456 31.644471 8.725499
919 7 1 -1.1794 9.691760 33.466760 9.691760
920 7 2 0.5897 9.946137 34.238442 9.128541
921 7 2 0.5897 10.583721 33.129096 9.914592
922 7 1 -1.1794 2.195740 25.970740 9.691760
923 7 2 0.5897 1.409385 26.440929 10.054694
924 7 2 0.5897 2.623464 25.641447 10.516742
925 7 1 -1.1794 2.195740 33.466760 2.195740
926 7 2 0.5897 2.111703 34.319755 2.663166
927 7 2 0.5897 2.901702 33.012898 2.700560
928 7 1 -1.1794 9.691760 25.970740 2.195740
929 7 2 0.5897 9.179361 26.573535 2.787796
930 7 2 0.5897 10.435205 26.556750 1.925722
931 7 1 -1.1794 3.748010 27.523010 8.139490
932 7 2 0.5897 3.210531 26.936188 8.726058
933 7 2 0.5897 4.509120 27.737177 8.726082
934 7 1 -1.1794 8.139490 31.914490 8.139490
935 7 2 0.5897 7.874494 32.440484 7.346530
936 7 2 0.5897 8.651795 32.581563 8.651821
937 7 1 -1.1794 3.748010 31.914490 3.748010
938 7 2 0.5897 4.034637 32.367251 4.573031
939 7 2 0.5897 3.172969 31.199681 4.100063
940 7 1 -1.1794 8.139490 27.523010 3.748010
941 7 2 0.5897 7.377269 27.881705 3.245111
942 7 2 0.5897 8.597826 28.365218 4.006031
943 7 1 -1.1794 0.000000 27.454775 1.385607
944 7 2 0.5897 0.035498 28.234067 1.989457
945 7 2 0.5897 0.798485 26.954090 1.671756
946 7 1 -1.1794 0.000000 31.982725 1.385607
947 7 2 0.5897 -0.758631 32.506842 1.737352
948 7 2 0.5897 0.759372 32.554826 1.670376
949 7 1 -1.1794 0.000000 27.454775 10.501893
950 7 2 0.5897 -0.044368 27.626890 11.469464
951 7 2 0.5897 -0.018559 28.353141 10.109946
952 7 1 -1.1794 0.000000 31.982725 10.501893
953 7 2 0.5897 0.205529 32.049438 11.469986
954 7 2 0.5897 -0.779451 31.404397 10.587942
955 7 1 -1.1794 1.385607 23.775000 3.679775
956 7 2 0.5897 0.417726 23.680341 3.821134
957 7 2 0.5897 1.754570 23.675572 4.581968
958 7 1 -1.1794 1.385607 23.775000 8.207725
959 7 2 0.5897 1.716836 24.521754 8.758036
960 7 2 0.5897 1.714706 23.003957 8.726950
961 7 1 -1.1794 10.501893 23.775000 3.679775
962 7 2 0.5897 9.916808 23.781667 4.472479
963 7 2 0.5897 10.184338 24.574264 3.201735
964 7 1 -1.1794 10.501893 23.775000 8.207725
965 7 2 0.5897 10.305638 24.573873 8.749125
966 7 2 0.5897 11.480928 23.841494 8.116678
967 7 1 -1.1794 3.679775 25.160607 0.000000
968 7 2 0.5897 3.181486 25.435080 0.803227
969 7 2 0.5897 4.465410 25.747311 0.037997
970 7 1 -1.1794 8.207725 25.160607 0.000000
971 7 2 0.5897 8.780854 25.389855 0.769515
972 7 2 0.5897 8.792041 25.428488 -0.747865
973 7 1 -1.1794 3.679775 34.276893 0.000000
974 7 2 0.5897 3.869586 35.227377 0.104347
975 7 2 0.5897 4.546334 33.843458 0.112136
976 7 1 -1.1794 8.207725 34.276893 0.000000
977 7 2 0.5897 8.122284 35.253258 -0.083426
978 7 2 0.5897 8.687717 34.051857 -0.827363
979 7 1 -1.1794 9.623525 29.718750 4.558143
980 7 2 0.5897 9.813335 29.823098 5.508627
981 7 2 0.5897 10.490084 29.830885 4.124708
982 7 1 -1.1794 2.263975 29.718750 4.558143
983 7 2 0.5897 2.178531 29.635324 5.534508
984 7 2 0.5897 2.743967 28.891387 4.333108
985 7 1 -1.1794 9.623525 29.718750 7.329357
986 7 2 0.5897 9.125238 30.521978 7.603833
987 7 2 0.5897 10.409160 29.756743 7.916061
988 7 1 -1.1794 2.263975 29.718750 7.329357
989 7 2 0.5897 2.837102 30.488267 7.558605
990 7 2 0.5897 2.848293 28.970886 7.597239
991 7 1 -1.1794 5.943750 31.104357 2.263975
992 7 2 0.5897 5.185122 31.456106 2.788093
993 7 2 0.5897 6.703124 31.389122 2.836075
994 7 1 -1.1794 5.943750 31.104357 9.623525
995 7 2 0.5897 5.979250 31.708206 10.402818
996 7 2 0.5897 6.742237 31.390502 9.122842
997 7 1 -1.1794 5.943750 28.333143 2.263975
998 7 2 0.5897 6.149264 29.301242 2.330661
999 7 2 0.5897 5.164278 28.419161 1.685681
1000 7 1 -1.1794 5.943750 28.333143 9.623525
1001 7 2 0.5897 5.899383 29.300713 9.795644
1002 7 2 0.5897 5.925192 27.941192 10.521889
1003 7 1 -1.1794 7.329357 33.398525 5.943750
1004 7 2 0.5897 6.361476 33.539884 5.849090
1005 7 2 0.5897 7.698320 34.300718 5.844322
1006 7 1 -1.1794 7.329357 26.038975 5.943750
1007 7 2 0.5897 7.660588 26.589285 6.690503
1008 7 2 0.5897 7.658458 26.558199 5.172706
1009 7 1 -1.1794 4.558143 33.398525 5.943750
1010 7 2 0.5897 3.973056 34.191229 5.950416
1011 7 2 0.5897 4.240588 32.920485 6.743014
1012 7 1 -1.1794 4.558143 26.038975 5.943750
1013 7 2 0.5897 4.361890 26.580372 6.742625
1014 7 2 0.5897 5.537178 25.947928 6.010242
1015 7 3 0.0 0.000000 23.775000 0.000000
1016 7 3 0.0 5.943750 29.718750 5.943750
1017 7 3 0.0 0.000000 26.746875 5.943750
1018 7 3 0.0 0.000000 32.690625 5.943750
1019 7 3 0.0 5.943750 23.775000 2.971875
1020 7 3 0.0 5.943750 23.775000 8.915625
1021 7 3 0.0 2.971875 29.718750 0.000000
1022 7 3 0.0 8.915625 29.718750 0.000000
1023 8 1 -1.1794 0.000000 29.718750 14.859375
1024 8 2 0.5897 0.009656 30.521382 14.289192
1025 8 2 0.5897 0.819206 29.853805 15.387977
1026 8 1 -1.1794 0.000000 29.718750 20.803125
1027 8 2 0.5897 0.281067 30.583436 21.165471
1028 8 2 0.5897 0.723234 29.587773 20.142420
1029 8 1 -1.1794 2.971875 23.775000 17.831250
1030 8 2 0.5897 2.409366 23.887795 18.629359
1031 8 2 0.5897 3.506404 24.601096 17.843005
1032 8 1 -1.1794 8.915625 23.775000 17.831250
1033 8 2 0.5897 8.353117 24.573110 17.944046
1034 8 2 0.5897 9.450153 23.786753 18.657348
1035 8 1 -1.1794 5.943750 26.746875 11.887500
1036 8 2 0.5897 6.224823 27.109227 12.752183
1037 8 2 0.5897 6.666985 26.086172 11.756521
1038 8 1 -1.1794 5.943750 32.690625 11.887500
1039 8 2 0.5897 5.953409 32.120441 12.690132
1040 8 2 0.5897 6.762955 33.219227 12.022554
1041 8 1 -1.1794 2.195740 25.970740 14.083240
1042 8 2 0.5897 1.930743 25.177781 14.609235
1043 8 2 0.5897 2.708046 26.483072 14.750311
1044 8 1 -1.1794 9.691760 33.466760 14.083240
1045 8 2 0.5897 9.978388 34.291781 14.536001
1046 8 2 0.5897 9.116718 33.818814 13.368433
1047 8 1 -1.1794 9.691760 25.970740 21.579260
1048 8 2 0.5897 9.154281 26.557308 20.992438
1049 8 2 0.5897 10.452871 26.557332 21.793426
1050 8 1 -1.1794 2.195740 33.466760 21.579260
1051 8 2 0.5897 1.433515 32.963865 21.937949
1052 8 2 0.5897 2.654073 33.724780 22.421470
1053 8 1 -1.1794 8.139490 31.914490 15.635510
1054 8 2 0.5897 8.055452 32.381915 16.488505
1055 8 2 0.5897 8.845452 32.419310 15.181649
1056 8 1 -1.1794 3.748010 27.523010 15.635510
1057 8 2 0.5897 4.002365 26.959788 16.407197
1058 8 2 0.5897 4.639981 27.745836 15.297872
1059 8 1 -1.1794 8.139490 27.523010 20.026990
1060 8 2 0.5897 7.353136 27.885945 20.497181
1061 8 2 0.5897 8.567214 28.347992 19.697698
1062 8 1 -1.1794 3.748010 31.914490 20.026990
1063 8 2 0.5897 3.235613 32.506546 20.629787
1064 8 2 0.5897 4.491456 31.644471 20.612999
1065 8 1 -1.1794 9.691760 33.466760 21.579260
1066 8 2 0.5897 9.946137 34.238442 21.016041
1067 8 2 0.5897 10.583721 33.129096 21.802092
1068 8 1 -1.1794 2.195740 25.970740 21.579260
1069 8 2 0.5897 1.409385 26.440929 21.942194
1070 8 2 0.5897 2.623464 25.641447 22.404242
1071 8 1 -1.1794 2.195740 33.466760 14.083240
1072 8 2 0.5897 2.111703 34.319755 14.550666
1073 8 2 0.5897 2.901702 33.012898 14.588060
1074 8 1 -1.1794 9.691760 25.970740 14.083240
1075 8 2 0.5897 9.179361 26.573535 14.675296
1076 8 2 0.5897 10.435205 26.556750 13.813222
1077 8 1 -1.1794 3.748010 27.523010 20.026990
1078 8 2 0.5897 3.210531 26.936188 20.613558
1079 8 2 0.5897 4.509120 27.737177 20.613582
1080 8 1 -1.1794 8.139490 31.914490 20.026990
1081 8 2 0.5897 7.874494 32.440484 19.234030
1082 8 2 0.5897 8.651795 32.581563 20.539321
1083 8 1 -1.1794 3.748010 31.914490 15.635510
1084 8 2 0.5897 4.034637 32.367251 16.460531
1085 8 2 0.5897 3.172969 31.199681 15.987563
1086 8 1 -1.1794 8.139490 27.523010 15.635510
1087 8 2 0.5897 7.377269 27.881705 15.132611
1088 8 2 0.5897 8.597826 28.365218 15.893531
1089 8 1 -1.1794 0.000000 27.454775 13.273107
1090 8 2 0.5897 0.035498 28.234067 13.876957
1091 8 2 0.5897 0.798485 26.954090 13.559256
1092 8 1 -1.1794 0.000000 31.982725 13.273107
1093 8 2 0.5897 -0.758631 32.506842 13.624852
1094 8 2 0.5897 0.759372 32.554826 13.557876
1095 8 1 -1.1794 0.000000 27.454775 22.389393
1096 8 2 0.5897 -0.044368 27.626890 23.356964
1097 8 2 0.5897 -0.018559 28.353141 21.997446
1098 8 1 -1.1794 0.000000 31.982725 22.389393
1099 8 2 0.5897 0.205529 32.049438 23.357486
1100 8 2 0.5897 -0.779451 31.404397 22.475442
1101 8 1 -1.1794 1.385607 23.775000 15.567275
1102 8 2 0.5897 0.417726 23.680341 15.708634
1103 8 2 0.5897 1.754570 23.675572 16.469468
1104 8 1 -1.1794 1.385607 23.775000 20.095225
1105 8 2 0.5897 1.716836 24.521754 20.645536
1106 8 2 0.5897 1.714706 23.003957 20.614450
1107 8 1 -1.1794 10.501893 23.775000 15.567275
1108 8 2 0.5897 9.916808 23.781667 16.359979
1109 8 2 0.5897 10.184338 24.574264 15.089235
1110 8 1 -1.1794 10.501893 23.775000 20.095225
1111 8 2 0.5897 10.305638 24.573873 20.636625
1112 8 2 0.5897 11.480928 23.841494 20.004178
1113 8 1 -1.1794 3.679775 25.160607 11.887500
1114 8 2 0.5897 3.181486 25.435080 12.690727
1115 8 2 0.5897 4.465410 25.747311 11.925497
1116 8 1 -1.1794 8.207725 25.160607 11.887500
1117 8 2 0.5897 8.780854 25.389855 12.657015
1118 8 2 0.5897 8.792041 25.428488 11.139635
1119 8 1 -1.1794 3.679775 34.276893 11.887500
1120 8 2 0.5897 3.869586 35.227377 11.991847
1121 8 2 0.5897 4.546334 33.843458 11.999636
1122 8 1 -1.1794 8.207725 34.276893 11.887500
1123 8 2 0.5897 8.122284 35.253258 11.804074
1124 8 2 0.5897 8.687717 34.051857 11.060137
1125 8 1 -1.1794 9.623525 29.718750 16.445643
1126 8 2 0.5897 9.813335 29.823098 17.396127
1127 8 2 0.5897 10.490084 29.830885 16.012208
1128 8 1 -1.1794 2.263975 29.718750 16.445643
1129 8 2 0.5897 2.178531 29.635324 17.422008
1130 8 2 0.5897 2.743967 28.891387 16.220608
1131 8 1 -1.1794 9.623525 29.718750 19.216857
1132 8 2 0.5897 9.125238 30.521978 19.491333
1133 8 2 0.5897 10.409160 29.756743 19.803561
1134 8 1 -1.1794 2.263975 29.718750 19.216857
1135 8 2 0.5897 2.837102 30.488267 19.446105
1136 8 2 0.5897 2.848293 28.970886 19.484739
1137 8 1 -1.1794 5.943750 31.104357 14.151475
1138 8 2 0.5897 5.185122 31.456106 14.675593
1139 8 2 0.5897 6.703124 31.389122 14.723575
1140 8 1 -1.1794 5.943750 31.104357 21.511025
1141 8 2 0.5897 5.979250 31.708206 22.290318
1142 8 2 0.5897 6.742237 31.390502 21.010342
1143 8 1 -1.1794 5.943750 28.333143 14.151475
1144 8 2 0.5897 6.149264 29.301242 14.218161
1145 8 2 0.5897 5.164278 28.419161 13.573181
1146 8 1 -1.1794 5.943750 28.333143 21.511025
1147 8 2 0.5897 5.899383 29.300713 21.683144
1148 8 2 0.5897 5.925192 27.941192 22.409389
1149 8 1 -1.1794 7.329357 33.398525 17.831250
1150 8 2 0.5897 6.361476 33.539884 17.736590
1151 8 2 0.5897 7.698320 34.300718 17.731822
1152 8 1 -1.1794 7.329357 26.038975 17.831250
1153 8 2 0.5897 7.660588 26.589285 18.578003
1154 8 2 0.5897 7.658458 26.558199 17.060206
1155 8 1 -1.1794 4.558143 33.398525 17.831250
1156 8 2 0.5897 3.973056 34.191229 17.837916
1157 8 2 0.5897 4.240588 32.920485 18.630514
1158 8 1 -1.1794 4.558143 26.038975 17.831250
1159 8 2 0.5897 4.361890 26.580372 18.630125
1160 8 2 0.5897 5.537178 25.947928 17.897742
1161 8 3 0.0 0.000000 23.775000 11.887500
1162 8 3 0.0 5.943750 29.718750 17.831250
1163 8 3 0.0 0.000000 26.746875 17.831250
1164 8 3 0.0 0.000000 32.690625 17.831250
1165 8 3 0.0 5.943750 23.775000 14.859375
1166 8 3 0.0 5.943750 23.775000 20.803125
1167 8 3 0.0 2.971875 29.718750 11.887500
1168 8 3 0.0 8.915625 29.718750 11.887500
1169 9 1 -1.1794 0.000000 29.718750 26.746875
1170 9 2 0.5897 0.009656 30.521382 26.176692
1171 9 2 0.5897 0.819206 29.853805 27.275477
1172 9 1 -1.1794 0.000000 29.718750 32.690625
1173 9 2 0.5897 0.281067 30.583436 33.052971
1174 9 2 0.5897 0.723234 29.587773 32.029920
1175 9 1 -1.1794 2.971875 23.775000 29.718750
1176 9 2 0.5897 2.409366 23.887795 30.516859
1177 9 2 0.5897 3.506404 24.601096 29.730505
1178 9 1 -1.1794 8.915625 23.775000 29.718750
1179 9 2 0.5897 8.353117 24.573110 29.831546
1180 9 2 0.5897 9.450153 23.786753 30.544848
1181 9 1 -1.1794 5.943750 26.746875 23.775000
1182 9 2 0.5897 6.224823 27.109227 24.639683
1183 9 2 0.5897 6.666985 26.086172 23.644021
1184 9 1 -1.1794 5.943750 32.690625 23.775000
1185 9 2 0.5897 5.953409 32.120441 24.577632
1186 9 2 0.5897 6.762955 33.219227 23.910054
1187 9 1 -1.1794 2.195740 25.970740 25.970740
1188 9 2 0.5897 1.930743 25.177781 26.496735
1189 9 2 0.5897 2.708046 26.483072 26.637811
1190 9 1 -1.1794 9.691760 33.466760 25.970740
1191 9 2 0.5897 9.978388 34.291781 26.423501
1192 9 2 0.5897 9.116718 33.818814 25.255933
1193 9 1 -1.1794 9.691760 25.970740 33.466760
1194 9 2 0.5897 9.154281 26.557308 32.879938
1195 9 2 0.5897 10.452871 26.557332 33.680926
1196 9 1 -1.1794 2.195740 33.466760 33.466760
1197 9 2 0.5897 1.433515 32.963865 33.825449
1198 9 2 0.5897 2.654073 33.724780 34.308970
1199 9 1 -1.1794 8.139490 31.914490 27.523010
1200 9 2 0.5897 8.055452 32.381915 28.376005
1201 9 2 0.5897 8.845452 32.419310 27.069149
1202 9 1 -1.1794 3.748010 27.523010 27.523010
1203 9 2 0.5897 4.002365 26.959788 28.294697
1204 9 2 0.5897 4.639981 27.745836 27.185372
1205 9 1 -1.1794 8.139490 27.523010 31.914490
1206 9 2 0.5897 7.353136 27.885945 32.384681
1207 9 2 0.5897 8.567214 28.347992 31.585198
1208 9 1 -1.1794 3.748010 31.914490 31.914490
1209 9 2 0.5897 3.235613 32.506546 32.517287
1210 9 2 0.5897 4.491456 31.644471 32.500499
1211 9 1 -1.1794 9.691760 33.466760 33.466760
1212 9 2 0.5897 9.946137 34.238442 32.903541
1213 9 2 0.5897 10.583721 33.129096 33.689592
1214 9 1 -1.1794 2.195740 25.970740 33.466760
1215 9 2 0.5897 1.409385 26.440929 33.829694
1216 9 2 0.5897 2.623464 25.641447 34.291742
1217 9 1 -1.1794 2.195740 33.466760 25.970740
1218 9 2 0.5897 2.111703 34.319755 26.438166
1219 9 2 0.5897 2.901702 33.012898 26.475560
1220 9 1 -1.1794 9.691760 25.970740 25.970740
1221 9 2 0.5897 9.179361 26.573535 26.562796
1222 9 2 0.5897 10.435205 26.556750 25.700722
1223 9 1 -1.1794 3.748010 27.523010 31.914490
1224 9 2 0.5897 3.210531 26.936188 32.501058
1225 9 2 0.5897 4.509120 27.737177 32.501082
1226 9 1 -1.1794 8.139490 31.914490 31.914490
1227 9 2 0.5897 7.874494 32.440484 31.121530
1228 9 2 0.5897 8.651795 32.581563 32.426821
1229 9 1 -1.1794 3.748010 31.914490 27.523010
1230 9 2 0.5897 4.034637 32.367251 28.348031
1231 9 2 0.5897 3.172969 31.199681 27.875063
1232 9 1 -1.1794 8.139490 27.523010 27.523010
1233 9 2 0.5897 7.377269 27.881705 27.020111
1234 9 2 0.5897 8.597826 28.365218 27.781031
1235 9 1 -1.1794 0.000000 27.454775 25.160607
1236 9 2 0.5897 0.035498 28.234067 25.764457
1237 9 2 0.5897 0.798485 26.954090 25.446756
1238 9 1 -1.1794 0.000000 31.982725 25.160607
1239 9 2 0.5897 -0.758631 32.506842 25.512352
1240 9 2 0.5897 0.759372 32.554826 25.445376
1241 9 1 -1.1794 0.000000 27.454775 34.276893
1242 9 2 0.5897 -0.044368 27.626890 35.244464
1243 9 2 0.5897 -0.018559 28.353141 33.884946
1244 9 1 -1.1794 0.000000 31.982725 34.276893
1245 9 2 0.5897 0.205529 32.049438 35.244986
1246 9 2 0.5897 -0.779451 31.404397 34.362942
1247 9 1 -1.1794 1.385607 23.775000 27.454775
1248 9 2 0.5897 0.417726 23.680341 27.596134
1249 9 2 0.5897 1.754570 23.675572 28.356968
1250 9 1 -1.1794 1.385607 23.775000 31.982725
1251 9 2 0.5897 1.716836 24.521754 32.533036
1252 9 2 0.5897 1.714706 23.003957 32.501950
1253 9 1 -1.1794 10.501893 23.775000 27.454775
1254 9 2 0.5897 9.916808 23.781667 28.247479
1255 9 2 0.5897 10.184338 24.574264 26.976735
1256 9 1 -1.1794 10.501893 23.775000 31.982725
1257 9 2 0.5897 10.305638 24.573873 32.524125
1258 9 2 0.5897 11.480928 23.841494 31.891678
1259 9 1 -1.1794 3.679775 25.160607 23.775000
1260 9 2 0.5897 3.181486 25.435080 24.578227
1261 9 2 0.5897 4.465410 25.747311 23.812997
1262 9 1 -1.1794 8.207725 25.160607 23.775000
1263 9 2 0.5897 8.780854 25.389855 24.544515
1264 9 2 0.5897 8.792041 25.428488 23.027135
1265 9 1 -1.1794 3.679775 34.276893 23.775000
1266 9 2 0.5897 3.869586 35.227377 23.879347
1267 9 2 0.5897 4.546334 33.843458 23.887136
1268 9 1 -1.1794 8.207725 34.276893 23.775000
1269 9 2 0.5897 8.122284 35.253258 23.691574
1270 9 2 0.5897 8.687717 34.051857 22.947637
1271 9 1 -1.1794 9.623525 29.718750 28.333143
1272 9 2 0.5897 9.813335 29.823098 29.283627
1273 9 2 0.5897 10.490084 29.830885 27.899708
1274 9 1 -1.1794 2.263975 29.718750 28.333143
1275 9 2 0.5897 2.178531 29.635324 29.309508
1276 9 2 0.5897 2.743967 28.891387 28.108108
1277 9 1 -1.1794 9.623525 29.718750 31.104357
1278 9 2 0.5897 9.125238 30.521978 31.378833
1279 9 2 0.5897 10.409160 29.756743 31.691061
1280 9 1 -1.1794 2.263975 29.718750 31.104357
1281 9 2 0.5897 2.837102 30.488267 31.333605
1282 9 2 0.5897 2.848293 28.970886 31.372239
1283 9 1 -1.1794 5.943750 31.104357 26.038975
1284 9 2 0.5897 5.185122 31.456106 26.563093
1285 9 2 0.5897 6.703124 31.389122 26.611075
1286 9 1 -1.1794 5.943750 31.104357 33.398525
1287 9 2 0.5897 5.979250 31.708206 34.177818
1288 9 2 0.5897 6.742237 31.390502 32.897842
1289 9 1 -1.1794 5.943750 28.333143 26.038975
1290 9 2 0.5897 6.149264 29.301242 26.105661
1291 9 2 0.5897 5.164278 28.419161 25.460681
1292 9 1 -1.1794 5.943750 28.333143 33.398525
1293 9 2 0.5897 5.899383 29.300713 33.570644
1294 9 2 0.5897 5.925192 27.941192 34.296889
1295 9 1 -1.1794 7.329357 33.398525 29.718750
1296 9 2 0.5897 6.361476 33.539884 29.624090
1297 9 2 0.5897 7.698320 34.300718 29.619322
1298 9 1 -1.1794 7.329357 26.038975 29.718750
1299 9 2 0.5897 7.660588 26.589285 30.465503
1300 9 2 0.5897 7.658458 26.558199 28.947706
1301 9 1 -1.1794 4.558143 33.398525 29.718750
1302 9 2 0.5897 3.973056 34.191229 29.725416
1303 9 2 0.5897 4.240588 32.920485 30.518014
1304 9 1 -1.1794 4.558143 26.038975 29.718750
1305 9 2 0.5897 4.361890 26.580372 30.517625
1306 9 2 0.5897 5.537178 25.947928 29.785242
1307 9 3 0.0 0.000000 23.775000 23.775000
1308 9 3 0.0 5.943750 29.718750 29.718750
1309 9 3 0.0 0.000000 26.746875 29.718750
1310 9 3 0.0 0.000000 32.690625 29.718750
1311 9 3 0.0 5.943750 23.775000 26.746875
1312 9 3 0.0 5.943750 23.775000 32.690625
1313 9 3 0.0 2.971875 29.718750 23.775000
1314 9 3 0.0 8.915625 29.718750 23.775000
1315 10 1 -1.1794 0.000000 41.606250 2.971875
1316 10 2 0.5897 0.009656 42.408882 2.401692
1317 10 2 0.5897 0.819206 41.741305 3.500477
1318 10 1 -1.1794 0.000000 41.606250 8.915625
1319 10 2 0.5897 0.281067 42.470936 9.277971
1320 10 2 0.5897 0.723234 41.475273 8.254920
1321 10 1 -1.1794 2.971875 35.662500 5.943750
1322 10 2 0.5897 2.409366 35.775295 6.741859
1323 10 2 0.5897 3.506404 36.488596 5.955505
1324 10 1 -1.1794 8.915625 35.662500 5.943750
1325 10 2 0.5897 8.353117 36.460610 6.056546
1326 10 2 0.5897 9.450153 35.674253 6.769848
1327 10 1 -1.1794 5.943750 38.634375 0.000000
1328 10 2 0.5897 6.224823 38.996727 0.864683
1329 10 2 0.5897 6.666985 37.973672 -0.130979
1330 10 1 -1.1794 5.943750 44.578125 0.000000
1331 10 2 0.5897 5.953409 44.007941 0.802632
1332 10 2 0.5897 6.762955 45.106727 0.135054
1333 10 1 -1.1794 2.195740 37.858240 2.195740
1334 10 2 0.5897 1.930743 37.065281 2.721735
1335 10 2 0.5897 2.708046 38.370572 2.862811
1336 10 1 -1.1794 9.691760 45.354260 2.195740
1337 10 2 0.5897 9.978388 46.179281 2.648501
1338 10 2 0.5897 9.116718 45.706314 1.480933
1339 10 1 -1.1794 9.691760 37.858240 9.691760
1340 10 2 0.5897 9.154281 38.444808 9.104938
1341 10 2 0.5897 10.452871 38.444832 9.905926
1342 10 1 -1.1794 2.195740 45.354260 9.691760
1343 10 2 0.5897 1.433515 44.851365 10.050449
1344 10 2 0.5897 2.654073 45.612280 10.533970
1345 10 1 -1.1794 8.139490 43.801990 3.748010
1346 10 2 0.5897 8.055452 44.269415 4.601005
1347 10 2 0.5897 8.845452 44.306810 3.294149
1348 10 1 -1.1794 3.748010 39.410510 3.748010
1349 10 2 0.5897 4.002365 38.847288 4.519697
1350 10 2 0.5897 4.639981 39.633336 3.410372
1351 10 1 -1.1794 8.139490 39.410510 8.139490
1352 10 2 0.5897 7.353136 39.773445 8.609681
1353 10 2 0.5897 8.567214 40.235492 7.810198
1354 10 1 -1.1794 3.748010 43.801990 8.139490
1355 10 2 0.5897 3.235613 44.394046 8.742287
1356 10 2 0.5897 4.491456 43.531971 8.725499
1357 10 1 -1.1794 9.691760 45.354260 9.691760
1358 10 2 0.5897 9.946137 46.125942 9.128541
1359 10 2 0.5897 10.583721 45.016596 9.914592
1360 10 1 -1.1794 2.195740 37.858240 9.691760
1361 10 2 0.5897 1.409385 38.328429 10.054694
1362 10 2 0.5897 2.623464 37.528947 10.516742
1363 10 1 -1.1794 2.195740 45.354260 2.195740
1364 10 2 0.5897 2.111703 46.207255 2.663166
1365 10 2 0.5897 2.901702 44.900398 2.700560
1366 10 1 -1.1794 9.691760 37.858240 2.195740
1367 10 2 0.5897 9.179361 38.461035 2.787796
1368 10 2 0.5897 10.435205 38.444250 1.925722
1369 10 1 -1.1794 3.748010 39.410510 8.139490
1370 10 2 0.5897 3.210531 38.823688 8.726058
1371 10 2 0.5897 4.509120 39.624677 8.726082
1372 10 1 -1.1794 8.139490 43.801990 8.139490
1373 10 2 0.5897 7.874494 44.327984 7.346530
1374 10 2 0.5897 8.651795 44.469063 8.651821
1375 10 1 -1.1794 3.748010 43.801990 3.748010
1376 10 2 0.5897 4.034637 44.254751 4.573031
1377 10 2 0.5897 3.172969 43.087181 4.100063
1378 10 1 -1.1794 8.139490 39.410510 3.748010
1379 10 2 0.5897 7.377269 39.769205 3.245111
1380 10 2 0.5897 8.597826 40.252718 4.006031
1381 10 1 -1.1794 0.000000 39.342275 1.385607
1382 10 2 0.5897 0.035498 40.121567 1.989457
1383 10 2 0.5897 0.798485 38.841590 1.671756
1384 10 1 -1.1794 0.000000 43.870225 1.385607
1385 10 2 0.5897 -0.758631 44.394342 1.737352
1386 10 2 0.5897 0.759372 44.442326 1.670376
1387 10 1 -1.1794 0.000000 39.342275 10.501893
1388 10 2 0.5897 -0.044368 39.514390 11.469464
1389 10 2 0.5897 -0.018559 40.240641 10.109946
1390 10 1 -1.1794 0.000000 43.870225 10.501893
1391 10 2 0.5897 0.205529 43.936938 11.469986
1392 10 2 0.5897 -0.779451 43.291897 10.587942
1393 10 1 -1.1794 1.385607 35.662500 3.679775
1394 10 2 0.5897 0.417726 35.567841 3.821134
1395 10 2 0.5897 1.754570 35.563072 4.581968
1396 10 1 -1.1794 1.385607 35.662500 8.207725
1397 10 2 0.5897 1.716836 36.409254 8.758036
1398 10 2 0.5897 1.714706 34.891457 8.726950
1399 10 1 -1.1794 10.501893 35.662500 3.679775
1400 10 2 0.5897 9.916808 35.669167 4.472479
1401 10 2 0.5897 10.184338 36.461764 3.201735
1402 10 1 -1.1794 10.501893 35.662500 8.207725
1403 10 2 0.5897 10.305638 36.461373 8.749125
1404 10 2 0.5897 11.480928 35.728994 8.116678
1405 10 1 -1.1794 3.679775 37.048107 0.000000
1406 10 2 0.5897 3.181486 37.322580 0.803227
1407 10 2 0.5897 4.465410 37.634811 0.037997
1408 10 1 -1.1794 8.207725 37.048107 0.000000
1409 10 2 0.5897 8.780854 37.277355 0.769515
1410 10 2 0.5897 8.792041 37.315988 -0.747865
1411 10 1 -1.1794 3.679775 46.164393 0.000000
1412 10 2 0.5897 3.869586 47.114877 0.104347
1413 10 2 0.5897 4.546334 45.730958 0.112136
1414 10 1 -1.1794 8.207725 46.164393 0.000000
1415 10 2 0.5897 8.122284 47.140758 -0.083426
1416 10 2 0.5897 8.687717 45.939357 -0.827363
1417 10 1 -1.1794 9.623525 41.606250 4.558143
1418 10 2 0.5897 9.813335 41.710598 5.508627
1419 10 2 0.5897 10.490084 41.718385 4.124708
1420 10 1 -1.1794 2.263975 41.606250 4.558143
1421 10 2 0.5897 2.178531 41.522824 5.534508
1422 10 2 0.5897 2.743967 40.778887 4.333108
1423 10 1 -1.1794 9.623525 41.606250 7.329357
1424 10 2 0.5897 9.125238 42.409478 7.603833
1425 10 2 0.5897 10.409160 41.644243 7.916061
1426 10 1 -1.1794 2.263975 41.606250 7.329357
1427 10 2 0.5897 2.837102 42.375767 7.558605
1428 10 2 0.5897 2.848293 40.858386 7.597239
1429 10 1 -1.1794 5.943750 42.991857 2.263975
1430 10 2 0.5897 5.185122 43.343606 2.788093
1431 10 2 0.5897 6.703124 43.276622 2.836075
1432 10 1 -1.1794 5.943750 42.991857 9.623525
1433 10 2 0.5897 5.979250 43.595706 10.402818
1434 10 2 0.5897 6.742237 43.278002 9.122842
1435 10 1 -1.1794 5.943750 40.220643 2.263975
1436 10 2 0.5897 6.149264 41.188742 2.330661
1437 10 2 0.5897 5.164278 40.306661 1.685681
1438 10 1 -1.1794 5.943750 40.220643 9.623525
1439 10 2 0.5897 5.899383 41.188213 9.795644
1440 10 2 0.5897 5.925192 39.828692 10.521889
1441 10 1 -1.1794 7.329357 45.286025 5.943750
1442 10 2 0.5897 6.361476 45.427384 5.849090
1443 10 2 0.5897 7.698320 46.188218 5.844322
1444 10 1 -1.1794 7.329357 37.926475 5.943750
1445 10 2 0.5897 7.660588 38.476785 6.690503
1446 10 2 0.5897 7.658458 38.445699 5.172706
1447 10 1 -1.1794 4.558143 45.286025 5.943750
1448 10 2 0.5897 3.973056 46.078729 5.950416
1449 10 2 0.5897 4.240588 44.807985 6.743014
1450 10 1 -1.1794 4.558143 37.926475 5.943750
1451 10 2 0.5897 4.361890 38.467872 6.742625
1452 10 2 0.5897 5.537178 37.835428 6.010242
1453 10 3 0.0 0.000000 35.662500 0.000000
1454 10 3 0.0 5.943750 41.606250 5.943750
1455 10 3 0.0 0.000000 38.634375 5.943750
1456 10 3 0.0 0.000000 44.578125 5.943750
1457 10 3 0.0 5.943750 35.662500 2.971875
1458 10 3 0.0 5.943750 35.662500 8.915625
1459 10 3 0.0 2.971875 41.606250 0.000000
1460 10 3 0.0 8.915625 41.606250 0.000000
1461 11 1 -1.1794 0.000000 41.606250 14.859375
1462 11 2 0.5897 0.009656 42.408882 14.289192
1463 11 2 0.5897 0.819206 41.741305 15.387977
1464 11 1 -1.1794 0.000000 41.606250 20.803125
1465 11 2 0.5897 0.281067 42.470936 21.165471
1466 11 2 0.5897 0.723234 41.475273 20.142420
1467 11 1 -1.1794 2.971875 35.662500 17.831250
1468 11 2 0.5897 2.409366 35.775295 18.629359
1469 11 2 0.5897 3.506404 36.488596 17.843005
1470 11 1 -1.1794 8.915625 35.662500 17.831250
1471 11 2 0.5897 8.353117 36.460610 17.944046
1472 11 2 0.5897 9.450153 35.674253 18.657348
1473 11 1 -1.1794 5.943750 38.634375 11.887500
1474 11 2 0.5897 6.224823 38.996727 12.752183
1475 11 2 0.5897 6.666985 37.973672 11.756521
1476 11 1 -1.1794 5.943750 44.578125 11.887500
1477 11 2 0.5897 5.953409 44.007941 12.690132
1478 11 2 0.5897 6.762955 45.106727 12.022554
1479 11 1 -1.1794 2.195740 37.858240 14.083240
1480 11 2 0.5897 1.930743 37.065281 14.609235
1481 11 2 0.5897 2.708046 38.370572 14.750311
1482 11 1 -1.1794 9.691760 45.354260 14.083240
1483 11 2 0.5897 9.978388 46.179281 14.536001
1484 11 2 0.5897 9.116718 45.706314 13.368433
1485 11 1 -1.1794 9.691760 37.858240 21.579260
1486 11 2 0.5897 9.154281 38.444808 20.992438
1487 11 2 0.5897 10.452871 38.444832 21.793426
1488 11 1 -1.1794 2.195740 45.354260 21.579260
1489 11 2 0.5897 1.433515 44.851365 21.937949
1490 11 2 0.5897 2.654073 45.612280 22.421470
1491 11 1 -1.1794 8.139490 43.801990 15.635510
1492 11 2 0.5897 8.055452 44.269415 16.488505
1493 11 2 0.5897 8.845452 44.306810 15.181649
1494 11 1 -1.1794 3.748010 39.410510 15.635510
1495 11 2 0.5897 4.002365 38.847288 16.407197
1496 11 2 0.5897 4.639981 39.633336 15.297872
1497 11 1 -1.1794 8.139490 39.410510 20.026990
1498 11 2 0.5897 7.353136 39.773445 20.497181
1499 11 2 0.5897 8.567214 40.235492 19.697698
1500 11 1 -1.1794 3.748010 43.801990 20.026990
1501 11 2 0.5897 3.235613 44.394046 20.629787
1502 11 2 0.5897 4.491456 43.531971 20.612999
1503 11 1 -1.1794 9.691760 45.354260 21.579260
1504 11 2 0.5897 9.946137 46.125942 21.016041
1505 11 2 0.5897 10.583721 45.016596 21.802092
1506 11 1 -1.1794 2.195740 37.858240 21.579260
1507 11 2 0.5897 1.409385 38.328429 21.942194
1508 11 2 0.5897 2.623464 37.528947 22.404242
1509 11 1 -1.1794 2.195740 45.354260 14.083240
1510 11 2 0.5897 2.111703 46.207255 14.550666
1511 11 2 0.5897 2.901702 44.900398 14.588060
1512 11 1 -1.1794 9.691760 37.858240 14.083240
1513 11 2 0.5897 9.179361 38.461035 14.675296
1514 11 2 0.5897 10.435205 38.444250 13.813222
1515 11 1 -1.1794 3.748010 39.410510 20.026990
1516 11 2 0.5897 3.210531 38.823688 20.613558
1517 11 2 0.5897 4.509120 39.624677 20.613582
1518 11 1 -1.1794 8.139490 43.801990 20.026990
1519 11 2 0.5897 7.874494 44.327984 19.234030
1520 11 2 0.5897 8.651795 44.469063 20.539321
1521 11 1 -1.1794 3.748010 43.801990 15.635510
1522 11 2 0.5897 4.034637 44.254751 16.460531
1523 11 2 0.5897 3.172969 43.087181 15.987563
1524 11 1 -1.1794 8.139490 39.410510 15.635510
1525 11 2 0.5897 7.377269 39.769205 15.132611
1526 11 2 0.5897 8.597826 40.252718 15.893531
1527 11 1 -1.1794 0.000000 39.342275 13.273107
1528 11 2 0.5897 0.035498 40.121567 13.876957
1529 11 2 0.5897 0.798485 38.841590 13.559256
1530 11 1 -1.1794 0.000000 43.870225 13.273107
1531 11 2 0.5897 -0.758631 44.394342 13.624852
1532 11 2 0.5897 0.759372 44.442326 13.557876
1533 11 1 -1.1794 0.000000 39.342275 22.389393
1534 11 2 0.5897 -0.044368 39.514390 23.356964
1535 11 2 0.5897 -0.018559 40.240641 21.997446
1536 11 1 -1.1794 0.000000 43.870225 22.389393
1537 11 2 0.5897 0.205529 43.936938 23.357486
1538 11 2 0.5897 -0.779451 43.291897 22.475442
1539 11 1 -1.1794 1.385607 35.662500 15.567275
1540 11 2 0.5897 0.417726 35.567841 15.708634
1541 11 2 0.5897 1.754570 35.563072 16.469468
1542 11 1 -1.1794 1.385607 35.662500 20.095225
1543 11 2 0.5897 1.716836 36.409254 20.645536
1544 11 2 0.5897 1.714706 34.891457 20.614450
1545 11 1 -1.1794 10.501893 35.662500 15.567275
1546 11 2 0.5897 9.916808 35.669167 16.359979
1547 11 2 0.5897 10.184338 36.461764 15.089235
1548 11 1 -1.1794 10.501893 35.662500 20.095225
1549 11 2 0.5897 10.305638 36.461373 20.636625
1550 11 2 0.5897 11.480928 35.728994 20.004178
1551 11 1 -1.1794 3.679775 37.048107 11.887500
1552 11 2 0.5897 3.181486 37.322580 12.690727
1553 11 2 0.5897 4.465410 37.634811 11.925497
1554 11 1 -1.1794 8.207725 37.048107 11.887500
1555 11 2 0.5897 8.780854 37.277355 12.657015
1556 11 2 0.5897 8.792041 37.315988 11.139635
1557 11 1 -1.1794 3.679775 46.164393 11.887500
1558 11 2 0.5897 3.869586 47.114877 11.991847
1559 11 2 0.5897 4.546334 45.730958 11.999636
1560 11 1 -1.1794 8.207725 46.164393 11.887500
1561 11 2 0.5897 8.122284 47.140758 11.804074
1562 11 2 0.5897 8.687717 45.939357 11.060137
1563 11 1 -1.1794 9.623525 41.606250 16.445643
1564 11 2 0.5897 9.813335 41.710598 17.396127
1565 11 2 0.5897 10.490084 41.718385 16.012208
1566 11 1 -1.1794 2.263975 41.606250 16.445643
1567 11 2 0.5897 2.178531 41.522824 17.422008
1568 11 2 0.5897 2.743967 40.778887 16.220608
1569 11 1 -1.1794 9.623525 41.606250 19.216857
1570 11 2 0.5897 9.125238 42.409478 19.491333
1571 11 2 0.5897 10.409160 41.644243 19.803561
1572 11 1 -1.1794 2.263975 41.606250 19.216857
1573 11 2 0.5897 2.837102 42.375767 19.446105
1574 11 2 0.5897 2.848293 40.858386 19.484739
1575 11 1 -1.1794 5.943750 42.991857 14.151475
1576 11 2 0.5897 5.185122 43.343606 14.675593
1577 11 2 0.5897 6.703124 43.276622 14.723575
1578 11 1 -1.1794 5.943750 42.991857 21.511025
1579 11 2 0.5897 5.979250 43.595706 22.290318
1580 11 2 0.5897 6.742237 43.278002 21.010342
1581 11 1 -1.1794 5.943750 40.220643 14.151475
1582 11 2 0.5897 6.149264 41.188742 14.218161
1583 11 2 0.5897 5.164278 40.306661 13.573181
1584 11 1 -1.1794 5.943750 40.220643 21.511025
1585 11 2 0.5897 5.899383 41.188213 21.683144
1586 11 2 0.5897 5.925192 39.828692 22.409389
1587 11 1 -1.1794 7.329357 45.286025 17.831250
1588 11 2 0.5897 6.361476 45.427384 17.736590
1589 11 2 0.5897 7.698320 46.188218 17.731822
1590 11 1 -1.1794 7.329357 37.926475 17.831250
1591 11 2 0.5897 7.660588 38.476785 18.578003
1592 11 2 0.5897 7.658458 38.445699 17.060206
1593 11 1 -1.1794 4.558143 45.286025 17.831250
1594 11 2 0.5897 3.973056 46.078729 17.837916
1595 11 2 0.5897 4.240588 44.807985 18.630514
1596 11 1 -1.1794 4.558143 37.926475 17.831250
1597 11 2 0.5897 4.361890 38.467872 18.630125
1598 11 2 0.5897 5.537178 37.835428 17.897742
1599 11 3 0.0 0.000000 35.662500 11.887500
1600 11 3 0.0 5.943750 41.606250 17.831250
1601 11 3 0.0 0.000000 38.634375 17.831250
1602 11 3 0.0 0.000000 44.578125 17.831250
1603 11 3 0.0 5.943750 35.662500 14.859375
1604 11 3 0.0 5.943750 35.662500 20.803125
1605 11 3 0.0 2.971875 41.606250 11.887500
1606 11 3 0.0 8.915625 41.606250 11.887500
1607 12 1 -1.1794 0.000000 41.606250 26.746875
1608 12 2 0.5897 0.009656 42.408882 26.176692
1609 12 2 0.5897 0.819206 41.741305 27.275477
1610 12 1 -1.1794 0.000000 41.606250 32.690625
1611 12 2 0.5897 0.281067 42.470936 33.052971
1612 12 2 0.5897 0.723234 41.475273 32.029920
1613 12 1 -1.1794 2.971875 35.662500 29.718750
1614 12 2 0.5897 2.409366 35.775295 30.516859
1615 12 2 0.5897 3.506404 36.488596 29.730505
1616 12 1 -1.1794 8.915625 35.662500 29.718750
1617 12 2 0.5897 8.353117 36.460610 29.831546
1618 12 2 0.5897 9.450153 35.674253 30.544848
1619 12 1 -1.1794 5.943750 38.634375 23.775000
1620 12 2 0.5897 6.224823 38.996727 24.639683
1621 12 2 0.5897 6.666985 37.973672 23.644021
1622 12 1 -1.1794 5.943750 44.578125 23.775000
1623 12 2 0.5897 5.953409 44.007941 24.577632
1624 12 2 0.5897 6.762955 45.106727 23.910054
1625 12 1 -1.1794 2.195740 37.858240 25.970740
1626 12 2 0.5897 1.930743 37.065281 26.496735
1627 12 2 0.5897 2.708046 38.370572 26.637811
1628 12 1 -1.1794 9.691760 45.354260 25.970740
1629 12 2 0.5897 9.978388 46.179281 26.423501
1630 12 2 0.5897 9.116718 45.706314 25.255933
1631 12 1 -1.1794 9.691760 37.858240 33.466760
1632 12 2 0.5897 9.154281 38.444808 32.879938
1633 12 2 0.5897 10.452871 38.444832 33.680926
1634 12 1 -1.1794 2.195740 45.354260 33.466760
1635 12 2 0.5897 1.433515 44.851365 33.825449
1636 12 2 0.5897 2.654073 45.612280 34.308970
1637 12 1 -1.1794 8.139490 43.801990 27.523010
1638 12 2 0.5897 8.055452 44.269415 28.376005
1639 12 2 0.5897 8.845452 44.306810 27.069149
1640 12 1 -1.1794 3.748010 39.410510 27.523010
1641 12 2 0.5897 4.002365 38.847288 28.294697
1642 12 2 0.5897 4.639981 39.633336 27.185372
1643 12 1 -1.1794 8.139490 39.410510 31.914490
1644 12 2 0.5897 7.353136 39.773445 32.384681
1645 12 2 0.5897 8.567214 40.235492 31.585198
1646 12 1 -1.1794 3.748010 43.801990 31.914490
1647 12 2 0.5897 3.235613 44.394046 32.517287
1648 12 2 0.5897 4.491456 43.531971 32.500499
1649 12 1 -1.1794 9.691760 45.354260 33.466760
1650 12 2 0.5897 9.946137 46.125942 32.903541
1651 12 2 0.5897 10.583721 45.016596 33.689592
1652 12 1 -1.1794 2.195740 37.858240 33.466760
1653 12 2 0.5897 1.409385 38.328429 33.829694
1654 12 2 0.5897 2.623464 37.528947 34.291742
1655 12 1 -1.1794 2.195740 45.354260 25.970740
1656 12 2 0.5897 2.111703 46.207255 26.438166
1657 12 2 0.5897 2.901702 44.900398 26.475560
1658 12 1 -1.1794 9.691760 37.858240 25.970740
1659 12 2 0.5897 9.179361 38.461035 26.562796
1660 12 2 0.5897 10.435205 38.444250 25.700722
1661 12 1 -1.1794 3.748010 39.410510 31.914490
1662 12 2 0.5897 3.210531 38.823688 32.501058
1663 12 2 0.5897 4.509120 39.624677 32.501082
1664 12 1 -1.1794 8.139490 43.801990 31.914490
1665 12 2 0.5897 7.874494 44.327984 31.121530
1666 12 2 0.5897 8.651795 44.469063 32.426821
1667 12 1 -1.1794 3.748010 43.801990 27.523010
1668 12 2 0.5897 4.034637 44.254751 28.348031
1669 12 2 0.5897 3.172969 43.087181 27.875063
1670 12 1 -1.1794 8.139490 39.410510 27.523010
1671 12 2 0.5897 7.377269 39.769205 27.020111
1672 12 2 0.5897 8.597826 40.252718 27.781031
1673 12 1 -1.1794 0.000000 39.342275 25.160607
1674 12 2 0.5897 0.035498 40.121567 25.764457
1675 12 2 0.5897 0.798485 38.841590 25.446756
1676 12 1 -1.1794 0.000000 43.870225 25.160607
1677 12 2 0.5897 -0.758631 44.394342 25.512352
1678 12 2 0.5897 0.759372 44.442326 25.445376
1679 12 1 -1.1794 0.000000 39.342275 34.276893
1680 12 2 0.5897 -0.044368 39.514390 35.244464
1681 12 2 0.5897 -0.018559 40.240641 33.884946
1682 12 1 -1.1794 0.000000 43.870225 34.276893
1683 12 2 0.5897 0.205529 43.936938 35.244986
1684 12 2 0.5897 -0.779451 43.291897 34.362942
1685 12 1 -1.1794 1.385607 35.662500 27.454775
1686 12 2 0.5897 0.417726 35.567841 27.596134
1687 12 2 0.5897 1.754570 35.563072 28.356968
1688 12 1 -1.1794 1.385607 35.662500 31.982725
1689 12 2 0.5897 1.716836 36.409254 32.533036
1690 12 2 0.5897 1.714706 34.891457 32.501950
1691 12 1 -1.1794 10.501893 35.662500 27.454775
1692 12 2 0.5897 9.916808 35.669167 28.247479
1693 12 2 0.5897 10.184338 36.461764 26.976735
1694 12 1 -1.1794 10.501893 35.662500 31.982725
1695 12 2 0.5897 10.305638 36.461373 32.524125
1696 12 2 0.5897 11.480928 35.728994 31.891678
1697 12 1 -1.1794 3.679775 37.048107 23.775000
1698 12 2 0.5897 3.181486 37.322580 24.578227
1699 12 2 0.5897 4.465410 37.634811 23.812997
1700 12 1 -1.1794 8.207725 37.048107 23.775000
1701 12 2 0.5897 8.780854 37.277355 24.544515
1702 12 2 0.5897 8.792041 37.315988 23.027135
1703 12 1 -1.1794 3.679775 46.164393 23.775000
1704 12 2 0.5897 3.869586 47.114877 23.879347
1705 12 2 0.5897 4.546334 45.730958 23.887136
1706 12 1 -1.1794 8.207725 46.164393 23.775000
1707 12 2 0.5897 8.122284 47.140758 23.691574
1708 12 2 0.5897 8.687717 45.939357 22.947637
1709 12 1 -1.1794 9.623525 41.606250 28.333143
1710 12 2 0.5897 9.813335 41.710598 29.283627
1711 12 2 0.5897 10.490084 41.718385 27.899708
1712 12 1 -1.1794 2.263975 41.606250 28.333143
1713 12 2 0.5897 2.178531 41.522824 29.309508
1714 12 2 0.5897 2.743967 40.778887 28.108108
1715 12 1 -1.1794 9.623525 41.606250 31.104357
1716 12 2 0.5897 9.125238 42.409478 31.378833
1717 12 2 0.5897 10.409160 41.644243 31.691061
1718 12 1 -1.1794 2.263975 41.606250 31.104357
1719 12 2 0.5897 2.837102 42.375767 31.333605
1720 12 2 0.5897 2.848293 40.858386 31.372239
1721 12 1 -1.1794 5.943750 42.991857 26.038975
1722 12 2 0.5897 5.185122 43.343606 26.563093
1723 12 2 0.5897 6.703124 43.276622 26.611075
1724 12 1 -1.1794 5.943750 42.991857 33.398525
1725 12 2 0.5897 5.979250 43.595706 34.177818
1726 12 2 0.5897 6.742237 43.278002 32.897842
1727 12 1 -1.1794 5.943750 40.220643 26.038975
1728 12 2 0.5897 6.149264 41.188742 26.105661
1729 12 2 0.5897 5.164278 40.306661 25.460681
1730 12 1 -1.1794 5.943750 40.220643 33.398525
1731 12 2 0.5897 5.899383 41.188213 33.570644
1732 12 2 0.5897 5.925192 39.828692 34.296889
1733 12 1 -1.1794 7.329357 45.286025 29.718750
1734 12 2 0.5897 6.361476 45.427384 29.624090
1735 12 2 0.5897 7.698320 46.188218 29.619322
1736 12 1 -1.1794 7.329357 37.926475 29.718750
1737 12 2 0.5897 7.660588 38.476785 30.465503
1738 12 2 0.5897 7.658458 38.445699 28.947706
1739 12 1 -1.1794 4.558143 45.286025 29.718750
1740 12 2 0.5897 3.973056 46.078729 29.725416
1741 12 2 0.5897 4.240588 44.807985 30.518014
1742 12 1 -1.1794 4.558143 37.926475 29.718750
1743 12 2 0.5897 4.361890 38.467872 30.517625
1744 12 2 0.5897 5.537178 37.835428 29.785242
1745 12 3 0.0 0.000000 35.662500 23.775000
1746 12 3 0.0 5.943750 41.606250 29.718750
1747 12 3 0.0 0.000000 38.634375 29.718750
1748 12 3 0.0 0.000000 44.578125 29.718750
1749 12 3 0.0 5.943750 35.662500 26.746875
1750 12 3 0.0 5.943750 35.662500 32.690625
1751 12 3 0.0 2.971875 41.606250 23.775000
1752 12 3 0.0 8.915625 41.606250 23.775000
1753 13 1 -1.1794 11.887500 5.943750 2.971875
1754 13 2 0.5897 11.897156 6.746382 2.401692
1755 13 2 0.5897 12.706706 6.078805 3.500477
1756 13 1 -1.1794 11.887500 5.943750 8.915625
1757 13 2 0.5897 12.168567 6.808436 9.277971
1758 13 2 0.5897 12.610734 5.812773 8.254920
1759 13 1 -1.1794 14.859375 0.000000 5.943750
1760 13 2 0.5897 14.296866 0.112795 6.741859
1761 13 2 0.5897 15.393904 0.826096 5.955505
1762 13 1 -1.1794 20.803125 0.000000 5.943750
1763 13 2 0.5897 20.240617 0.798110 6.056546
1764 13 2 0.5897 21.337653 0.011753 6.769848
1765 13 1 -1.1794 17.831250 2.971875 0.000000
1766 13 2 0.5897 18.112323 3.334227 0.864683
1767 13 2 0.5897 18.554485 2.311172 -0.130979
1768 13 1 -1.1794 17.831250 8.915625 0.000000
1769 13 2 0.5897 17.840909 8.345441 0.802632
1770 13 2 0.5897 18.650455 9.444227 0.135054
1771 13 1 -1.1794 14.083240 2.195740 2.195740
1772 13 2 0.5897 13.818243 1.402781 2.721735
1773 13 2 0.5897 14.595546 2.708072 2.862811
1774 13 1 -1.1794 21.579260 9.691760 2.195740
1775 13 2 0.5897 21.865888 10.516781 2.648501
1776 13 2 0.5897 21.004218 10.043814 1.480933
1777 13 1 -1.1794 21.579260 2.195740 9.691760
1778 13 2 0.5897 21.041781 2.782308 9.104938
1779 13 2 0.5897 22.340371 2.782332 9.905926
1780 13 1 -1.1794 14.083240 9.691760 9.691760
1781 13 2 0.5897 13.321015 9.188865 10.050449
1782 13 2 0.5897 14.541573 9.949780 10.533970
1783 13 1 -1.1794 20.026990 8.139490 3.748010
1784 13 2 0.5897 19.942952 8.606915 4.601005
1785 13 2 0.5897 20.732952 8.644310 3.294149
1786 13 1 -1.1794 15.635510 3.748010 3.748010
1787 13 2 0.5897 15.889865 3.184788 4.519697
1788 13 2 0.5897 16.527481 3.970836 3.410372
1789 13 1 -1.1794 20.026990 3.748010 8.139490
1790 13 2 0.5897 19.240636 4.110945 8.609681
1791 13 2 0.5897 20.454714 4.572992 7.810198
1792 13 1 -1.1794 15.635510 8.139490 8.139490
1793 13 2 0.5897 15.123113 8.731546 8.742287
1794 13 2 0.5897 16.378956 7.869471 8.725499
1795 13 1 -1.1794 21.579260 9.691760 9.691760
1796 13 2 0.5897 21.833637 10.463442 9.128541
1797 13 2 0.5897 22.471221 9.354096 9.914592
1798 13 1 -1.1794 14.083240 2.195740 9.691760
1799 13 2 0.5897 13.296885 2.665929 10.054694
1800 13 2 0.5897 14.510964 1.866447 10.516742
1801 13 1 -1.1794 14.083240 9.691760 2.195740
1802 13 2 0.5897 13.999203 10.544755 2.663166
1803 13 2 0.5897 14.789202 9.237898 2.700560
1804 13 1 -1.1794 21.579260 2.195740 2.195740
1805 13 2 0.5897 21.066861 2.798535 2.787796
1806 13 2 0.5897 22.322705 2.781750 1.925722
1807 13 1 -1.1794 15.635510 3.748010 8.139490
1808 13 2 0.5897 15.098031 3.161188 8.726058
1809 13 2 0.5897 16.396620 3.962177 8.726082
1810 13 1 -1.1794 20.026990 8.139490 8.139490
1811 13 2 0.5897 19.761994 8.665484 7.346530
1812 13 2 0.5897 20.539295 8.806563 8.651821
1813 13 1 -1.1794 15.635510 8.139490 3.748010
1814 13 2 0.5897 15.922137 8.592251 4.573031
1815 13 2 0.5897 15.060469 7.424681 4.100063
1816 13 1 -1.1794 20.026990 3.748010 3.748010
1817 13 2 0.5897 19.264769 4.106705 3.245111
1818 13 2 0.5897 20.485326 4.590218 4.006031
1819 13 1 -1.1794 11.887500 3.679775 1.385607
1820 13 2 0.5897 11.922998 4.459067 1.989457
1821 13 2 0.5897 12.685985 3.179090 1.671756
1822 13 1 -1.1794 11.887500 8.207725 1.385607
1823 13 2 0.5897 11.128869 8.731842 1.737352
1824 13 2 0.5897 12.646872 8.779826 1.670376
1825 13 1 -1.1794 11.887500 3.679775 10.501893
1826 13 2 0.5897 11.843132 3.851890 11.469464
1827 13 2 0.5897 11.868941 4.578141 10.109946
1828 13 1 -1.1794 11.887500 8.207725 10.501893
1829 13 2 0.5897 12.093029 8.274438 11.469986
1830 13 2 0.5897 11.108049 7.629397 10.587942
1831 13 1 -1.1794 13.273107 0.000000 3.679775
1832 13 2 0.5897 12.305226 -0.094659 3.821134
1833 13 2 0.5897 13.642070 -0.099428 4.581968
1834 13 1 -1.1794 13.273107 0.000000 8.207725
1835 13 2 0.5897 13.604336 0.746754 8.758036
1836 13 2 0.5897 13.602206 -0.771043 8.726950
1837 13 1 -1.1794 22.389393 0.000000 3.679775
1838 13 2 0.5897 21.804308 0.006667 4.472479
1839 13 2 0.5897 22.071838 0.799264 3.201735
1840 13 1 -1.1794 22.389393 0.000000 8.207725
1841 13 2 0.5897 22.193138 0.798873 8.749125
1842 13 2 0.5897 23.368428 0.066494 8.116678
1843 13 1 -1.1794 15.567275 1.385607 0.000000
1844 13 2 0.5897 15.068986 1.660080 0.803227
1845 13 2 0.5897 16.352910 1.972311 0.037997
1846 13 1 -1.1794 20.095225 1.385607 0.000000
1847 13 2 0.5897 20.668354 1.614855 0.769515
1848 13 2 0.5897 20.679541 1.653488 -0.747865
1849 13 1 -1.1794 15.567275 10.501893 0.000000
1850 13 2 0.5897 15.757086 11.452377 0.104347
1851 13 2 0.5897 16.433834 10.068458 0.112136
1852 13 1 -1.1794 20.095225 10.501893 0.000000
1853 13 2 0.5897 20.009784 11.478258 -0.083426
1854 13 2 0.5897 20.575217 10.276857 -0.827363
1855 13 1 -1.1794 21.511025 5.943750 4.558143
1856 13 2 0.5897 21.700835 6.048098 5.508627
1857 13 2 0.5897 22.377584 6.055885 4.124708
1858 13 1 -1.1794 14.151475 5.943750 4.558143
1859 13 2 0.5897 14.066031 5.860324 5.534508
1860 13 2 0.5897 14.631467 5.116387 4.333108
1861 13 1 -1.1794 21.511025 5.943750 7.329357
1862 13 2 0.5897 21.012738 6.746978 7.603833
1863 13 2 0.5897 22.296660 5.981743 7.916061
1864 13 1 -1.1794 14.151475 5.943750 7.329357
1865 13 2 0.5897 14.724602 6.713267 7.558605
1866 13 2 0.5897 14.735793 5.195886 7.597239
1867 13 1 -1.1794 17.831250 7.329357 2.263975
1868 13 2 0.5897 17.072622 7.681106 2.788093
1869 13 2 0.5897 18.590624 7.614122 2.836075
1870 13 1 -1.1794 17.831250 7.329357 9.623525
1871 13 2 0.5897 17.866750 7.933206 10.402818
1872 13 2 0.5897 18.629737 7.615502 9.122842
1873 13 1 -1.1794 17.831250 4.558143 2.263975
1874 13 2 0.5897 18.036764 5.526242 2.330661
1875 13 2 0.5897 17.051778 4.644161 1.685681
1876 13 1 -1.1794 17.831250 4.558143 9.623525
1877 13 2 0.5897 17.786883 5.525713 9.795644
1878 13 2 0.5897 17.812692 4.166192 10.521889
1879 13 1 -1.1794 19.216857 9.623525 5.943750
1880 13 2 0.5897 18.248976 9.764884 5.849090
1881 13 2 0.5897 19.585820 10.525718 5.844322
1882 13 1 -1.1794 19.216857 2.263975 5.943750
1883 13 2 0.5897 19.548088 2.814285 6.690503
1884 13 2 0.5897 19.545958 2.783199 5.172706
1885 13 1 -1.1794 16.445643 9.623525 5.943750
1886 13 2 0.5897 15.860556 10.416229 5.950416
1887 13 2 0.5897 16.128088 9.145485 6.743014
1888 13 1 -1.1794 16.445643 2.263975 5.943750
1889 13 2 0.5897 16.249390 2.805372 6.742625
1890 13 2 0.5897 17.424678 2.172928 6.010242
1891 13 3 0.0 11.887500 0.000000 0.000000
1892 13 3 0.0 17.831250 5.943750 5.943750
1893 13 3 0.0 11.887500 2.971875 5.943750
1894 13 3 0.0 11.887500 8.915625 5.943750
1895 13 3 0.0 17.831250 0.000000 2.971875
1896 13 3 0.0 17.831250 0.000000 8.915625
1897 13 3 0.0 14.859375 5.943750 0.000000
1898 13 3 0.0 20.803125 5.943750 0.000000
1899 14 1 -1.1794 11.887500 5.943750 14.859375
1900 14 2 0.5897 11.897156 6.746382 14.289192
1901 14 2 0.5897 12.706706 6.078805 15.387977
1902 14 1 -1.1794 11.887500 5.943750 20.803125
1903 14 2 0.5897 12.168567 6.808436 21.165471
1904 14 2 0.5897 12.610734 5.812773 20.142420
1905 14 1 -1.1794 14.859375 0.000000 17.831250
1906 14 2 0.5897 14.296866 0.112795 18.629359
1907 14 2 0.5897 15.393904 0.826096 17.843005
1908 14 1 -1.1794 20.803125 0.000000 17.831250
1909 14 2 0.5897 20.240617 0.798110 17.944046
1910 14 2 0.5897 21.337653 0.011753 18.657348
1911 14 1 -1.1794 17.831250 2.971875 11.887500
1912 14 2 0.5897 18.112323 3.334227 12.752183
1913 14 2 0.5897 18.554485 2.311172 11.756521
1914 14 1 -1.1794 17.831250 8.915625 11.887500
1915 14 2 0.5897 17.840909 8.345441 12.690132
1916 14 2 0.5897 18.650455 9.444227 12.022554
1917 14 1 -1.1794 14.083240 2.195740 14.083240
1918 14 2 0.5897 13.818243 1.402781 14.609235
1919 14 2 0.5897 14.595546 2.708072 14.750311
1920 14 1 -1.1794 21.579260 9.691760 14.083240
1921 14 2 0.5897 21.865888 10.516781 14.536001
1922 14 2 0.5897 21.004218 10.043814 13.368433
1923 14 1 -1.1794 21.579260 2.195740 21.579260
1924 14 2 0.5897 21.041781 2.782308 20.992438
1925 14 2 0.5897 22.340371 2.782332 21.793426
1926 14 1 -1.1794 14.083240 9.691760 21.579260
1927 14 2 0.5897 13.321015 9.188865 21.937949
1928 14 2 0.5897 14.541573 9.949780 22.421470
1929 14 1 -1.1794 20.026990 8.139490 15.635510
1930 14 2 0.5897 19.942952 8.606915 16.488505
1931 14 2 0.5897 20.732952 8.644310 15.181649
1932 14 1 -1.1794 15.635510 3.748010 15.635510
1933 14 2 0.5897 15.889865 3.184788 16.407197
1934 14 2 0.5897 16.527481 3.970836 15.297872
1935 14 1 -1.1794 20.026990 3.748010 20.026990
1936 14 2 0.5897 19.240636 4.110945 20.497181
1937 14 2 0.5897 20.454714 4.572992 19.697698
1938 14 1 -1.1794 15.635510 8.139490 20.026990
1939 14 2 0.5897 15.123113 8.731546 20.629787
1940 14 2 0.5897 16.378956 7.869471 20.612999
1941 14 1 -1.1794 21.579260 9.691760 21.579260
1942 14 2 0.5897 21.833637 10.463442 21.016041
1943 14 2 0.5897 22.471221 9.354096 21.802092
1944 14 1 -1.1794 14.083240 2.195740 21.579260
1945 14 2 0.5897 13.296885 2.665929 21.942194
1946 14 2 0.5897 14.510964 1.866447 22.404242
1947 14 1 -1.1794 14.083240 9.691760 14.083240
1948 14 2 0.5897 13.999203 10.544755 14.550666
1949 14 2 0.5897 14.789202 9.237898 14.588060
1950 14 1 -1.1794 21.579260 2.195740 14.083240
1951 14 2 0.5897 21.066861 2.798535 14.675296
1952 14 2 0.5897 22.322705 2.781750 13.813222
1953 14 1 -1.1794 15.635510 3.748010 20.026990
1954 14 2 0.5897 15.098031 3.161188 20.613558
1955 14 2 0.5897 16.396620 3.962177 20.613582
1956 14 1 -1.1794 20.026990 8.139490 20.026990
1957 14 2 0.5897 19.761994 8.665484 19.234030
1958 14 2 0.5897 20.539295 8.806563 20.539321
1959 14 1 -1.1794 15.635510 8.139490 15.635510
1960 14 2 0.5897 15.922137 8.592251 16.460531
1961 14 2 0.5897 15.060469 7.424681 15.987563
1962 14 1 -1.1794 20.026990 3.748010 15.635510
1963 14 2 0.5897 19.264769 4.106705 15.132611
1964 14 2 0.5897 20.485326 4.590218 15.893531
1965 14 1 -1.1794 11.887500 3.679775 13.273107
1966 14 2 0.5897 11.922998 4.459067 13.876957
1967 14 2 0.5897 12.685985 3.179090 13.559256
1968 14 1 -1.1794 11.887500 8.207725 13.273107
1969 14 2 0.5897 11.128869 8.731842 13.624852
1970 14 2 0.5897 12.646872 8.779826 13.557876
1971 14 1 -1.1794 11.887500 3.679775 22.389393
1972 14 2 0.5897 11.843132 3.851890 23.356964
1973 14 2 0.5897 11.868941 4.578141 21.997446
1974 14 1 -1.1794 11.887500 8.207725 22.389393
1975 14 2 0.5897 12.093029 8.274438 23.357486
1976 14 2 0.5897 11.108049 7.629397 22.475442
1977 14 1 -1.1794 13.273107 0.000000 15.567275
1978 14 2 0.5897 12.305226 -0.094659 15.708634
1979 14 2 0.5897 13.642070 -0.099428 16.469468
1980 14 1 -1.1794 13.273107 0.000000 20.095225
1981 14 2 0.5897 13.604336 0.746754 20.645536
1982 14 2 0.5897 13.602206 -0.771043 20.614450
1983 14 1 -1.1794 22.389393 0.000000 15.567275
1984 14 2 0.5897 21.804308 0.006667 16.359979
1985 14 2 0.5897 22.071838 0.799264 15.089235
1986 14 1 -1.1794 22.389393 0.000000 20.095225
1987 14 2 0.5897 22.193138 0.798873 20.636625
1988 14 2 0.5897 23.368428 0.066494 20.004178
1989 14 1 -1.1794 15.567275 1.385607 11.887500
1990 14 2 0.5897 15.068986 1.660080 12.690727
1991 14 2 0.5897 16.352910 1.972311 11.925497
1992 14 1 -1.1794 20.095225 1.385607 11.887500
1993 14 2 0.5897 20.668354 1.614855 12.657015
1994 14 2 0.5897 20.679541 1.653488 11.139635
1995 14 1 -1.1794 15.567275 10.501893 11.887500
1996 14 2 0.5897 15.757086 11.452377 11.991847
1997 14 2 0.5897 16.433834 10.068458 11.999636
1998 14 1 -1.1794 20.095225 10.501893 11.887500
1999 14 2 0.5897 20.009784 11.478258 11.804074
2000 14 2 0.5897 20.575217 10.276857 11.060137
2001 14 1 -1.1794 21.511025 5.943750 16.445643
2002 14 2 0.5897 21.700835 6.048098 17.396127
2003 14 2 0.5897 22.377584 6.055885 16.012208
2004 14 1 -1.1794 14.151475 5.943750 16.445643
2005 14 2 0.5897 14.066031 5.860324 17.422008
2006 14 2 0.5897 14.631467 5.116387 16.220608
2007 14 1 -1.1794 21.511025 5.943750 19.216857
2008 14 2 0.5897 21.012738 6.746978 19.491333
2009 14 2 0.5897 22.296660 5.981743 19.803561
2010 14 1 -1.1794 14.151475 5.943750 19.216857
2011 14 2 0.5897 14.724602 6.713267 19.446105
2012 14 2 0.5897 14.735793 5.195886 19.484739
2013 14 1 -1.1794 17.831250 7.329357 14.151475
2014 14 2 0.5897 17.072622 7.681106 14.675593
2015 14 2 0.5897 18.590624 7.614122 14.723575
2016 14 1 -1.1794 17.831250 7.329357 21.511025
2017 14 2 0.5897 17.866750 7.933206 22.290318
2018 14 2 0.5897 18.629737 7.615502 21.010342
2019 14 1 -1.1794 17.831250 4.558143 14.151475
2020 14 2 0.5897 18.036764 5.526242 14.218161
2021 14 2 0.5897 17.051778 4.644161 13.573181
2022 14 1 -1.1794 17.831250 4.558143 21.511025
2023 14 2 0.5897 17.786883 5.525713 21.683144
2024 14 2 0.5897 17.812692 4.166192 22.409389
2025 14 1 -1.1794 19.216857 9.623525 17.831250
2026 14 2 0.5897 18.248976 9.764884 17.736590
2027 14 2 0.5897 19.585820 10.525718 17.731822
2028 14 1 -1.1794 19.216857 2.263975 17.831250
2029 14 2 0.5897 19.548088 2.814285 18.578003
2030 14 2 0.5897 19.545958 2.783199 17.060206
2031 14 1 -1.1794 16.445643 9.623525 17.831250
2032 14 2 0.5897 15.860556 10.416229 17.837916
2033 14 2 0.5897 16.128088 9.145485 18.630514
2034 14 1 -1.1794 16.445643 2.263975 17.831250
2035 14 2 0.5897 16.249390 2.805372 18.630125
2036 14 2 0.5897 17.424678 2.172928 17.897742
2037 14 3 0.0 11.887500 0.000000 11.887500
2038 14 3 0.0 17.831250 5.943750 17.831250
2039 14 3 0.0 11.887500 2.971875 17.831250
2040 14 3 0.0 11.887500 8.915625 17.831250
2041 14 3 0.0 17.831250 0.000000 14.859375
2042 14 3 0.0 17.831250 0.000000 20.803125
2043 14 3 0.0 14.859375 5.943750 11.887500
2044 14 3 0.0 20.803125 5.943750 11.887500
2045 15 1 -1.1794 11.887500 5.943750 26.746875
2046 15 2 0.5897 11.897156 6.746382 26.176692
2047 15 2 0.5897 12.706706 6.078805 27.275477
2048 15 1 -1.1794 11.887500 5.943750 32.690625
2049 15 2 0.5897 12.168567 6.808436 33.052971
2050 15 2 0.5897 12.610734 5.812773 32.029920
2051 15 1 -1.1794 14.859375 0.000000 29.718750
2052 15 2 0.5897 14.296866 0.112795 30.516859
2053 15 2 0.5897 15.393904 0.826096 29.730505
2054 15 1 -1.1794 20.803125 0.000000 29.718750
2055 15 2 0.5897 20.240617 0.798110 29.831546
2056 15 2 0.5897 21.337653 0.011753 30.544848
2057 15 1 -1.1794 17.831250 2.971875 23.775000
2058 15 2 0.5897 18.112323 3.334227 24.639683
2059 15 2 0.5897 18.554485 2.311172 23.644021
2060 15 1 -1.1794 17.831250 8.915625 23.775000
2061 15 2 0.5897 17.840909 8.345441 24.577632
2062 15 2 0.5897 18.650455 9.444227 23.910054
2063 15 1 -1.1794 14.083240 2.195740 25.970740
2064 15 2 0.5897 13.818243 1.402781 26.496735
2065 15 2 0.5897 14.595546 2.708072 26.637811
2066 15 1 -1.1794 21.579260 9.691760 25.970740
2067 15 2 0.5897 21.865888 10.516781 26.423501
2068 15 2 0.5897 21.004218 10.043814 25.255933
2069 15 1 -1.1794 21.579260 2.195740 33.466760
2070 15 2 0.5897 21.041781 2.782308 32.879938
2071 15 2 0.5897 22.340371 2.782332 33.680926
2072 15 1 -1.1794 14.083240 9.691760 33.466760
2073 15 2 0.5897 13.321015 9.188865 33.825449
2074 15 2 0.5897 14.541573 9.949780 34.308970
2075 15 1 -1.1794 20.026990 8.139490 27.523010
2076 15 2 0.5897 19.942952 8.606915 28.376005
2077 15 2 0.5897 20.732952 8.644310 27.069149
2078 15 1 -1.1794 15.635510 3.748010 27.523010
2079 15 2 0.5897 15.889865 3.184788 28.294697
2080 15 2 0.5897 16.527481 3.970836 27.185372
2081 15 1 -1.1794 20.026990 3.748010 31.914490
2082 15 2 0.5897 19.240636 4.110945 32.384681
2083 15 2 0.5897 20.454714 4.572992 31.585198
2084 15 1 -1.1794 15.635510 8.139490 31.914490
2085 15 2 0.5897 15.123113 8.731546 32.517287
2086 15 2 0.5897 16.378956 7.869471 32.500499
2087 15 1 -1.1794 21.579260 9.691760 33.466760
2088 15 2 0.5897 21.833637 10.463442 32.903541
2089 15 2 0.5897 22.471221 9.354096 33.689592
2090 15 1 -1.1794 14.083240 2.195740 33.466760
2091 15 2 0.5897 13.296885 2.665929 33.829694
2092 15 2 0.5897 14.510964 1.866447 34.291742
2093 15 1 -1.1794 14.083240 9.691760 25.970740
2094 15 2 0.5897 13.999203 10.544755 26.438166
2095 15 2 0.5897 14.789202 9.237898 26.475560
2096 15 1 -1.1794 21.579260 2.195740 25.970740
2097 15 2 0.5897 21.066861 2.798535 26.562796
2098 15 2 0.5897 22.322705 2.781750 25.700722
2099 15 1 -1.1794 15.635510 3.748010 31.914490
2100 15 2 0.5897 15.098031 3.161188 32.501058
2101 15 2 0.5897 16.396620 3.962177 32.501082
2102 15 1 -1.1794 20.026990 8.139490 31.914490
2103 15 2 0.5897 19.761994 8.665484 31.121530
2104 15 2 0.5897 20.539295 8.806563 32.426821
2105 15 1 -1.1794 15.635510 8.139490 27.523010
2106 15 2 0.5897 15.922137 8.592251 28.348031
2107 15 2 0.5897 15.060469 7.424681 27.875063
2108 15 1 -1.1794 20.026990 3.748010 27.523010
2109 15 2 0.5897 19.264769 4.106705 27.020111
2110 15 2 0.5897 20.485326 4.590218 27.781031
2111 15 1 -1.1794 11.887500 3.679775 25.160607
2112 15 2 0.5897 11.922998 4.459067 25.764457
2113 15 2 0.5897 12.685985 3.179090 25.446756
2114 15 1 -1.1794 11.887500 8.207725 25.160607
2115 15 2 0.5897 11.128869 8.731842 25.512352
2116 15 2 0.5897 12.646872 8.779826 25.445376
2117 15 1 -1.1794 11.887500 3.679775 34.276893
2118 15 2 0.5897 11.843132 3.851890 35.244464
2119 15 2 0.5897 11.868941 4.578141 33.884946
2120 15 1 -1.1794 11.887500 8.207725 34.276893
2121 15 2 0.5897 12.093029 8.274438 35.244986
2122 15 2 0.5897 11.108049 7.629397 34.362942
2123 15 1 -1.1794 13.273107 0.000000 27.454775
2124 15 2 0.5897 12.305226 -0.094659 27.596134
2125 15 2 0.5897 13.642070 -0.099428 28.356968
2126 15 1 -1.1794 13.273107 0.000000 31.982725
2127 15 2 0.5897 13.604336 0.746754 32.533036
2128 15 2 0.5897 13.602206 -0.771043 32.501950
2129 15 1 -1.1794 22.389393 0.000000 27.454775
2130 15 2 0.5897 21.804308 0.006667 28.247479
2131 15 2 0.5897 22.071838 0.799264 26.976735
2132 15 1 -1.1794 22.389393 0.000000 31.982725
2133 15 2 0.5897 22.193138 0.798873 32.524125
2134 15 2 0.5897 23.368428 0.066494 31.891678
2135 15 1 -1.1794 15.567275 1.385607 23.775000
2136 15 2 0.5897 15.068986 1.660080 24.578227
2137 15 2 0.5897 16.352910 1.972311 23.812997
2138 15 1 -1.1794 20.095225 1.385607 23.775000
2139 15 2 0.5897 20.668354 1.614855 24.544515
2140 15 2 0.5897 20.679541 1.653488 23.027135
2141 15 1 -1.1794 15.567275 10.501893 23.775000
2142 15 2 0.5897 15.757086 11.452377 23.879347
2143 15 2 0.5897 16.433834 10.068458 23.887136
2144 15 1 -1.1794 20.095225 10.501893 23.775000
2145 15 2 0.5897 20.009784 11.478258 23.691574
2146 15 2 0.5897 20.575217 10.276857 22.947637
2147 15 1 -1.1794 21.511025 5.943750 28.333143
2148 15 2 0.5897 21.700835 6.048098 29.283627
2149 15 2 0.5897 22.377584 6.055885 27.899708
2150 15 1 -1.1794 14.151475 5.943750 28.333143
2151 15 2 0.5897 14.066031 5.860324 29.309508
2152 15 2 0.5897 14.631467 5.116387 28.108108
2153 15 1 -1.1794 21.511025 5.943750 31.104357
2154 15 2 0.5897 21.012738 6.746978 31.378833
2155 15 2 0.5897 22.296660 5.981743 31.691061
2156 15 1 -1.1794 14.151475 5.943750 31.104357
2157 15 2 0.5897 14.724602 6.713267 31.333605
2158 15 2 0.5897 14.735793 5.195886 31.372239
2159 15 1 -1.1794 17.831250 7.329357 26.038975
2160 15 2 0.5897 17.072622 7.681106 26.563093
2161 15 2 0.5897 18.590624 7.614122 26.611075
2162 15 1 -1.1794 17.831250 7.329357 33.398525
2163 15 2 0.5897 17.866750 7.933206 34.177818
2164 15 2 0.5897 18.629737 7.615502 32.897842
2165 15 1 -1.1794 17.831250 4.558143 26.038975
2166 15 2 0.5897 18.036764 5.526242 26.105661
2167 15 2 0.5897 17.051778 4.644161 25.460681
2168 15 1 -1.1794 17.831250 4.558143 33.398525
2169 15 2 0.5897 17.786883 5.525713 33.570644
2170 15 2 0.5897 17.812692 4.166192 34.296889
2171 15 1 -1.1794 19.216857 9.623525 29.718750
2172 15 2 0.5897 18.248976 9.764884 29.624090
2173 15 2 0.5897 19.585820 10.525718 29.619322
2174 15 1 -1.1794 19.216857 2.263975 29.718750
2175 15 2 0.5897 19.548088 2.814285 30.465503
2176 15 2 0.5897 19.545958 2.783199 28.947706
2177 15 1 -1.1794 16.445643 9.623525 29.718750
2178 15 2 0.5897 15.860556 10.416229 29.725416
2179 15 2 0.5897 16.128088 9.145485 30.518014
2180 15 1 -1.1794 16.445643 2.263975 29.718750
2181 15 2 0.5897 16.249390 2.805372 30.517625
2182 15 2 0.5897 17.424678 2.172928 29.785242
2183 15 3 0.0 11.887500 0.000000 23.775000
2184 15 3 0.0 17.831250 5.943750 29.718750
2185 15 3 0.0 11.887500 2.971875 29.718750
2186 15 3 0.0 11.887500 8.915625 29.718750
2187 15 3 0.0 17.831250 0.000000 26.746875
2188 15 3 0.0 17.831250 0.000000 32.690625
2189 15 3 0.0 14.859375 5.943750 23.775000
2190 15 3 0.0 20.803125 5.943750 23.775000
2191 16 1 -1.1794 11.887500 17.831250 2.971875
2192 16 2 0.5897 11.897156 18.633882 2.401692
2193 16 2 0.5897 12.706706 17.966305 3.500477
2194 16 1 -1.1794 11.887500 17.831250 8.915625
2195 16 2 0.5897 12.168567 18.695936 9.277971
2196 16 2 0.5897 12.610734 17.700273 8.254920
2197 16 1 -1.1794 14.859375 11.887500 5.943750
2198 16 2 0.5897 14.296866 12.000295 6.741859
2199 16 2 0.5897 15.393904 12.713596 5.955505
2200 16 1 -1.1794 20.803125 11.887500 5.943750
2201 16 2 0.5897 20.240617 12.685610 6.056546
2202 16 2 0.5897 21.337653 11.899253 6.769848
2203 16 1 -1.1794 17.831250 14.859375 0.000000
2204 16 2 0.5897 18.112323 15.221727 0.864683
2205 16 2 0.5897 18.554485 14.198672 -0.130979
2206 16 1 -1.1794 17.831250 20.803125 0.000000
2207 16 2 0.5897 17.840909 20.232941 0.802632
2208 16 2 0.5897 18.650455 21.331727 0.135054
2209 16 1 -1.1794 14.083240 14.083240 2.195740
2210 16 2 0.5897 13.818243 13.290281 2.721735
2211 16 2 0.5897 14.595546 14.595572 2.862811
2212 16 1 -1.1794 21.579260 21.579260 2.195740
2213 16 2 0.5897 21.865888 22.404281 2.648501
2214 16 2 0.5897 21.004218 21.931314 1.480933
2215 16 1 -1.1794 21.579260 14.083240 9.691760
2216 16 2 0.5897 21.041781 14.669808 9.104938
2217 16 2 0.5897 22.340371 14.669832 9.905926
2218 16 1 -1.1794 14.083240 21.579260 9.691760
2219 16 2 0.5897 13.321015 21.076365 10.050449
2220 16 2 0.5897 14.541573 21.837280 10.533970
2221 16 1 -1.1794 20.026990 20.026990 3.748010
2222 16 2 0.5897 19.942952 20.494415 4.601005
2223 16 2 0.5897 20.732952 20.531810 3.294149
2224 16 1 -1.1794 15.635510 15.635510 3.748010
2225 16 2 0.5897 15.889865 15.072288 4.519697
2226 16 2 0.5897 16.527481 15.858336 3.410372
2227 16 1 -1.1794 20.026990 15.635510 8.139490
2228 16 2 0.5897 19.240636 15.998445 8.609681
2229 16 2 0.5897 20.454714 16.460492 7.810198
2230 16 1 -1.1794 15.635510 20.026990 8.139490
2231 16 2 0.5897 15.123113 20.619046 8.742287
2232 16 2 0.5897 16.378956 19.756971 8.725499
2233 16 1 -1.1794 21.579260 21.579260 9.691760
2234 16 2 0.5897 21.833637 22.350942 9.128541
2235 16 2 0.5897 22.471221 21.241596 9.914592
2236 16 1 -1.1794 14.083240 14.083240 9.691760
2237 16 2 0.5897 13.296885 14.553429 10.054694
2238 16 2 0.5897 14.510964 13.753947 10.516742
2239 16 1 -1.1794 14.083240 21.579260 2.195740
2240 16 2 0.5897 13.999203 22.432255 2.663166
2241 16 2 0.5897 14.789202 21.125398 2.700560
2242 16 1 -1.1794 21.579260 14.083240 2.195740
2243 16 2 0.5897 21.066861 14.686035 2.787796
2244 16 2 0.5897 22.322705 14.669250 1.925722
2245 16 1 -1.1794 15.635510 15.635510 8.139490
2246 16 2 0.5897 15.098031 15.048688 8.726058
2247 16 2 0.5897 16.396620 15.849677 8.726082
2248 16 1 -1.1794 20.026990 20.026990 8.139490
2249 16 2 0.5897 19.761994 20.552984 7.346530
2250 16 2 0.5897 20.539295 20.694063 8.651821
2251 16 1 -1.1794 15.635510 20.026990 3.748010
2252 16 2 0.5897 15.922137 20.479751 4.573031
2253 16 2 0.5897 15.060469 19.312181 4.100063
2254 16 1 -1.1794 20.026990 15.635510 3.748010
2255 16 2 0.5897 19.264769 15.994205 3.245111
2256 16 2 0.5897 20.485326 16.477718 4.006031
2257 16 1 -1.1794 11.887500 15.567275 1.385607
2258 16 2 0.5897 11.922998 16.346567 1.989457
2259 16 2 0.5897 12.685985 15.066590 1.671756
2260 16 1 -1.1794 11.887500 20.095225 1.385607
2261 16 2 0.5897 11.128869 20.619342 1.737352
2262 16 2 0.5897 12.646872 20.667326 1.670376
2263 16 1 -1.1794 11.887500 15.567275 10.501893
2264 16 2 0.5897 11.843132 15.739390 11.469464
2265 16 2 0.5897 11.868941 16.465641 10.109946
2266 16 1 -1.1794 11.887500 20.095225 10.501893
2267 16 2 0.5897 12.093029 20.161938 11.469986
2268 16 2 0.5897 11.108049 19.516897 10.587942
2269 16 1 -1.1794 13.273107 11.887500 3.679775
2270 16 2 0.5897 12.305226 11.792841 3.821134
2271 16 2 0.5897 13.642070 11.788072 4.581968
2272 16 1 -1.1794 13.273107 11.887500 8.207725
2273 16 2 0.5897 13.604336 12.634254 8.758036
2274 16 2 0.5897 13.602206 11.116457 8.726950
2275 16 1 -1.1794 22.389393 11.887500 3.679775
2276 16 2 0.5897 21.804308 11.894167 4.472479
2277 16 2 0.5897 22.071838 12.686764 3.201735
2278 16 1 -1.1794 22.389393 11.887500 8.207725
2279 16 2 0.5897 22.193138 12.686373 8.749125
2280 16 2 0.5897 23.368428 11.953994 8.116678
2281 16 1 -1.1794 15.567275 13.273107 0.000000
2282 16 2 0.5897 15.068986 13.547580 0.803227
2283 16 2 0.5897 16.352910 13.859811 0.037997
2284 16 1 -1.1794 20.095225 13.273107 0.000000
2285 16 2 0.5897 20.668354 13.502355 0.769515
2286 16 2 0.5897 20.679541 13.540988 -0.747865
2287 16 1 -1.1794 15.567275 22.389393 0.000000
2288 16 2 0.5897 15.757086 23.339877 0.104347
2289 16 2 0.5897 16.433834 21.955958 0.112136
2290 16 1 -1.1794 20.095225 22.389393 0.000000
2291 16 2 0.5897 20.009784 23.365758 -0.083426
2292 16 2 0.5897 20.575217 22.164357 -0.827363
2293 16 1 -1.1794 21.511025 17.831250 4.558143
2294 16 2 0.5897 21.700835 17.935598 5.508627
2295 16 2 0.5897 22.377584 17.943385 4.124708
2296 16 1 -1.1794 14.151475 17.831250 4.558143
2297 16 2 0.5897 14.066031 17.747824 5.534508
2298 16 2 0.5897 14.631467 17.003887 4.333108
2299 16 1 -1.1794 21.511025 17.831250 7.329357
2300 16 2 0.5897 21.012738 18.634478 7.603833
2301 16 2 0.5897 22.296660 17.869243 7.916061
2302 16 1 -1.1794 14.151475 17.831250 7.329357
2303 16 2 0.5897 14.724602 18.600767 7.558605
2304 16 2 0.5897 14.735793 17.083386 7.597239
2305 16 1 -1.1794 17.831250 19.216857 2.263975
2306 16 2 0.5897 17.072622 19.568606 2.788093
2307 16 2 0.5897 18.590624 19.501622 2.836075
2308 16 1 -1.1794 17.831250 19.216857 9.623525
2309 16 2 0.5897 17.866750 19.820706 10.402818
2310 16 2 0.5897 18.629737 19.503002 9.122842
2311 16 1 -1.1794 17.831250 16.445643 2.263975
2312 16 2 0.5897 18.036764 17.413742 2.330661
2313 16 2 0.5897 17.051778 16.531661 1.685681
2314 16 1 -1.1794 17.831250 16.445643 9.623525
2315 16 2 0.5897 17.786883 17.413213 9.795644
2316 16 2 0.5897 17.812692 16.053692 10.521889
2317 16 1 -1.1794 19.216857 21.511025 5.943750
2318 16 2 0.5897 18.248976 21.652384 5.849090
2319 16 2 0.5897 19.585820 22.413218 5.844322
2320 16 1 -1.1794 19.216857 14.151475 5.943750
2321 16 2 0.5897 19.548088 14.701785 6.690503
2322 16 2 0.5897 19.545958 14.670699 5.172706
2323 16 1 -1.1794 16.445643 21.511025 5.943750
2324 16 2 0.5897 15.860556 22.303729 5.950416
2325 16 2 0.5897 16.128088 21.032985 6.743014
2326 16 1 -1.1794 16.445643 14.151475 5.943750
2327 16 2 0.5897 16.249390 14.692872 6.742625
2328 16 2 0.5897 17.424678 14.060428 6.010242
2329 16 3 0.0 11.887500 11.887500 0.000000
2330 16 3 0.0 17.831250 17.831250 5.943750
2331 16 3 0.0 11.887500 14.859375 5.943750
2332 16 3 0.0 11.887500 20.803125 5.943750
2333 16 3 0.0 17.831250 11.887500 2.971875
2334 16 3 0.0 17.831250 11.887500 8.915625
2335 16 3 0.0 14.859375 17.831250 0.000000
2336 16 3 0.0 20.803125 17.831250 0.000000
2337 17 1 -1.1794 11.887500 17.831250 14.859375
2338 17 2 0.5897 11.897156 18.633882 14.289192
2339 17 2 0.5897 12.706706 17.966305 15.387977
2340 17 1 -1.1794 11.887500 17.831250 20.803125
2341 17 2 0.5897 12.168567 18.695936 21.165471
2342 17 2 0.5897 12.610734 17.700273 20.142420
2343 17 1 -1.1794 14.859375 11.887500 17.831250
2344 17 2 0.5897 14.296866 12.000295 18.629359
2345 17 2 0.5897 15.393904 12.713596 17.843005
2346 17 1 -1.1794 20.803125 11.887500 17.831250
2347 17 2 0.5897 20.240617 12.685610 17.944046
2348 17 2 0.5897 21.337653 11.899253 18.657348
2349 17 1 -1.1794 17.831250 14.859375 11.887500
2350 17 2 0.5897 18.112323 15.221727 12.752183
2351 17 2 0.5897 18.554485 14.198672 11.756521
2352 17 1 -1.1794 17.831250 20.803125 11.887500
2353 17 2 0.5897 17.840909 20.232941 12.690132
2354 17 2 0.5897 18.650455 21.331727 12.022554
2355 17 1 -1.1794 14.083240 14.083240 14.083240
2356 17 2 0.5897 13.818243 13.290281 14.609235
2357 17 2 0.5897 14.595546 14.595572 14.750311
2358 17 1 -1.1794 21.579260 21.579260 14.083240
2359 17 2 0.5897 21.865888 22.404281 14.536001
2360 17 2 0.5897 21.004218 21.931314 13.368433
2361 17 1 -1.1794 21.579260 14.083240 21.579260
2362 17 2 0.5897 21.041781 14.669808 20.992438
2363 17 2 0.5897 22.340371 14.669832 21.793426
2364 17 1 -1.1794 14.083240 21.579260 21.579260
2365 17 2 0.5897 13.321015 21.076365 21.937949
2366 17 2 0.5897 14.541573 21.837280 22.421470
2367 17 1 -1.1794 20.026990 20.026990 15.635510
2368 17 2 0.5897 19.942952 20.494415 16.488505
2369 17 2 0.5897 20.732952 20.531810 15.181649
2370 17 1 -1.1794 15.635510 15.635510 15.635510
2371 17 2 0.5897 15.889865 15.072288 16.407197
2372 17 2 0.5897 16.527481 15.858336 15.297872
2373 17 1 -1.1794 20.026990 15.635510 20.026990
2374 17 2 0.5897 19.240636 15.998445 20.497181
2375 17 2 0.5897 20.454714 16.460492 19.697698
2376 17 1 -1.1794 15.635510 20.026990 20.026990
2377 17 2 0.5897 15.123113 20.619046 20.629787
2378 17 2 0.5897 16.378956 19.756971 20.612999
2379 17 1 -1.1794 21.579260 21.579260 21.579260
2380 17 2 0.5897 21.833637 22.350942 21.016041
2381 17 2 0.5897 22.471221 21.241596 21.802092
2382 17 1 -1.1794 14.083240 14.083240 21.579260
2383 17 2 0.5897 13.296885 14.553429 21.942194
2384 17 2 0.5897 14.510964 13.753947 22.404242
2385 17 1 -1.1794 14.083240 21.579260 14.083240
2386 17 2 0.5897 13.999203 22.432255 14.550666
2387 17 2 0.5897 14.789202 21.125398 14.588060
2388 17 1 -1.1794 21.579260 14.083240 14.083240
2389 17 2 0.5897 21.066861 14.686035 14.675296
2390 17 2 0.5897 22.322705 14.669250 13.813222
2391 17 1 -1.1794 15.635510 15.635510 20.026990
2392 17 2 0.5897 15.098031 15.048688 20.613558
2393 17 2 0.5897 16.396620 15.849677 20.613582
2394 17 1 -1.1794 20.026990 20.026990 20.026990
2395 17 2 0.5897 19.761994 20.552984 19.234030
2396 17 2 0.5897 20.539295 20.694063 20.539321
2397 17 1 -1.1794 15.635510 20.026990 15.635510
2398 17 2 0.5897 15.922137 20.479751 16.460531
2399 17 2 0.5897 15.060469 19.312181 15.987563
2400 17 1 -1.1794 20.026990 15.635510 15.635510
2401 17 2 0.5897 19.264769 15.994205 15.132611
2402 17 2 0.5897 20.485326 16.477718 15.893531
2403 17 1 -1.1794 11.887500 15.567275 13.273107
2404 17 2 0.5897 11.922998 16.346567 13.876957
2405 17 2 0.5897 12.685985 15.066590 13.559256
2406 17 1 -1.1794 11.887500 20.095225 13.273107
2407 17 2 0.5897 11.128869 20.619342 13.624852
2408 17 2 0.5897 12.646872 20.667326 13.557876
2409 17 1 -1.1794 11.887500 15.567275 22.389393
2410 17 2 0.5897 11.843132 15.739390 23.356964
2411 17 2 0.5897 11.868941 16.465641 21.997446
2412 17 1 -1.1794 11.887500 20.095225 22.389393
2413 17 2 0.5897 12.093029 20.161938 23.357486
2414 17 2 0.5897 11.108049 19.516897 22.475442
2415 17 1 -1.1794 13.273107 11.887500 15.567275
2416 17 2 0.5897 12.305226 11.792841 15.708634
2417 17 2 0.5897 13.642070 11.788072 16.469468
2418 17 1 -1.1794 13.273107 11.887500 20.095225
2419 17 2 0.5897 13.604336 12.634254 20.645536
2420 17 2 0.5897 13.602206 11.116457 20.614450
2421 17 1 -1.1794 22.389393 11.887500 15.567275
2422 17 2 0.5897 21.804308 11.894167 16.359979
2423 17 2 0.5897 22.071838 12.686764 15.089235
2424 17 1 -1.1794 22.389393 11.887500 20.095225
2425 17 2 0.5897 22.193138 12.686373 20.636625
2426 17 2 0.5897 23.368428 11.953994 20.004178
2427 17 1 -1.1794 15.567275 13.273107 11.887500
2428 17 2 0.5897 15.068986 13.547580 12.690727
2429 17 2 0.5897 16.352910 13.859811 11.925497
2430 17 1 -1.1794 20.095225 13.273107 11.887500
2431 17 2 0.5897 20.668354 13.502355 12.657015
2432 17 2 0.5897 20.679541 13.540988 11.139635
2433 17 1 -1.1794 15.567275 22.389393 11.887500
2434 17 2 0.5897 15.757086 23.339877 11.991847
2435 17 2 0.5897 16.433834 21.955958 11.999636
2436 17 1 -1.1794 20.095225 22.389393 11.887500
2437 17 2 0.5897 20.009784 23.365758 11.804074
2438 17 2 0.5897 20.575217 22.164357 11.060137
2439 17 1 -1.1794 21.511025 17.831250 16.445643
2440 17 2 0.5897 21.700835 17.935598 17.396127
2441 17 2 0.5897 22.377584 17.943385 16.012208
2442 17 1 -1.1794 14.151475 17.831250 16.445643
2443 17 2 0.5897 14.066031 17.747824 17.422008
2444 17 2 0.5897 14.631467 17.003887 16.220608
2445 17 1 -1.1794 21.511025 17.831250 19.216857
2446 17 2 0.5897 21.012738 18.634478 19.491333
2447 17 2 0.5897 22.296660 17.869243 19.803561
2448 17 1 -1.1794 14.151475 17.831250 19.216857
2449 17 2 0.5897 14.724602 18.600767 19.446105
2450 17 2 0.5897 14.735793 17.083386 19.484739
2451 17 1 -1.1794 17.831250 19.216857 14.151475
2452 17 2 0.5897 17.072622 19.568606 14.675593
2453 17 2 0.5897 18.590624 19.501622 14.723575
2454 17 1 -1.1794 17.831250 19.216857 21.511025
2455 17 2 0.5897 17.866750 19.820706 22.290318
2456 17 2 0.5897 18.629737 19.503002 21.010342
2457 17 1 -1.1794 17.831250 16.445643 14.151475
2458 17 2 0.5897 18.036764 17.413742 14.218161
2459 17 2 0.5897 17.051778 16.531661 13.573181
2460 17 1 -1.1794 17.831250 16.445643 21.511025
2461 17 2 0.5897 17.786883 17.413213 21.683144
2462 17 2 0.5897 17.812692 16.053692 22.409389
2463 17 1 -1.1794 19.216857 21.511025 17.831250
2464 17 2 0.5897 18.248976 21.652384 17.736590
2465 17 2 0.5897 19.585820 22.413218 17.731822
2466 17 1 -1.1794 19.216857 14.151475 17.831250
2467 17 2 0.5897 19.548088 14.701785 18.578003
2468 17 2 0.5897 19.545958 14.670699 17.060206
2469 17 1 -1.1794 16.445643 21.511025 17.831250
2470 17 2 0.5897 15.860556 22.303729 17.837916
2471 17 2 0.5897 16.128088 21.032985 18.630514
2472 17 1 -1.1794 16.445643 14.151475 17.831250
2473 17 2 0.5897 16.249390 14.692872 18.630125
2474 17 2 0.5897 17.424678 14.060428 17.897742
2475 17 3 0.0 11.887500 11.887500 11.887500
2476 17 3 0.0 17.831250 17.831250 17.831250
2477 17 3 0.0 11.887500 14.859375 17.831250
2478 17 3 0.0 11.887500 20.803125 17.831250
2479 17 3 0.0 17.831250 11.887500 14.859375
2480 17 3 0.0 17.831250 11.887500 20.803125
2481 17 3 0.0 14.859375 17.831250 11.887500
2482 17 3 0.0 20.803125 17.831250 11.887500
2483 18 1 -1.1794 11.887500 17.831250 26.746875
2484 18 2 0.5897 11.897156 18.633882 26.176692
2485 18 2 0.5897 12.706706 17.966305 27.275477
2486 18 1 -1.1794 11.887500 17.831250 32.690625
2487 18 2 0.5897 12.168567 18.695936 33.052971
2488 18 2 0.5897 12.610734 17.700273 32.029920
2489 18 1 -1.1794 14.859375 11.887500 29.718750
2490 18 2 0.5897 14.296866 12.000295 30.516859
2491 18 2 0.5897 15.393904 12.713596 29.730505
2492 18 1 -1.1794 20.803125 11.887500 29.718750
2493 18 2 0.5897 20.240617 12.685610 29.831546
2494 18 2 0.5897 21.337653 11.899253 30.544848
2495 18 1 -1.1794 17.831250 14.859375 23.775000
2496 18 2 0.5897 18.112323 15.221727 24.639683
2497 18 2 0.5897 18.554485 14.198672 23.644021
2498 18 1 -1.1794 17.831250 20.803125 23.775000
2499 18 2 0.5897 17.840909 20.232941 24.577632
2500 18 2 0.5897 18.650455 21.331727 23.910054
2501 18 1 -1.1794 14.083240 14.083240 25.970740
2502 18 2 0.5897 13.818243 13.290281 26.496735
2503 18 2 0.5897 14.595546 14.595572 26.637811
2504 18 1 -1.1794 21.579260 21.579260 25.970740
2505 18 2 0.5897 21.865888 22.404281 26.423501
2506 18 2 0.5897 21.004218 21.931314 25.255933
2507 18 1 -1.1794 21.579260 14.083240 33.466760
2508 18 2 0.5897 21.041781 14.669808 32.879938
2509 18 2 0.5897 22.340371 14.669832 33.680926
2510 18 1 -1.1794 14.083240 21.579260 33.466760
2511 18 2 0.5897 13.321015 21.076365 33.825449
2512 18 2 0.5897 14.541573 21.837280 34.308970
2513 18 1 -1.1794 20.026990 20.026990 27.523010
2514 18 2 0.5897 19.942952 20.494415 28.376005
2515 18 2 0.5897 20.732952 20.531810 27.069149
2516 18 1 -1.1794 15.635510 15.635510 27.523010
2517 18 2 0.5897 15.889865 15.072288 28.294697
2518 18 2 0.5897 16.527481 15.858336 27.185372
2519 18 1 -1.1794 20.026990 15.635510 31.914490
2520 18 2 0.5897 19.240636 15.998445 32.384681
2521 18 2 0.5897 20.454714 16.460492 31.585198
2522 18 1 -1.1794 15.635510 20.026990 31.914490
2523 18 2 0.5897 15.123113 20.619046 32.517287
2524 18 2 0.5897 16.378956 19.756971 32.500499
2525 18 1 -1.1794 21.579260 21.579260 33.466760
2526 18 2 0.5897 21.833637 22.350942 32.903541
2527 18 2 0.5897 22.471221 21.241596 33.689592
2528 18 1 -1.1794 14.083240 14.083240 33.466760
2529 18 2 0.5897 13.296885 14.553429 33.829694
2530 18 2 0.5897 14.510964 13.753947 34.291742
2531 18 1 -1.1794 14.083240 21.579260 25.970740
2532 18 2 0.5897 13.999203 22.432255 26.438166
2533 18 2 0.5897 14.789202 21.125398 26.475560
2534 18 1 -1.1794 21.579260 14.083240 25.970740
2535 18 2 0.5897 21.066861 14.686035 26.562796
2536 18 2 0.5897 22.322705 14.669250 25.700722
2537 18 1 -1.1794 15.635510 15.635510 31.914490
2538 18 2 0.5897 15.098031 15.048688 32.501058
2539 18 2 0.5897 16.396620 15.849677 32.501082
2540 18 1 -1.1794 20.026990 20.026990 31.914490
2541 18 2 0.5897 19.761994 20.552984 31.121530
2542 18 2 0.5897 20.539295 20.694063 32.426821
2543 18 1 -1.1794 15.635510 20.026990 27.523010
2544 18 2 0.5897 15.922137 20.479751 28.348031
2545 18 2 0.5897 15.060469 19.312181 27.875063
2546 18 1 -1.1794 20.026990 15.635510 27.523010
2547 18 2 0.5897 19.264769 15.994205 27.020111
2548 18 2 0.5897 20.485326 16.477718 27.781031
2549 18 1 -1.1794 11.887500 15.567275 25.160607
2550 18 2 0.5897 11.922998 16.346567 25.764457
2551 18 2 0.5897 12.685985 15.066590 25.446756
2552 18 1 -1.1794 11.887500 20.095225 25.160607
2553 18 2 0.5897 11.128869 20.619342 25.512352
2554 18 2 0.5897 12.646872 20.667326 25.445376
2555 18 1 -1.1794 11.887500 15.567275 34.276893
2556 18 2 0.5897 11.843132 15.739390 35.244464
2557 18 2 0.5897 11.868941 16.465641 33.884946
2558 18 1 -1.1794 11.887500 20.095225 34.276893
2559 18 2 0.5897 12.093029 20.161938 35.244986
2560 18 2 0.5897 11.108049 19.516897 34.362942
2561 18 1 -1.1794 13.273107 11.887500 27.454775
2562 18 2 0.5897 12.305226 11.792841 27.596134
2563 18 2 0.5897 13.642070 11.788072 28.356968
2564 18 1 -1.1794 13.273107 11.887500 31.982725
2565 18 2 0.5897 13.604336 12.634254 32.533036
2566 18 2 0.5897 13.602206 11.116457 32.501950
2567 18 1 -1.1794 22.389393 11.887500 27.454775
2568 18 2 0.5897 21.804308 11.894167 28.247479
2569 18 2 0.5897 22.071838 12.686764 26.976735
2570 18 1 -1.1794 22.389393 11.887500 31.982725
2571 18 2 0.5897 22.193138 12.686373 32.524125
2572 18 2 0.5897 23.368428 11.953994 31.891678
2573 18 1 -1.1794 15.567275 13.273107 23.775000
2574 18 2 0.5897 15.068986 13.547580 24.578227
2575 18 2 0.5897 16.352910 13.859811 23.812997
2576 18 1 -1.1794 20.095225 13.273107 23.775000
2577 18 2 0.5897 20.668354 13.502355 24.544515
2578 18 2 0.5897 20.679541 13.540988 23.027135
2579 18 1 -1.1794 15.567275 22.389393 23.775000
2580 18 2 0.5897 15.757086 23.339877 23.879347
2581 18 2 0.5897 16.433834 21.955958 23.887136
2582 18 1 -1.1794 20.095225 22.389393 23.775000
2583 18 2 0.5897 20.009784 23.365758 23.691574
2584 18 2 0.5897 20.575217 22.164357 22.947637
2585 18 1 -1.1794 21.511025 17.831250 28.333143
2586 18 2 0.5897 21.700835 17.935598 29.283627
2587 18 2 0.5897 22.377584 17.943385 27.899708
2588 18 1 -1.1794 14.151475 17.831250 28.333143
2589 18 2 0.5897 14.066031 17.747824 29.309508
2590 18 2 0.5897 14.631467 17.003887 28.108108
2591 18 1 -1.1794 21.511025 17.831250 31.104357
2592 18 2 0.5897 21.012738 18.634478 31.378833
2593 18 2 0.5897 22.296660 17.869243 31.691061
2594 18 1 -1.1794 14.151475 17.831250 31.104357
2595 18 2 0.5897 14.724602 18.600767 31.333605
2596 18 2 0.5897 14.735793 17.083386 31.372239
2597 18 1 -1.1794 17.831250 19.216857 26.038975
2598 18 2 0.5897 17.072622 19.568606 26.563093
2599 18 2 0.5897 18.590624 19.501622 26.611075
2600 18 1 -1.1794 17.831250 19.216857 33.398525
2601 18 2 0.5897 17.866750 19.820706 34.177818
2602 18 2 0.5897 18.629737 19.503002 32.897842
2603 18 1 -1.1794 17.831250 16.445643 26.038975
2604 18 2 0.5897 18.036764 17.413742 26.105661
2605 18 2 0.5897 17.051778 16.531661 25.460681
2606 18 1 -1.1794 17.831250 16.445643 33.398525
2607 18 2 0.5897 17.786883 17.413213 33.570644
2608 18 2 0.5897 17.812692 16.053692 34.296889
2609 18 1 -1.1794 19.216857 21.511025 29.718750
2610 18 2 0.5897 18.248976 21.652384 29.624090
2611 18 2 0.5897 19.585820 22.413218 29.619322
2612 18 1 -1.1794 19.216857 14.151475 29.718750
2613 18 2 0.5897 19.548088 14.701785 30.465503
2614 18 2 0.5897 19.545958 14.670699 28.947706
2615 18 1 -1.1794 16.445643 21.511025 29.718750
2616 18 2 0.5897 15.860556 22.303729 29.725416
2617 18 2 0.5897 16.128088 21.032985 30.518014
2618 18 1 -1.1794 16.445643 14.151475 29.718750
2619 18 2 0.5897 16.249390 14.692872 30.517625
2620 18 2 0.5897 17.424678 14.060428 29.785242
2621 18 3 0.0 11.887500 11.887500 23.775000
2622 18 3 0.0 17.831250 17.831250 29.718750
2623 18 3 0.0 11.887500 14.859375 29.718750
2624 18 3 0.0 11.887500 20.803125 29.718750
2625 18 3 0.0 17.831250 11.887500 26.746875
2626 18 3 0.0 17.831250 11.887500 32.690625
2627 18 3 0.0 14.859375 17.831250 23.775000
2628 18 3 0.0 20.803125 17.831250 23.775000
2629 19 1 -1.1794 11.887500 29.718750 2.971875
2630 19 2 0.5897 11.897156 30.521382 2.401692
2631 19 2 0.5897 12.706706 29.853805 3.500477
2632 19 1 -1.1794 11.887500 29.718750 8.915625
2633 19 2 0.5897 12.168567 30.583436 9.277971
2634 19 2 0.5897 12.610734 29.587773 8.254920
2635 19 1 -1.1794 14.859375 23.775000 5.943750
2636 19 2 0.5897 14.296866 23.887795 6.741859
2637 19 2 0.5897 15.393904 24.601096 5.955505
2638 19 1 -1.1794 20.803125 23.775000 5.943750
2639 19 2 0.5897 20.240617 24.573110 6.056546
2640 19 2 0.5897 21.337653 23.786753 6.769848
2641 19 1 -1.1794 17.831250 26.746875 0.000000
2642 19 2 0.5897 18.112323 27.109227 0.864683
2643 19 2 0.5897 18.554485 26.086172 -0.130979
2644 19 1 -1.1794 17.831250 32.690625 0.000000
2645 19 2 0.5897 17.840909 32.120441 0.802632
2646 19 2 0.5897 18.650455 33.219227 0.135054
2647 19 1 -1.1794 14.083240 25.970740 2.195740
2648 19 2 0.5897 13.818243 25.177781 2.721735
2649 19 2 0.5897 14.595546 26.483072 2.862811
2650 19 1 -1.1794 21.579260 33.466760 2.195740
2651 19 2 0.5897 21.865888 34.291781 2.648501
2652 19 2 0.5897 21.004218 33.818814 1.480933
2653 19 1 -1.1794 21.579260 25.970740 9.691760
2654 19 2 0.5897 21.041781 26.557308 9.104938
2655 19 2 0.5897 22.340371 26.557332 9.905926
2656 19 1 -1.1794 14.083240 33.466760 9.691760
2657 19 2 0.5897 13.321015 32.963865 10.050449
2658 19 2 0.5897 14.541573 33.724780 10.533970
2659 19 1 -1.1794 20.026990 31.914490 3.748010
2660 19 2 0.5897 19.942952 32.381915 4.601005
2661 19 2 0.5897 20.732952 32.419310 3.294149
2662 19 1 -1.1794 15.635510 27.523010 3.748010
2663 19 2 0.5897 15.889865 26.959788 4.519697
2664 19 2 0.5897 16.527481 27.745836 3.410372
2665 19 1 -1.1794 20.026990 27.523010 8.139490
2666 19 2 0.5897 19.240636 27.885945 8.609681
2667 19 2 0.5897 20.454714 28.347992 7.810198
2668 19 1 -1.1794 15.635510 31.914490 8.139490
2669 19 2 0.5897 15.123113 32.506546 8.742287
2670 19 2 0.5897 16.378956 31.644471 8.725499
2671 19 1 -1.1794 21.579260 33.466760 9.691760
2672 19 2 0.5897 21.833637 34.238442 9.128541
2673 19 2 0.5897 22.471221 33.129096 9.914592
2674 19 1 -1.1794 14.083240 25.970740 9.691760
2675 19 2 0.5897 13.296885 26.440929 10.054694
2676 19 2 0.5897 14.510964 25.641447 10.516742
2677 19 1 -1.1794 14.083240 33.466760 2.195740
2678 19 2 0.5897 13.999203 34.319755 2.663166
2679 19 2 0.5897 14.789202 33.012898 2.700560
2680 19 1 -1.1794 21.579260 25.970740 2.195740
2681 19 2 0.5897 21.066861 26.573535 2.787796
2682 19 2 0.5897 22.322705 26.556750 1.925722
2683 19 1 -1.1794 15.635510 27.523010 8.139490
2684 19 2 0.5897 15.098031 26.936188 8.726058
2685 19 2 0.5897 16.396620 27.737177 8.726082
2686 19 1 -1.1794 20.026990 31.914490 8.139490
2687 19 2 0.5897 19.761994 32.440484 7.346530
2688 19 2 0.5897 20.539295 32.581563 8.651821
2689 19 1 -1.1794 15.635510 31.914490 3.748010
2690 19 2 0.5897 15.922137 32.367251 4.573031
2691 19 2 0.5897 15.060469 31.199681 4.100063
2692 19 1 -1.1794 20.026990 27.523010 3.748010
2693 19 2 0.5897 19.264769 27.881705 3.245111
2694 19 2 0.5897 20.485326 28.365218 4.006031
2695 19 1 -1.1794 11.887500 27.454775 1.385607
2696 19 2 0.5897 11.922998 28.234067 1.989457
2697 19 2 0.5897 12.685985 26.954090 1.671756
2698 19 1 -1.1794 11.887500 31.982725 1.385607
2699 19 2 0.5897 11.128869 32.506842 1.737352
2700 19 2 0.5897 12.646872 32.554826 1.670376
2701 19 1 -1.1794 11.887500 27.454775 10.501893
2702 19 2 0.5897 11.843132 27.626890 11.469464
2703 19 2 0.5897 11.868941 28.353141 10.109946
2704 19 1 -1.1794 11.887500 31.982725 10.501893
2705 19 2 0.5897 12.093029 32.049438 11.469986
2706 19 2 0.5897 11.108049 31.404397 10.587942
2707 19 1 -1.1794 13.273107 23.775000 3.679775
2708 19 2 0.5897 12.305226 23.680341 3.821134
2709 19 2 0.5897 13.642070 23.675572 4.581968
2710 19 1 -1.1794 13.273107 23.775000 8.207725
2711 19 2 0.5897 13.604336 24.521754 8.758036
2712 19 2 0.5897 13.602206 23.003957 8.726950
2713 19 1 -1.1794 22.389393 23.775000 3.679775
2714 19 2 0.5897 21.804308 23.781667 4.472479
2715 19 2 0.5897 22.071838 24.574264 3.201735
2716 19 1 -1.1794 22.389393 23.775000 8.207725
2717 19 2 0.5897 22.193138 24.573873 8.749125
2718 19 2 0.5897 23.368428 23.841494 8.116678
2719 19 1 -1.1794 15.567275 25.160607 0.000000
2720 19 2 0.5897 15.068986 25.435080 0.803227
2721 19 2 0.5897 16.352910 25.747311 0.037997
2722 19 1 -1.1794 20.095225 25.160607 0.000000
2723 19 2 0.5897 20.668354 25.389855 0.769515
2724 19 2 0.5897 20.679541 25.428488 -0.747865
2725 19 1 -1.1794 15.567275 34.276893 0.000000
2726 19 2 0.5897 15.757086 35.227377 0.104347
2727 19 2 0.5897 16.433834 33.843458 0.112136
2728 19 1 -1.1794 20.095225 34.276893 0.000000
2729 19 2 0.5897 20.009784 35.253258 -0.083426
2730 19 2 0.5897 20.575217 34.051857 -0.827363
2731 19 1 -1.1794 21.511025 29.718750 4.558143
2732 19 2 0.5897 21.700835 29.823098 5.508627
2733 19 2 0.5897 22.377584 29.830885 4.124708
2734 19 1 -1.1794 14.151475 29.718750 4.558143
2735 19 2 0.5897 14.066031 29.635324 5.534508
2736 19 2 0.5897 14.631467 28.891387 4.333108
2737 19 1 -1.1794 21.511025 29.718750 7.329357
2738 19 2 0.5897 21.012738 30.521978 7.603833
2739 19 2 0.5897 22.296660 29.756743 7.916061
2740 19 1 -1.1794 14.151475 29.718750 7.329357
2741 19 2 0.5897 14.724602 30.488267 7.558605
2742 19 2 0.5897 14.735793 28.970886 7.597239
2743 19 1 -1.1794 17.831250 31.104357 2.263975
2744 19 2 0.5897 17.072622 31.456106 2.788093
2745 19 2 0.5897 18.590624 31.389122 2.836075
2746 19 1 -1.1794 17.831250 31.104357 9.623525
2747 19 2 0.5897 17.866750 31.708206 10.402818
2748 19 2 0.5897 18.629737 31.390502 9.122842
2749 19 1 -1.1794 17.831250 28.333143 2.263975
2750 19 2 0.5897 18.036764 29.301242 2.330661
2751 19 2 0.5897 17.051778 28.419161 1.685681
2752 19 1 -1.1794 17.831250 28.333143 9.623525
2753 19 2 0.5897 17.786883 29.300713 9.795644
2754 19 2 0.5897 17.812692 27.941192 10.521889
2755 19 1 -1.1794 19.216857 33.398525 5.943750
2756 19 2 0.5897 18.248976 33.539884 5.849090
2757 19 2 0.5897 19.585820 34.300718 5.844322
2758 19 1 -1.1794 19.216857 26.038975 5.943750
2759 19 2 0.5897 19.548088 26.589285 6.690503
2760 19 2 0.5897 19.545958 26.558199 5.172706
2761 19 1 -1.1794 16.445643 33.398525 5.943750
2762 19 2 0.5897 15.860556 34.191229 5.950416
2763 19 2 0.5897 16.128088 32.920485 6.743014
2764 19 1 -1.1794 16.445643 26.038975 5.943750
2765 19 2 0.5897 16.249390 26.580372 6.742625
2766 19 2 0.5897 17.424678 25.947928 6.010242
2767 19 3 0.0 11.887500 23.775000 0.000000
2768 19 3 0.0 17.831250 29.718750 5.943750
2769 19 3 0.0 11.887500 26.746875 5.943750
2770 19 3 0.0 11.887500 32.690625 5.943750
2771 19 3 0.0 17.831250 23.775000 2.971875
2772 19 3 0.0 17.831250 23.775000 8.915625
2773 19 3 0.0 14.859375 29.718750 0.000000
2774 19 3 0.0 20.803125 29.718750 0.000000
2775 20 1 -1.1794 11.887500 29.718750 14.859375
2776 20 2 0.5897 11.897156 30.521382 14.289192
2777 20 2 0.5897 12.706706 29.853805 15.387977
2778 20 1 -1.1794 11.887500 29.718750 20.803125
2779 20 2 0.5897 12.168567 30.583436 21.165471
2780 20 2 0.5897 12.610734 29.587773 20.142420
2781 20 1 -1.1794 14.859375 23.775000 17.831250
2782 20 2 0.5897 14.296866 23.887795 18.629359
2783 20 2 0.5897 15.393904 24.601096 17.843005
2784 20 1 -1.1794 20.803125 23.775000 17.831250
2785 20 2 0.5897 20.240617 24.573110 17.944046
2786 20 2 0.5897 21.337653 23.786753 18.657348
2787 20 1 -1.1794 17.831250 26.746875 11.887500
2788 20 2 0.5897 18.112323 27.109227 12.752183
2789 20 2 0.5897 18.554485 26.086172 11.756521
2790 20 1 -1.1794 17.831250 32.690625 11.887500
2791 20 2 0.5897 17.840909 32.120441 12.690132
2792 20 2 0.5897 18.650455 33.219227 12.022554
2793 20 1 -1.1794 14.083240 25.970740 14.083240
2794 20 2 0.5897 13.818243 25.177781 14.609235
2795 20 2 0.5897 14.595546 26.483072 14.750311
2796 20 1 -1.1794 21.579260 33.466760 14.083240
2797 20 2 0.5897 21.865888 34.291781 14.536001
2798 20 2 0.5897 21.004218 33.818814 13.368433
2799 20 1 -1.1794 21.579260 25.970740 21.579260
2800 20 2 0.5897 21.041781 26.557308 20.992438
2801 20 2 0.5897 22.340371 26.557332 21.793426
2802 20 1 -1.1794 14.083240 33.466760 21.579260
2803 20 2 0.5897 13.321015 32.963865 21.937949
2804 20 2 0.5897 14.541573 33.724780 22.421470
2805 20 1 -1.1794 20.026990 31.914490 15.635510
2806 20 2 0.5897 19.942952 32.381915 16.488505
2807 20 2 0.5897 20.732952 32.419310 15.181649
2808 20 1 -1.1794 15.635510 27.523010 15.635510
2809 20 2 0.5897 15.889865 26.959788 16.407197
2810 20 2 0.5897 16.527481 27.745836 15.297872
2811 20 1 -1.1794 20.026990 27.523010 20.026990
2812 20 2 0.5897 19.240636 27.885945 20.497181
2813 20 2 0.5897 20.454714 28.347992 19.697698
2814 20 1 -1.1794 15.635510 31.914490 20.026990
2815 20 2 0.5897 15.123113 32.506546 20.629787
2816 20 2 0.5897 16.378956 31.644471 20.612999
2817 20 1 -1.1794 21.579260 33.466760 21.579260
2818 20 2 0.5897 21.833637 34.238442 21.016041
2819 20 2 0.5897 22.471221 33.129096 21.802092
2820 20 1 -1.1794 14.083240 25.970740 21.579260
2821 20 2 0.5897 13.296885 26.440929 21.942194
2822 20 2 0.5897 14.510964 25.641447 22.404242
2823 20 1 -1.1794 14.083240 33.466760 14.083240
2824 20 2 0.5897 13.999203 34.319755 14.550666
2825 20 2 0.5897 14.789202 33.012898 14.588060
2826 20 1 -1.1794 21.579260 25.970740 14.083240
2827 20 2 0.5897 21.066861 26.573535 14.675296
2828 20 2 0.5897 22.322705 26.556750 13.813222
2829 20 1 -1.1794 15.635510 27.523010 20.026990
2830 20 2 0.5897 15.098031 26.936188 20.613558
2831 20 2 0.5897 16.396620 27.737177 20.613582
2832 20 1 -1.1794 20.026990 31.914490 20.026990
2833 20 2 0.5897 19.761994 32.440484 19.234030
2834 20 2 0.5897 20.539295 32.581563 20.539321
2835 20 1 -1.1794 15.635510 31.914490 15.635510
2836 20 2 0.5897 15.922137 32.367251 16.460531
2837 20 2 0.5897 15.060469 31.199681 15.987563
2838 20 1 -1.1794 20.026990 27.523010 15.635510
2839 20 2 0.5897 19.264769 27.881705 15.132611
2840 20 2 0.5897 20.485326 28.365218 15.893531
2841 20 1 -1.1794 11.887500 27.454775 13.273107
2842 20 2 0.5897 11.922998 28.234067 13.876957
2843 20 2 0.5897 12.685985 26.954090 13.559256
2844 20 1 -1.1794 11.887500 31.982725 13.273107
2845 20 2 0.5897 11.128869 32.506842 13.624852
2846 20 2 0.5897 12.646872 32.554826 13.557876
2847 20 1 -1.1794 11.887500 27.454775 22.389393
2848 20 2 0.5897 11.843132 27.626890 23.356964
2849 20 2 0.5897 11.868941 28.353141 21.997446
2850 20 1 -1.1794 11.887500 31.982725 22.389393
2851 20 2 0.5897 12.093029 32.049438 23.357486
2852 20 2 0.5897 11.108049 31.404397 22.475442
2853 20 1 -1.1794 13.273107 23.775000 15.567275
2854 20 2 0.5897 12.305226 23.680341 15.708634
2855 20 2 0.5897 13.642070 23.675572 16.469468
2856 20 1 -1.1794 13.273107 23.775000 20.095225
2857 20 2 0.5897 13.604336 24.521754 20.645536
2858 20 2 0.5897 13.602206 23.003957 20.614450
2859 20 1 -1.1794 22.389393 23.775000 15.567275
2860 20 2 0.5897 21.804308 23.781667 16.359979
2861 20 2 0.5897 22.071838 24.574264 15.089235
2862 20 1 -1.1794 22.389393 23.775000 20.095225
2863 20 2 0.5897 22.193138 24.573873 20.636625
2864 20 2 0.5897 23.368428 23.841494 20.004178
2865 20 1 -1.1794 15.567275 25.160607 11.887500
2866 20 2 0.5897 15.068986 25.435080 12.690727
2867 20 2 0.5897 16.352910 25.747311 11.925497
2868 20 1 -1.1794 20.095225 25.160607 11.887500
2869 20 2 0.5897 20.668354 25.389855 12.657015
2870 20 2 0.5897 20.679541 25.428488 11.139635
2871 20 1 -1.1794 15.567275 34.276893 11.887500
2872 20 2 0.5897 15.757086 35.227377 11.991847
2873 20 2 0.5897 16.433834 33.843458 11.999636
2874 20 1 -1.1794 20.095225 34.276893 11.887500
2875 20 2 0.5897 20.009784 35.253258 11.804074
2876 20 2 0.5897 20.575217 34.051857 11.060137
2877 20 1 -1.1794 21.511025 29.718750 16.445643
2878 20 2 0.5897 21.700835 29.823098 17.396127
2879 20 2 0.5897 22.377584 29.830885 16.012208
2880 20 1 -1.1794 14.151475 29.718750 16.445643
2881 20 2 0.5897 14.066031 29.635324 17.422008
2882 20 2 0.5897 14.631467 28.891387 16.220608
2883 20 1 -1.1794 21.511025 29.718750 19.216857
2884 20 2 0.5897 21.012738 30.521978 19.491333
2885 20 2 0.5897 22.296660 29.756743 19.803561
2886 20 1 -1.1794 14.151475 29.718750 19.216857
2887 20 2 0.5897 14.724602 30.488267 19.446105
2888 20 2 0.5897 14.735793 28.970886 19.484739
2889 20 1 -1.1794 17.831250 31.104357 14.151475
2890 20 2 0.5897 17.072622 31.456106 14.675593
2891 20 2 0.5897 18.590624 31.389122 14.723575
2892 20 1 -1.1794 17.831250 31.104357 21.511025
2893 20 2 0.5897 17.866750 31.708206 22.290318
2894 20 2 0.5897 18.629737 31.390502 21.010342
2895 20 1 -1.1794 17.831250 28.333143 14.151475
2896 20 2 0.5897 18.036764 29.301242 14.218161
2897 20 2 0.5897 17.051778 28.419161 13.573181
2898 20 1 -1.1794 17.831250 28.333143 21.511025
2899 20 2 0.5897 17.786883 29.300713 21.683144
2900 20 2 0.5897 17.812692 27.941192 22.409389
2901 20 1 -1.1794 19.216857 33.398525 17.831250
2902 20 2 0.5897 18.248976 33.539884 17.736590
2903 20 2 0.5897 19.585820 34.300718 17.731822
2904 20 1 -1.1794 19.216857 26.038975 17.831250
2905 20 2 0.5897 19.548088 26.589285 18.578003
2906 20 2 0.5897 19.545958 26.558199 17.060206
2907 20 1 -1.1794 16.445643 33.398525 17.831250
2908 20 2 0.5897 15.860556 34.191229 17.837916
2909 20 2 0.5897 16.128088 32.920485 18.630514
2910 20 1 -1.1794 16.445643 26.038975 17.831250
2911 20 2 0.5897 16.249390 26.580372 18.630125
2912 20 2 0.5897 17.424678 25.947928 17.897742
2913 20 3 0.0 11.887500 23.775000 11.887500
2914 20 3 0.0 17.831250 29.718750 17.831250
2915 20 3 0.0 11.887500 26.746875 17.831250
2916 20 3 0.0 11.887500 32.690625 17.831250
2917 20 3 0.0 17.831250 23.775000 14.859375
2918 20 3 0.0 17.831250 23.775000 20.803125
2919 20 3 0.0 14.859375 29.718750 11.887500
2920 20 3 0.0 20.803125 29.718750 11.887500
2921 21 1 -1.1794 11.887500 29.718750 26.746875
2922 21 2 0.5897 11.897156 30.521382 26.176692
2923 21 2 0.5897 12.706706 29.853805 27.275477
2924 21 1 -1.1794 11.887500 29.718750 32.690625
2925 21 2 0.5897 12.168567 30.583436 33.052971
2926 21 2 0.5897 12.610734 29.587773 32.029920
2927 21 1 -1.1794 14.859375 23.775000 29.718750
2928 21 2 0.5897 14.296866 23.887795 30.516859
2929 21 2 0.5897 15.393904 24.601096 29.730505
2930 21 1 -1.1794 20.803125 23.775000 29.718750
2931 21 2 0.5897 20.240617 24.573110 29.831546
2932 21 2 0.5897 21.337653 23.786753 30.544848
2933 21 1 -1.1794 17.831250 26.746875 23.775000
2934 21 2 0.5897 18.112323 27.109227 24.639683
2935 21 2 0.5897 18.554485 26.086172 23.644021
2936 21 1 -1.1794 17.831250 32.690625 23.775000
2937 21 2 0.5897 17.840909 32.120441 24.577632
2938 21 2 0.5897 18.650455 33.219227 23.910054
2939 21 1 -1.1794 14.083240 25.970740 25.970740
2940 21 2 0.5897 13.818243 25.177781 26.496735
2941 21 2 0.5897 14.595546 26.483072 26.637811
2942 21 1 -1.1794 21.579260 33.466760 25.970740
2943 21 2 0.5897 21.865888 34.291781 26.423501
2944 21 2 0.5897 21.004218 33.818814 25.255933
2945 21 1 -1.1794 21.579260 25.970740 33.466760
2946 21 2 0.5897 21.041781 26.557308 32.879938
2947 21 2 0.5897 22.340371 26.557332 33.680926
2948 21 1 -1.1794 14.083240 33.466760 33.466760
2949 21 2 0.5897 13.321015 32.963865 33.825449
2950 21 2 0.5897 14.541573 33.724780 34.308970
2951 21 1 -1.1794 20.026990 31.914490 27.523010
2952 21 2 0.5897 19.942952 32.381915 28.376005
2953 21 2 0.5897 20.732952 32.419310 27.069149
2954 21 1 -1.1794 15.635510 27.523010 27.523010
2955 21 2 0.5897 15.889865 26.959788 28.294697
2956 21 2 0.5897 16.527481 27.745836 27.185372
2957 21 1 -1.1794 20.026990 27.523010 31.914490
2958 21 2 0.5897 19.240636 27.885945 32.384681
2959 21 2 0.5897 20.454714 28.347992 31.585198
2960 21 1 -1.1794 15.635510 31.914490 31.914490
2961 21 2 0.5897 15.123113 32.506546 32.517287
2962 21 2 0.5897 16.378956 31.644471 32.500499
2963 21 1 -1.1794 21.579260 33.466760 33.466760
2964 21 2 0.5897 21.833637 34.238442 32.903541
2965 21 2 0.5897 22.471221 33.129096 33.689592
2966 21 1 -1.1794 14.083240 25.970740 33.466760
2967 21 2 0.5897 13.296885 26.440929 33.829694
2968 21 2 0.5897 14.510964 25.641447 34.291742
2969 21 1 -1.1794 14.083240 33.466760 25.970740
2970 21 2 0.5897 13.999203 34.319755 26.438166
2971 21 2 0.5897 14.789202 33.012898 26.475560
2972 21 1 -1.1794 21.579260 25.970740 25.970740
2973 21 2 0.5897 21.066861 26.573535 26.562796
2974 21 2 0.5897 22.322705 26.556750 25.700722
2975 21 1 -1.1794 15.635510 27.523010 31.914490
2976 21 2 0.5897 15.098031 26.936188 32.501058
2977 21 2 0.5897 16.396620 27.737177 32.501082
2978 21 1 -1.1794 20.026990 31.914490 31.914490
2979 21 2 0.5897 19.761994 32.440484 31.121530
2980 21 2 0.5897 20.539295 32.581563 32.426821
2981 21 1 -1.1794 15.635510 31.914490 27.523010
2982 21 2 0.5897 15.922137 32.367251 28.348031
2983 21 2 0.5897 15.060469 31.199681 27.875063
2984 21 1 -1.1794 20.026990 27.523010 27.523010
2985 21 2 0.5897 19.264769 27.881705 27.020111
2986 21 2 0.5897 20.485326 28.365218 27.781031
2987 21 1 -1.1794 11.887500 27.454775 25.160607
2988 21 2 0.5897 11.922998 28.234067 25.764457
2989 21 2 0.5897 12.685985 26.954090 25.446756
2990 21 1 -1.1794 11.887500 31.982725 25.160607
2991 21 2 0.5897 11.128869 32.506842 25.512352
2992 21 2 0.5897 12.646872 32.554826 25.445376
2993 21 1 -1.1794 11.887500 27.454775 34.276893
2994 21 2 0.5897 11.843132 27.626890 35.244464
2995 21 2 0.5897 11.868941 28.353141 33.884946
2996 21 1 -1.1794 11.887500 31.982725 34.276893
2997 21 2 0.5897 12.093029 32.049438 35.244986
2998 21 2 0.5897 11.108049 31.404397 34.362942
2999 21 1 -1.1794 13.273107 23.775000 27.454775
3000 21 2 0.5897 12.305226 23.680341 27.596134
3001 21 2 0.5897 13.642070 23.675572 28.356968
3002 21 1 -1.1794 13.273107 23.775000 31.982725
3003 21 2 0.5897 13.604336 24.521754 32.533036
3004 21 2 0.5897 13.602206 23.003957 32.501950
3005 21 1 -1.1794 22.389393 23.775000 27.454775
3006 21 2 0.5897 21.804308 23.781667 28.247479
3007 21 2 0.5897 22.071838 24.574264 26.976735
3008 21 1 -1.1794 22.389393 23.775000 31.982725
3009 21 2 0.5897 22.193138 24.573873 32.524125
3010 21 2 0.5897 23.368428 23.841494 31.891678
3011 21 1 -1.1794 15.567275 25.160607 23.775000
3012 21 2 0.5897 15.068986 25.435080 24.578227
3013 21 2 0.5897 16.352910 25.747311 23.812997
3014 21 1 -1.1794 20.095225 25.160607 23.775000
3015 21 2 0.5897 20.668354 25.389855 24.544515
3016 21 2 0.5897 20.679541 25.428488 23.027135
3017 21 1 -1.1794 15.567275 34.276893 23.775000
3018 21 2 0.5897 15.757086 35.227377 23.879347
3019 21 2 0.5897 16.433834 33.843458 23.887136
3020 21 1 -1.1794 20.095225 34.276893 23.775000
3021 21 2 0.5897 20.009784 35.253258 23.691574
3022 21 2 0.5897 20.575217 34.051857 22.947637
3023 21 1 -1.1794 21.511025 29.718750 28.333143
3024 21 2 0.5897 21.700835 29.823098 29.283627
3025 21 2 0.5897 22.377584 29.830885 27.899708
3026 21 1 -1.1794 14.151475 29.718750 28.333143
3027 21 2 0.5897 14.066031 29.635324 29.309508
3028 21 2 0.5897 14.631467 28.891387 28.108108
3029 21 1 -1.1794 21.511025 29.718750 31.104357
3030 21 2 0.5897 21.012738 30.521978 31.378833
3031 21 2 0.5897 22.296660 29.756743 31.691061
3032 21 1 -1.1794 14.151475 29.718750 31.104357
3033 21 2 0.5897 14.724602 30.488267 31.333605
3034 21 2 0.5897 14.735793 28.970886 31.372239
3035 21 1 -1.1794 17.831250 31.104357 26.038975
3036 21 2 0.5897 17.072622 31.456106 26.563093
3037 21 2 0.5897 18.590624 31.389122 26.611075
3038 21 1 -1.1794 17.831250 31.104357 33.398525
3039 21 2 0.5897 17.866750 31.708206 34.177818
3040 21 2 0.5897 18.629737 31.390502 32.897842
3041 21 1 -1.1794 17.831250 28.333143 26.038975
3042 21 2 0.5897 18.036764 29.301242 26.105661
3043 21 2 0.5897 17.051778 28.419161 25.460681
3044 21 1 -1.1794 17.831250 28.333143 33.398525
3045 21 2 0.5897 17.786883 29.300713 33.570644
3046 21 2 0.5897 17.812692 27.941192 34.296889
3047 21 1 -1.1794 19.216857 33.398525 29.718750
3048 21 2 0.5897 18.248976 33.539884 29.624090
3049 21 2 0.5897 19.585820 34.300718 29.619322
3050 21 1 -1.1794 19.216857 26.038975 29.718750
3051 21 2 0.5897 19.548088 26.589285 30.465503
3052 21 2 0.5897 19.545958 26.558199 28.947706
3053 21 1 -1.1794 16.445643 33.398525 29.718750
3054 21 2 0.5897 15.860556 34.191229 29.725416
3055 21 2 0.5897 16.128088 32.920485 30.518014
3056 21 1 -1.1794 16.445643 26.038975 29.718750
3057 21 2 0.5897 16.249390 26.580372 30.517625
3058 21 2 0.5897 17.424678 25.947928 29.785242
3059 21 3 0.0 11.887500 23.775000 23.775000
3060 21 3 0.0 17.831250 29.718750 29.718750
3061 21 3 0.0 11.887500 26.746875 29.718750
3062 21 3 0.0 11.887500 32.690625 29.718750
3063 21 3 0.0 17.831250 23.775000 26.746875
3064 21 3 0.0 17.831250 23.775000 32.690625
3065 21 3 0.0 14.859375 29.718750 23.775000
3066 21 3 0.0 20.803125 29.718750 23.775000
3067 22 1 -1.1794 11.887500 41.606250 2.971875
3068 22 2 0.5897 11.897156 42.408882 2.401692
3069 22 2 0.5897 12.706706 41.741305 3.500477
3070 22 1 -1.1794 11.887500 41.606250 8.915625
3071 22 2 0.5897 12.168567 42.470936 9.277971
3072 22 2 0.5897 12.610734 41.475273 8.254920
3073 22 1 -1.1794 14.859375 35.662500 5.943750
3074 22 2 0.5897 14.296866 35.775295 6.741859
3075 22 2 0.5897 15.393904 36.488596 5.955505
3076 22 1 -1.1794 20.803125 35.662500 5.943750
3077 22 2 0.5897 20.240617 36.460610 6.056546
3078 22 2 0.5897 21.337653 35.674253 6.769848
3079 22 1 -1.1794 17.831250 38.634375 0.000000
3080 22 2 0.5897 18.112323 38.996727 0.864683
3081 22 2 0.5897 18.554485 37.973672 -0.130979
3082 22 1 -1.1794 17.831250 44.578125 0.000000
3083 22 2 0.5897 17.840909 44.007941 0.802632
3084 22 2 0.5897 18.650455 45.106727 0.135054
3085 22 1 -1.1794 14.083240 37.858240 2.195740
3086 22 2 0.5897 13.818243 37.065281 2.721735
3087 22 2 0.5897 14.595546 38.370572 2.862811
3088 22 1 -1.1794 21.579260 45.354260 2.195740
3089 22 2 0.5897 21.865888 46.179281 2.648501
3090 22 2 0.5897 21.004218 45.706314 1.480933
3091 22 1 -1.1794 21.579260 37.858240 9.691760
3092 22 2 0.5897 21.041781 38.444808 9.104938
3093 22 2 0.5897 22.340371 38.444832 9.905926
3094 22 1 -1.1794 14.083240 45.354260 9.691760
3095 22 2 0.5897 13.321015 44.851365 10.050449
3096 22 2 0.5897 14.541573 45.612280 10.533970
3097 22 1 -1.1794 20.026990 43.801990 3.748010
3098 22 2 0.5897 19.942952 44.269415 4.601005
3099 22 2 0.5897 20.732952 44.306810 3.294149
3100 22 1 -1.1794 15.635510 39.410510 3.748010
3101 22 2 0.5897 15.889865 38.847288 4.519697
3102 22 2 0.5897 16.527481 39.633336 3.410372
3103 22 1 -1.1794 20.026990 39.410510 8.139490
3104 22 2 0.5897 19.240636 39.773445 8.609681
3105 22 2 0.5897 20.454714 40.235492 7.810198
3106 22 1 -1.1794 15.635510 43.801990 8.139490
3107 22 2 0.5897 15.123113 44.394046 8.742287
3108 22 2 0.5897 16.378956 43.531971 8.725499
3109 22 1 -1.1794 21.579260 45.354260 9.691760
3110 22 2 0.5897 21.833637 46.125942 9.128541
3111 22 2 0.5897 22.471221 45.016596 9.914592
3112 22 1 -1.1794 14.083240 37.858240 9.691760
3113 22 2 0.5897 13.296885 38.328429 10.054694
3114 22 2 0.5897 14.510964 37.528947 10.516742
3115 22 1 -1.1794 14.083240 45.354260 2.195740
3116 22 2 0.5897 13.999203 46.207255 2.663166
3117 22 2 0.5897 14.789202 44.900398 2.700560
3118 22 1 -1.1794 21.579260 37.858240 2.195740
3119 22 2 0.5897 21.066861 38.461035 2.787796
3120 22 2 0.5897 22.322705 38.444250 1.925722
3121 22 1 -1.1794 15.635510 39.410510 8.139490
3122 22 2 0.5897 15.098031 38.823688 8.726058
3123 22 2 0.5897 16.396620 39.624677 8.726082
3124 22 1 -1.1794 20.026990 43.801990 8.139490
3125 22 2 0.5897 19.761994 44.327984 7.346530
3126 22 2 0.5897 20.539295 44.469063 8.651821
3127 22 1 -1.1794 15.635510 43.801990 3.748010
3128 22 2 0.5897 15.922137 44.254751 4.573031
3129 22 2 0.5897 15.060469 43.087181 4.100063
3130 22 1 -1.1794 20.026990 39.410510 3.748010
3131 22 2 0.5897 19.264769 39.769205 3.245111
3132 22 2 0.5897 20.485326 40.252718 4.006031
3133 22 1 -1.1794 11.887500 39.342275 1.385607
3134 22 2 0.5897 11.922998 40.121567 1.989457
3135 22 2 0.5897 12.685985 38.841590 1.671756
3136 22 1 -1.1794 11.887500 43.870225 1.385607
3137 22 2 0.5897 11.128869 44.394342 1.737352
3138 22 2 0.5897 12.646872 44.442326 1.670376
3139 22 1 -1.1794 11.887500 39.342275 10.501893
3140 22 2 0.5897 11.843132 39.514390 11.469464
3141 22 2 0.5897 11.868941 40.240641 10.109946
3142 22 1 -1.1794 11.887500 43.870225 10.501893
3143 22 2 0.5897 12.093029 43.936938 11.469986
3144 22 2 0.5897 11.108049 43.291897 10.587942
3145 22 1 -1.1794 13.273107 35.662500 3.679775
3146 22 2 0.5897 12.305226 35.567841 3.821134
3147 22 2 0.5897 13.642070 35.563072 4.581968
3148 22 1 -1.1794 13.273107 35.662500 8.207725
3149 22 2 0.5897 13.604336 36.409254 8.758036
3150 22 2 0.5897 13.602206 34.891457 8.726950
3151 22 1 -1.1794 22.389393 35.662500 3.679775
3152 22 2 0.5897 21.804308 35.669167 4.472479
3153 22 2 0.5897 22.071838 36.461764 3.201735
3154 22 1 -1.1794 22.389393 35.662500 8.207725
3155 22 2 0.5897 22.193138 36.461373 8.749125
3156 22 2 0.5897 23.368428 35.728994 8.116678
3157 22 1 -1.1794 15.567275 37.048107 0.000000
3158 22 2 0.5897 15.068986 37.322580 0.803227
3159 22 2 0.5897 16.352910 37.634811 0.037997
3160 22 1 -1.1794 20.095225 37.048107 0.000000
3161 22 2 0.5897 20.668354 37.277355 0.769515
3162 22 2 0.5897 20.679541 37.315988 -0.747865
3163 22 1 -1.1794 15.567275 46.164393 0.000000
3164 22 2 0.5897 15.757086 47.114877 0.104347
3165 22 2 0.5897 16.433834 45.730958 0.112136
3166 22 1 -1.1794 20.095225 46.164393 0.000000
3167 22 2 0.5897 20.009784 47.140758 -0.083426
3168 22 2 0.5897 20.575217 45.939357 -0.827363
3169 22 1 -1.1794 21.511025 41.606250 4.558143
3170 22 2 0.5897 21.700835 41.710598 5.508627
3171 22 2 0.5897 22.377584 41.718385 4.124708
3172 22 1 -1.1794 14.151475 41.606250 4.558143
3173 22 2 0.5897 14.066031 41.522824 5.534508
3174 22 2 0.5897 14.631467 40.778887 4.333108
3175 22 1 -1.1794 21.511025 41.606250 7.329357
3176 22 2 0.5897 21.012738 42.409478 7.603833
3177 22 2 0.5897 22.296660 41.644243 7.916061
3178 22 1 -1.1794 14.151475 41.606250 7.329357
3179 22 2 0.5897 14.724602 42.375767 7.558605
3180 22 2 0.5897 14.735793 40.858386 7.597239
3181 22 1 -1.1794 17.831250 42.991857 2.263975
3182 22 2 0.5897 17.072622 43.343606 2.788093
3183 22 2 0.5897 18.590624 43.276622 2.836075
3184 22 1 -1.1794 17.831250 42.991857 9.623525
3185 22 2 0.5897 17.866750 43.595706 10.402818
3186 22 2 0.5897 18.629737 43.278002 9.122842
3187 22 1 -1.1794 17.831250 40.220643 2.263975
3188 22 2 0.5897 18.036764 41.188742 2.330661
3189 22 2 0.5897 17.051778 40.306661 1.685681
3190 22 1 -1.1794 17.831250 40.220643 9.623525
3191 22 2 0.5897 17.786883 41.188213 9.795644
3192 22 2 0.5897 17.812692 39.828692 10.521889
3193 22 1 -1.1794 19.216857 45.286025 5.943750
3194 22 2 0.5897 18.248976 45.427384 5.849090
3195 22 2 0.5897 19.585820 46.188218 5.844322
3196 22 1 -1.1794 19.216857 37.926475 5.943750
3197 22 2 0.5897 19.548088 38.476785 6.690503
3198 22 2 0.5897 19.545958 38.445699 5.172706
3199 22 1 -1.1794 16.445643 45.286025 5.943750
3200 22 2 0.5897 15.860556 46.078729 5.950416
3201 22 2 0.5897 16.128088 44.807985 6.743014
3202 22 1 -1.1794 16.445643 37.926475 5.943750
3203 22 2 0.5897 16.249390 38.467872 6.742625
3204 22 2 0.5897 17.424678 37.835428 6.010242
3205 22 3 0.0 11.887500 35.662500 0.000000
3206 22 3 0.0 17.831250 41.606250 5.943750
3207 22 3 0.0 11.887500 38.634375 5.943750
3208 22 3 0.0 11.887500 44.578125 5.943750
3209 22 3 0.0 17.831250 35.662500 2.971875
3210 22 3 0.0 17.831250 35.662500 8.915625
3211 22 3 0.0 14.859375 41.606250 0.000000
3212 22 3 0.0 20.803125 41.606250 0.000000
3213 23 1 -1.1794 11.887500 41.606250 14.859375
3214 23 2 0.5897 11.897156 42.408882 14.289192
3215 23 2 0.5897 12.706706 41.741305 15.387977
3216 23 1 -1.1794 11.887500 41.606250 20.803125
3217 23 2 0.5897 12.168567 42.470936 21.165471
3218 23 2 0.5897 12.610734 41.475273 20.142420
3219 23 1 -1.1794 14.859375 35.662500 17.831250
3220 23 2 0.5897 14.296866 35.775295 18.629359
3221 23 2 0.5897 15.393904 36.488596 17.843005
3222 23 1 -1.1794 20.803125 35.662500 17.831250
3223 23 2 0.5897 20.240617 36.460610 17.944046
3224 23 2 0.5897 21.337653 35.674253 18.657348
3225 23 1 -1.1794 17.831250 38.634375 11.887500
3226 23 2 0.5897 18.112323 38.996727 12.752183
3227 23 2 0.5897 18.554485 37.973672 11.756521
3228 23 1 -1.1794 17.831250 44.578125 11.887500
3229 23 2 0.5897 17.840909 44.007941 12.690132
3230 23 2 0.5897 18.650455 45.106727 12.022554
3231 23 1 -1.1794 14.083240 37.858240 14.083240
3232 23 2 0.5897 13.818243 37.065281 14.609235
3233 23 2 0.5897 14.595546 38.370572 14.750311
3234 23 1 -1.1794 21.579260 45.354260 14.083240
3235 23 2 0.5897 21.865888 46.179281 14.536001
3236 23 2 0.5897 21.004218 45.706314 13.368433
3237 23 1 -1.1794 21.579260 37.858240 21.579260
3238 23 2 0.5897 21.041781 38.444808 20.992438
3239 23 2 0.5897 22.340371 38.444832 21.793426
3240 23 1 -1.1794 14.083240 45.354260 21.579260
3241 23 2 0.5897 13.321015 44.851365 21.937949
3242 23 2 0.5897 14.541573 45.612280 22.421470
3243 23 1 -1.1794 20.026990 43.801990 15.635510
3244 23 2 0.5897 19.942952 44.269415 16.488505
3245 23 2 0.5897 20.732952 44.306810 15.181649
3246 23 1 -1.1794 15.635510 39.410510 15.635510
3247 23 2 0.5897 15.889865 38.847288 16.407197
3248 23 2 0.5897 16.527481 39.633336 15.297872
3249 23 1 -1.1794 20.026990 39.410510 20.026990
3250 23 2 0.5897 19.240636 39.773445 20.497181
3251 23 2 0.5897 20.454714 40.235492 19.697698
3252 23 1 -1.1794 15.635510 43.801990 20.026990
3253 23 2 0.5897 15.123113 44.394046 20.629787
3254 23 2 0.5897 16.378956 43.531971 20.612999
3255 23 1 -1.1794 21.579260 45.354260 21.579260
3256 23 2 0.5897 21.833637 46.125942 21.016041
3257 23 2 0.5897 22.471221 45.016596 21.802092
3258 23 1 -1.1794 14.083240 37.858240 21.579260
3259 23 2 0.5897 13.296885 38.328429 21.942194
3260 23 2 0.5897 14.510964 37.528947 22.404242
3261 23 1 -1.1794 14.083240 45.354260 14.083240
3262 23 2 0.5897 13.999203 46.207255 14.550666
3263 23 2 0.5897 14.789202 44.900398 14.588060
3264 23 1 -1.1794 21.579260 37.858240 14.083240
3265 23 2 0.5897 21.066861 38.461035 14.675296
3266 23 2 0.5897 22.322705 38.444250 13.813222
3267 23 1 -1.1794 15.635510 39.410510 20.026990
3268 23 2 0.5897 15.098031 38.823688 20.613558
3269 23 2 0.5897 16.396620 39.624677 20.613582
3270 23 1 -1.1794 20.026990 43.801990 20.026990
3271 23 2 0.5897 19.761994 44.327984 19.234030
3272 23 2 0.5897 20.539295 44.469063 20.539321
3273 23 1 -1.1794 15.635510 43.801990 15.635510
3274 23 2 0.5897 15.922137 44.254751 16.460531
3275 23 2 0.5897 15.060469 43.087181 15.987563
3276 23 1 -1.1794 20.026990 39.410510 15.635510
3277 23 2 0.5897 19.264769 39.769205 15.132611
3278 23 2 0.5897 20.485326 40.252718 15.893531
3279 23 1 -1.1794 11.887500 39.342275 13.273107
3280 23 2 0.5897 11.922998 40.121567 13.876957
3281 23 2 0.5897 12.685985 38.841590 13.559256
3282 23 1 -1.1794 11.887500 43.870225 13.273107
3283 23 2 0.5897 11.128869 44.394342 13.624852
3284 23 2 0.5897 12.646872 44.442326 13.557876
3285 23 1 -1.1794 11.887500 39.342275 22.389393
3286 23 2 0.5897 11.843132 39.514390 23.356964
3287 23 2 0.5897 11.868941 40.240641 21.997446
3288 23 1 -1.1794 11.887500 43.870225 22.389393
3289 23 2 0.5897 12.093029 43.936938 23.357486
3290 23 2 0.5897 11.108049 43.291897 22.475442
3291 23 1 -1.1794 13.273107 35.662500 15.567275
3292 23 2 0.5897 12.305226 35.567841 15.708634
3293 23 2 0.5897 13.642070 35.563072 16.469468
3294 23 1 -1.1794 13.273107 35.662500 20.095225
3295 23 2 0.5897 13.604336 36.409254 20.645536
3296 23 2 0.5897 13.602206 34.891457 20.614450
3297 23 1 -1.1794 22.389393 35.662500 15.567275
3298 23 2 0.5897 21.804308 35.669167 16.359979
3299 23 2 0.5897 22.071838 36.461764 15.089235
3300 23 1 -1.1794 22.389393 35.662500 20.095225
3301 23 2 0.5897 22.193138 36.461373 20.636625
3302 23 2 0.5897 23.368428 35.728994 20.004178
3303 23 1 -1.1794 15.567275 37.048107 11.887500
3304 23 2 0.5897 15.068986 37.322580 12.690727
3305 23 2 0.5897 16.352910 37.634811 11.925497
3306 23 1 -1.1794 20.095225 37.048107 11.887500
3307 23 2 0.5897 20.668354 37.277355 12.657015
3308 23 2 0.5897 20.679541 37.315988 11.139635
3309 23 1 -1.1794 15.567275 46.164393 11.887500
3310 23 2 0.5897 15.757086 47.114877 11.991847
3311 23 2 0.5897 16.433834 45.730958 11.999636
3312 23 1 -1.1794 20.095225 46.164393 11.887500
3313 23 2 0.5897 20.009784 47.140758 11.804074
3314 23 2 0.5897 20.575217 45.939357 11.060137
3315 23 1 -1.1794 21.511025 41.606250 16.445643
3316 23 2 0.5897 21.700835 41.710598 17.396127
3317 23 2 0.5897 22.377584 41.718385 16.012208
3318 23 1 -1.1794 14.151475 41.606250 16.445643
3319 23 2 0.5897 14.066031 41.522824 17.422008
3320 23 2 0.5897 14.631467 40.778887 16.220608
3321 23 1 -1.1794 21.511025 41.606250 19.216857
3322 23 2 0.5897 21.012738 42.409478 19.491333
3323 23 2 0.5897 22.296660 41.644243 19.803561
3324 23 1 -1.1794 14.151475 41.606250 19.216857
3325 23 2 0.5897 14.724602 42.375767 19.446105
3326 23 2 0.5897 14.735793 40.858386 19.484739
3327 23 1 -1.1794 17.831250 42.991857 14.151475
3328 23 2 0.5897 17.072622 43.343606 14.675593
3329 23 2 0.5897 18.590624 43.276622 14.723575
3330 23 1 -1.1794 17.831250 42.991857 21.511025
3331 23 2 0.5897 17.866750 43.595706 22.290318
3332 23 2 0.5897 18.629737 43.278002 21.010342
3333 23 1 -1.1794 17.831250 40.220643 14.151475
3334 23 2 0.5897 18.036764 41.188742 14.218161
3335 23 2 0.5897 17.051778 40.306661 13.573181
3336 23 1 -1.1794 17.831250 40.220643 21.511025
3337 23 2 0.5897 17.786883 41.188213 21.683144
3338 23 2 0.5897 17.812692 39.828692 22.409389
3339 23 1 -1.1794 19.216857 45.286025 17.831250
3340 23 2 0.5897 18.248976 45.427384 17.736590
3341 23 2 0.5897 19.585820 46.188218 17.731822
3342 23 1 -1.1794 19.216857 37.926475 17.831250
3343 23 2 0.5897 19.548088 38.476785 18.578003
3344 23 2 0.5897 19.545958 38.445699 17.060206
3345 23 1 -1.1794 16.445643 45.286025 17.831250
3346 23 2 0.5897 15.860556 46.078729 17.837916
3347 23 2 0.5897 16.128088 44.807985 18.630514
3348 23 1 -1.1794 16.445643 37.926475 17.831250
3349 23 2 0.5897 16.249390 38.467872 18.630125
3350 23 2 0.5897 17.424678 37.835428 17.897742
3351 23 3 0.0 11.887500 35.662500 11.887500
3352 23 3 0.0 17.831250 41.606250 17.831250
3353 23 3 0.0 11.887500 38.634375 17.831250
3354 23 3 0.0 11.887500 44.578125 17.831250
3355 23 3 0.0 17.831250 35.662500 14.859375
3356 23 3 0.0 17.831250 35.662500 20.803125
3357 23 3 0.0 14.859375 41.606250 11.887500
3358 23 3 0.0 20.803125 41.606250 11.887500
3359 24 1 -1.1794 11.887500 41.606250 26.746875
3360 24 2 0.5897 11.897156 42.408882 26.176692
3361 24 2 0.5897 12.706706 41.741305 27.275477
3362 24 1 -1.1794 11.887500 41.606250 32.690625
3363 24 2 0.5897 12.168567 42.470936 33.052971
3364 24 2 0.5897 12.610734 41.475273 32.029920
3365 24 1 -1.1794 14.859375 35.662500 29.718750
3366 24 2 0.5897 14.296866 35.775295 30.516859
3367 24 2 0.5897 15.393904 36.488596 29.730505
3368 24 1 -1.1794 20.803125 35.662500 29.718750
3369 24 2 0.5897 20.240617 36.460610 29.831546
3370 24 2 0.5897 21.337653 35.674253 30.544848
3371 24 1 -1.1794 17.831250 38.634375 23.775000
3372 24 2 0.5897 18.112323 38.996727 24.639683
3373 24 2 0.5897 18.554485 37.973672 23.644021
3374 24 1 -1.1794 17.831250 44.578125 23.775000
3375 24 2 0.5897 17.840909 44.007941 24.577632
3376 24 2 0.5897 18.650455 45.106727 23.910054
3377 24 1 -1.1794 14.083240 37.858240 25.970740
3378 24 2 0.5897 13.818243 37.065281 26.496735
3379 24 2 0.5897 14.595546 38.370572 26.637811
3380 24 1 -1.1794 21.579260 45.354260 25.970740
3381 24 2 0.5897 21.865888 46.179281 26.423501
3382 24 2 0.5897 21.004218 45.706314 25.255933
3383 24 1 -1.1794 21.579260 37.858240 33.466760
3384 24 2 0.5897 21.041781 38.444808 32.879938
3385 24 2 0.5897 22.340371 38.444832 33.680926
3386 24 1 -1.1794 14.083240 45.354260 33.466760
3387 24 2 0.5897 13.321015 44.851365 33.825449
3388 24 2 0.5897 14.541573 45.612280 34.308970
3389 24 1 -1.1794 20.026990 43.801990 27.523010
3390 24 2 0.5897 19.942952 44.269415 28.376005
3391 24 2 0.5897 20.732952 44.306810 27.069149
3392 24 1 -1.1794 15.635510 39.410510 27.523010
3393 24 2 0.5897 15.889865 38.847288 28.294697
3394 24 2 0.5897 16.527481 39.633336 27.185372
3395 24 1 -1.1794 20.026990 39.410510 31.914490
3396 24 2 0.5897 19.240636 39.773445 32.384681
3397 24 2 0.5897 20.454714 40.235492 31.585198
3398 24 1 -1.1794 15.635510 43.801990 31.914490
3399 24 2 0.5897 15.123113 44.394046 32.517287
3400 24 2 0.5897 16.378956 43.531971 32.500499
3401 24 1 -1.1794 21.579260 45.354260 33.466760
3402 24 2 0.5897 21.833637 46.125942 32.903541
3403 24 2 0.5897 22.471221 45.016596 33.689592
3404 24 1 -1.1794 14.083240 37.858240 33.466760
3405 24 2 0.5897 13.296885 38.328429 33.829694
3406 24 2 0.5897 14.510964 37.528947 34.291742
3407 24 1 -1.1794 14.083240 45.354260 25.970740
3408 24 2 0.5897 13.999203 46.207255 26.438166
3409 24 2 0.5897 14.789202 44.900398 26.475560
3410 24 1 -1.1794 21.579260 37.858240 25.970740
3411 24 2 0.5897 21.066861 38.461035 26.562796
3412 24 2 0.5897 22.322705 38.444250 25.700722
3413 24 1 -1.1794 15.635510 39.410510 31.914490
3414 24 2 0.5897 15.098031 38.823688 32.501058
3415 24 2 0.5897 16.396620 39.624677 32.501082
3416 24 1 -1.1794 20.026990 43.801990 31.914490
3417 24 2 0.5897 19.761994 44.327984 31.121530
3418 24 2 0.5897 20.539295 44.469063 32.426821
3419 24 1 -1.1794 15.635510 43.801990 27.523010
3420 24 2 0.5897 15.922137 44.254751 28.348031
3421 24 2 0.5897 15.060469 43.087181 27.875063
3422 24 1 -1.1794 20.026990 39.410510 27.523010
3423 24 2 0.5897 19.264769 39.769205 27.020111
3424 24 2 0.5897 20.485326 40.252718 27.781031
3425 24 1 -1.1794 11.887500 39.342275 25.160607
3426 24 2 0.5897 11.922998 40.121567 25.764457
3427 24 2 0.5897 12.685985 38.841590 25.446756
3428 24 1 -1.1794 11.887500 43.870225 25.160607
3429 24 2 0.5897 11.128869 44.394342 25.512352
3430 24 2 0.5897 12.646872 44.442326 25.445376
3431 24 1 -1.1794 11.887500 39.342275 34.276893
3432 24 2 0.5897 11.843132 39.514390 35.244464
3433 24 2 0.5897 11.868941 40.240641 33.884946
3434 24 1 -1.1794 11.887500 43.870225 34.276893
3435 24 2 0.5897 12.093029 43.936938 35.244986
3436 24 2 0.5897 11.108049 43.291897 34.362942
3437 24 1 -1.1794 13.273107 35.662500 27.454775
3438 24 2 0.5897 12.305226 35.567841 27.596134
3439 24 2 0.5897 13.642070 35.563072 28.356968
3440 24 1 -1.1794 13.273107 35.662500 31.982725
3441 24 2 0.5897 13.604336 36.409254 32.533036
3442 24 2 0.5897 13.602206 34.891457 32.501950
3443 24 1 -1.1794 22.389393 35.662500 27.454775
3444 24 2 0.5897 21.804308 35.669167 28.247479
3445 24 2 0.5897 22.071838 36.461764 26.976735
3446 24 1 -1.1794 22.389393 35.662500 31.982725
3447 24 2 0.5897 22.193138 36.461373 32.524125
3448 24 2 0.5897 23.368428 35.728994 31.891678
3449 24 1 -1.1794 15.567275 37.048107 23.775000
3450 24 2 0.5897 15.068986 37.322580 24.578227
3451 24 2 0.5897 16.352910 37.634811 23.812997
3452 24 1 -1.1794 20.095225 37.048107 23.775000
3453 24 2 0.5897 20.668354 37.277355 24.544515
3454 24 2 0.5897 20.679541 37.315988 23.027135
3455 24 1 -1.1794 15.567275 46.164393 23.775000
3456 24 2 0.5897 15.757086 47.114877 23.879347
3457 24 2 0.5897 16.433834 45.730958 23.887136
3458 24 1 -1.1794 20.095225 46.164393 23.775000
3459 24 2 0.5897 20.009784 47.140758 23.691574
3460 24 2 0.5897 20.575217 45.939357 22.947637
3461 24 1 -1.1794 21.511025 41.606250 28.333143
3462 24 2 0.5897 21.700835 41.710598 29.283627
3463 24 2 0.5897 22.377584 41.718385 27.899708
3464 24 1 -1.1794 14.151475 41.606250 28.333143
3465 24 2 0.5897 14.066031 41.522824 29.309508
3466 24 2 0.5897 14.631467 40.778887 28.108108
3467 24 1 -1.1794 21.511025 41.606250 31.104357
3468 24 2 0.5897 21.012738 42.409478 31.378833
3469 24 2 0.5897 22.296660 41.644243 31.691061
3470 24 1 -1.1794 14.151475 41.606250 31.104357
3471 24 2 0.5897 14.724602 42.375767 31.333605
3472 24 2 0.5897 14.735793 40.858386 31.372239
3473 24 1 -1.1794 17.831250 42.991857 26.038975
3474 24 2 0.5897 17.072622 43.343606 26.563093
3475 24 2 0.5897 18.590624 43.276622 26.611075
3476 24 1 -1.1794 17.831250 42.991857 33.398525
3477 24 2 0.5897 17.866750 43.595706 34.177818
3478 24 2 0.5897 18.629737 43.278002 32.897842
3479 24 1 -1.1794 17.831250 40.220643 26.038975
3480 24 2 0.5897 18.036764 41.188742 26.105661
3481 24 2 0.5897 17.051778 40.306661 25.460681
3482 24 1 -1.1794 17.831250 40.220643 33.398525
3483 24 2 0.5897 17.786883 41.188213 33.570644
3484 24 2 0.5897 17.812692 39.828692 34.296889
3485 24 1 -1.1794 19.216857 45.286025 29.718750
3486 24 2 0.5897 18.248976 45.427384 29.624090
3487 24 2 0.5897 19.585820 46.188218 29.619322
3488 24 1 -1.1794 19.216857 37.926475 29.718750
3489 24 2 0.5897 19.548088 38.476785 30.465503
3490 24 2 0.5897 19.545958 38.445699 28.947706
3491 24 1 -1.1794 16.445643 45.286025 29.718750
3492 24 2 0.5897 15.860556 46.078729 29.725416
3493 24 2 0.5897 16.128088 44.807985 30.518014
3494 24 1 -1.1794 16.445643 37.926475 29.718750
3495 24 2 0.5897 16.249390 38.467872 30.517625
3496 24 2 0.5897 17.424678 37.835428 29.785242
3497 24 3 0.0 11.887500 35.662500 23.775000
3498 24 3 0.0 17.831250 41.606250 29.718750
3499 24 3 0.0 11.887500 38.634375 29.718750
3500 24 3 0.0 11.887500 44.578125 29.718750
3501 24 3 0.0 17.831250 35.662500 26.746875
3502 24 3 0.0 17.831250 35.662500 32.690625
3503 24 3 0.0 14.859375 41.606250 23.775000
3504 24 3 0.0 20.803125 41.606250 23.775000
3505 25 1 -1.1794 12.336012 66.166171 12.079090
3506 25 2 0.5897 12.325449 66.442619 11.118119
3507 25 2 0.5897 11.596649 66.629721 12.567419
3508 26 1 -1.1794 3.664060 55.439863 24.126792
3509 26 2 0.5897 3.831617 54.801974 23.375112
3510 26 2 0.5897 3.653422 56.375460 23.773880
3511 27 1 -1.1794 1.005223 84.632989 24.419371
3512 27 2 0.5897 0.456070 84.204399 23.701916
3513 27 2 0.5897 1.615340 85.312110 24.011263
3514 28 1 -1.1794 19.785312 66.106205 8.757105
3515 28 2 0.5897 19.146634 65.390742 9.040308
3516 28 2 0.5897 20.599310 65.686490 8.355551
3517 29 1 -1.1794 3.063452 81.025069 32.672297
3518 29 2 0.5897 3.271671 81.666653 33.410548
3519 29 2 0.5897 3.294857 80.096508 32.962514
3520 30 1 -1.1794 9.869108 79.819594 9.348915
3521 30 2 0.5897 10.093718 79.106120 10.012620
3522 30 2 0.5897 9.536129 80.630139 9.830725
3523 31 1 -1.1794 4.804904 86.366186 28.950538
3524 31 2 0.5897 4.964169 85.647791 29.627695
3525 31 2 0.5897 3.914202 86.789316 29.116703
3526 32 1 -1.1794 14.766139 56.805504 5.690250
3527 32 2 0.5897 13.821072 56.629163 5.415019
3528 32 2 0.5897 15.266643 55.941010 5.736568
3529 33 1 -1.1794 9.456147 62.415484 6.994095
3530 33 2 0.5897 8.920391 61.594631 7.192004
3531 33 2 0.5897 10.216315 62.179446 6.388761
3532 34 1 -1.1794 6.501516 52.623853 22.590694
3533 34 2 0.5897 5.679765 52.342679 23.086342
3534 34 2 0.5897 7.305598 52.473011 23.165758
3535 35 1 -1.1794 5.414819 82.212571 26.829086
3536 35 2 0.5897 6.201013 81.676237 26.522092
3537 35 2 0.5897 4.790931 81.624728 27.344066
3538 36 1 -1.1794 4.421834 95.158360 0.593006
3539 36 2 0.5897 5.140509 94.795333 -0.000052
3540 36 2 0.5897 3.669723 95.504130 0.031959
3541 37 1 -1.1794 20.105847 50.592550 6.351359
3542 37 2 0.5897 20.709061 50.243218 7.068367
3543 37 2 0.5897 20.646254 51.095772 5.677025
3544 38 1 -1.1794 0.171649 62.960144 27.385005
3545 38 2 0.5897 -0.000078 62.931475 28.369733
3546 38 2 0.5897 0.794008 62.218927 27.133476
3547 39 1 -1.1794 13.505910 98.227718 23.025083
3548 39 2 0.5897 12.573814 98.549946 22.859656
3549 39 2 0.5897 14.105000 98.549989 22.292122
3550 40 1 -1.1794 17.615309 55.916048 2.844486
3551 40 2 0.5897 17.465828 56.564319 3.591078
3552 40 2 0.5897 16.832605 55.937766 2.222471
3553 41 1 -1.1794 4.841675 52.364396 27.097783
3554 41 2 0.5897 4.434552 52.145855 27.984626
3555 41 2 0.5897 4.167474 52.834688 26.528328
3556 42 1 -1.1794 19.492919 52.810734 12.238586
3557 42 2 0.5897 19.643111 52.418324 11.331141
3558 42 2 0.5897 18.786245 53.516155 12.183885
3559 43 1 -1.1794 3.680421 85.700599 11.629028
3560 43 2 0.5897 4.306665 86.187872 11.020437
3561 43 2 0.5897 4.187605 85.011968 12.147247
3562 44 1 -1.1794 4.411389 57.119885 21.471750
3563 44 2 0.5897 4.494593 57.588337 20.592188
3564 44 2 0.5897 3.448957 56.916003 21.651074
3565 45 1 -1.1794 21.463963 77.053506 10.239575
3566 45 2 0.5897 21.674776 77.817958 10.848813
3567 45 2 0.5897 21.305090 76.228765 10.782310
3568 46 1 -1.1794 5.689253 75.300792 15.364344
3569 46 2 0.5897 5.005340 75.388823 16.088577
3570 46 2 0.5897 6.461917 74.761544 15.699310
3571 47 1 -1.1794 12.947507 63.454072 2.285725
3572 47 2 0.5897 13.137515 64.151194 1.594410
3573 47 2 0.5897 13.290203 62.569315 1.969870
3574 48 1 -1.1794 0.069522 82.608927 21.549651
3575 48 2 0.5897 -0.000194 82.356579 20.584529
3576 48 2 0.5897 0.588489 83.459435 21.635142
3577 49 1 -1.1794 5.203796 68.268539 8.935211
3578 49 2 0.5897 5.531940 67.944597 9.822558
3579 49 2 0.5897 4.213227 68.399978 8.973882
3580 50 1 -1.1794 15.937509 53.820020 8.426807
3581 50 2 0.5897 14.967848 53.811352 8.182509
3582 50 2 0.5897 16.154830 53.000894 8.957659
3583 51 1 -1.1794 0.232241 78.350250 24.955669
3584 51 2 0.5897 0.000125 78.069586 24.024353
3585 51 2 0.5897 0.117999 79.339784 25.043828
3586 52 1 -1.1794 6.377224 71.916817 23.229288
3587 52 2 0.5897 5.929040 71.325895 23.900065
3588 52 2 0.5897 6.997207 72.544718 23.699779
3589 53 1 -1.1794 17.751166 50.456511 19.459692
3590 53 2 0.5897 17.834706 50.641047 20.438961
3591 53 2 0.5897 17.275310 51.216345 19.016732
3592 54 1 -1.1794 3.477857 92.529212 1.160776
3593 54 2 0.5897 3.167105 92.026036 0.354397
3594 54 2 0.5897 2.786865 92.464571 1.880742
3595 55 1 -1.1794 20.808570 59.212148 22.508072
3596 55 2 0.5897 19.912012 59.603778 22.714979
3597 55 2 0.5897 21.309656 59.058269 23.359678
3598 56 1 -1.1794 3.010635 50.901804 9.331715
3599 56 2 0.5897 3.739189 50.590700 9.941980
3600 56 2 0.5897 2.133731 50.539702 9.647819
3601 57 1 -1.1794 20.256877 55.771196 29.648711
3602 57 2 0.5897 20.354897 56.539037 29.015614
3603 57 2 0.5897 19.286739 55.561603 29.770787
3604 58 1 -1.1794 0.885414 80.677910 22.215707
3605 58 2 0.5897 1.538425 80.730428 21.460181
3606 58 2 0.5897 0.000077 80.366942 21.870050
3607 59 1 -1.1794 13.919028 60.760021 23.414650
3608 59 2 0.5897 13.059268 60.286450 23.223485
3609 59 2 0.5897 14.126398 60.693398 24.390641
3610 60 1 -1.1794 0.057301 81.017298 18.289957
3611 60 2 0.5897 0.139809 80.641871 19.213129
3612 60 2 0.5897 -0.004331 82.014152 18.339804
3613 61 1 -1.1794 3.535831 77.693110 0.599735
3614 61 2 0.5897 3.255971 77.664122 1.559338
3615 61 2 0.5897 3.199824 78.536204 0.179865
3616 62 1 -1.1794 6.843939 49.126617 11.818950
3617 62 2 0.5897 5.867506 49.027968 11.626995
3618 62 2 0.5897 6.966235 49.532853 12.724498
3619 63 1 -1.1794 10.986820 63.282527 10.066307
3620 63 2 0.5897 11.148089 63.785964 9.217459
3621 63 2 0.5897 11.861323 62.981368 10.446503
3622 64 1 -1.1794 5.290007 71.755953 26.826599
3623 64 2 0.5897 4.608340 71.025959 26.777206
3624 64 2 0.5897 6.008088 71.498263 27.473095
3625 65 1 -1.1794 2.707338 88.022710 31.399382
3626 65 2 0.5897 2.611953 87.193808 30.848181
3627 65 2 0.5897 2.727995 88.821907 30.798669
3628 66 1 -1.1794 10.119222 53.342633 23.485497
3629 66 2 0.5897 10.977149 53.362795 23.998872
3630 66 2 0.5897 9.373500 53.662616 24.069885
3631 67 1 -1.1794 8.899761 81.958756 6.325299
3632 67 2 0.5897 8.105498 82.384449 6.758809
3633 67 2 0.5897 8.601217 81.423251 5.535295
3634 68 1 -1.1794 0.177595 85.170512 19.496450
3635 68 2 0.5897 0.076404 84.411697 18.853052
3636 68 2 0.5897 0.982571 85.016580 20.069442
3637 69 1 -1.1794 20.078480 72.298320 19.561085
3638 69 2 0.5897 19.777794 71.842444 20.398799
3639 69 2 0.5897 19.284763 72.674315 19.082920
3640 70 1 -1.1794 10.392049 59.453780 16.822338
3641 70 2 0.5897 10.223049 59.834470 17.731466
3642 70 2 0.5897 9.982704 58.543478 16.760796
3643 71 1 -1.1794 18.140034 73.605910 13.812716
3644 71 2 0.5897 18.102443 74.442520 14.359224
3645 71 2 0.5897 19.031390 73.168892 13.933128
3646 72 1 -1.1794 19.304599 97.925178 19.727350
3647 72 2 0.5897 18.668608 97.268105 20.132036
3648 72 2 0.5897 19.856297 98.343019 20.449180
3649 73 1 -1.1794 7.672982 68.633874 24.795481
3650 73 2 0.5897 6.883516 68.059634 25.012257
3651 73 2 0.5897 8.332688 68.590581 25.545757
3652 74 1 -1.1794 19.751602 79.915548 7.954798
3653 74 2 0.5897 20.251238 80.641655 8.427167
3654 74 2 0.5897 19.619324 80.170641 6.996972
3655 75 1 -1.1794 11.377641 76.093027 30.066366
3656 75 2 0.5897 11.196802 75.671167 30.954809
3657 75 2 0.5897 10.918053 75.569396 29.349017
3658 76 1 -1.1794 14.105010 80.907579 6.179237
3659 76 2 0.5897 13.620498 80.331156 6.837253
3660 76 2 0.5897 14.822659 81.420428 6.650371
3661 77 1 -1.1794 17.385135 52.968605 20.637562
3662 77 2 0.5897 18.273252 53.036121 20.182930
3663 77 2 0.5897 17.458687 53.328145 21.567788
3664 78 1 -1.1794 21.340741 59.955926 29.949617
3665 78 2 0.5897 21.774998 59.389816 29.248946
3666 78 2 0.5897 21.501302 60.921453 29.744732
3667 79 1 -1.1794 0.177789 90.137652 30.123143
3668 79 2 0.5897 -0.002279 90.831293 29.425692
3669 79 2 0.5897 0.291427 89.245998 29.684921
3670 80 1 -1.1794 14.855947 93.894132 3.855563
3671 80 2 0.5897 15.057385 93.159715 3.207447
3672 80 2 0.5897 14.021172 93.673746 4.360122
3673 81 1 -1.1794 18.565581 96.346528 11.131117
3674 81 2 0.5897 17.738785 96.325680 11.693232
3675 81 2 0.5897 18.902764 95.414330 10.999533
3676 82 1 -1.1794 5.725782 67.908898 15.904032
3677 82 2 0.5897 6.504801 68.332236 16.366540
3678 82 2 0.5897 4.885215 68.126246 16.400226
3679 83 1 -1.1794 4.977973 77.637657 25.544044
3680 83 2 0.5897 4.284172 77.311752 24.901840
3681 83 2 0.5897 5.766105 77.984518 25.035580
3682 84 1 -1.1794 11.570189 56.082653 11.601754
3683 84 2 0.5897 10.924366 55.567520 12.165269
3684 84 2 0.5897 12.141496 56.655938 12.189081
3685 85 1 -1.1794 10.569784 68.112465 3.296560
3686 85 2 0.5897 11.086432 68.914517 3.596207
3687 85 2 0.5897 9.973267 68.365678 2.534949
3688 86 1 -1.1794 1.015829 88.459806 32.771015
3689 86 2 0.5897 0.764459 89.025781 31.985849
3690 86 2 0.5897 0.218777 87.937532 33.074229
3691 87 1 -1.1794 15.680238 78.238492 8.151415
3692 87 2 0.5897 15.834975 77.285347 7.891472
3693 87 2 0.5897 15.265963 78.729870 7.385306
3694 88 1 -1.1794 0.255196 68.996982 20.553728
3695 88 2 0.5897 0.000016 69.028852 19.587360
3696 88 2 0.5897 0.942223 69.699232 20.740383
3697 89 1 -1.1794 1.863880 91.402209 12.806587
3698 89 2 0.5897 1.449509 91.333395 11.899084
3699 89 2 0.5897 2.555474 90.687696 12.912267
3700 90 1 -1.1794 3.700805 62.510092 2.159823
3701 90 2 0.5897 4.554625 62.026834 2.353352
3702 90 2 0.5897 3.709467 63.398737 2.618338
3703 91 1 -1.1794 12.743945 61.429219 3.853499
3704 91 2 0.5897 12.988370 62.341180 4.183021
3705 91 2 0.5897 11.882126 61.477168 3.348555
3706 92 1 -1.1794 2.446406 64.713022 26.141121
3707 92 2 0.5897 1.851441 63.912095 26.208444
3708 92 2 0.5897 3.388982 64.445838 26.341528
3709 93 1 -1.1794 20.253317 95.658674 15.932123
3710 93 2 0.5897 20.740132 95.422733 15.091086
3711 93 2 0.5897 19.337042 95.988903 15.705429
3712 94 1 -1.1794 13.427108 53.426651 6.502840
3713 94 2 0.5897 13.765315 52.606696 6.041008
3714 94 2 0.5897 13.995080 54.209876 6.249925
3715 95 1 -1.1794 4.859674 65.354170 4.570109
3716 95 2 0.5897 5.177515 65.821892 5.394859
3717 95 2 0.5897 4.376154 64.517344 4.826879
3718 96 1 -1.1794 2.503379 59.221132 16.721407
3719 96 2 0.5897 2.507710 58.818863 17.636918
3720 96 2 0.5897 2.760643 58.525629 16.050518
3721 97 1 -1.1794 3.322438 95.903875 13.301112
3722 97 2 0.5897 3.097593 94.941982 13.145527
3723 97 2 0.5897 4.255910 95.975343 13.652570
3724 98 1 -1.1794 17.763267 70.349661 6.947380
3725 98 2 0.5897 17.430601 69.736689 6.230721
3726 98 2 0.5897 17.212301 70.227296 7.772887
3727 99 1 -1.1794 6.748925 73.985896 13.648041
3728 99 2 0.5897 5.963870 74.516010 13.327623
3729 99 2 0.5897 7.010833 73.321759 12.947807
3730 100 1 -1.1794 11.146812 49.380557 15.198571
3731 100 2 0.5897 11.589638 48.719307 14.593051
3732 100 2 0.5897 10.738323 50.111577 14.651995
3733 101 1 -1.1794 17.198671 57.931710 15.685510
3734 101 2 0.5897 17.790176 57.329016 15.149895
3735 101 2 0.5897 16.365263 57.440955 15.939655
3736 102 1 -1.1794 17.122835 63.973633 30.548367
3737 102 2 0.5897 17.719434 63.343452 31.045299
3738 102 2 0.5897 16.179041 63.646537 30.595907
3739 103 1 -1.1794 0.706489 96.975597 31.748124
3740 103 2 0.5897 0.286196 96.069473 31.700232
3741 103 2 0.5897 0.000033 97.662004 31.920650
3742 104 1 -1.1794 7.459784 96.406820 2.423860
3743 104 2 0.5897 8.251616 96.988454 2.237572
3744 104 2 0.5897 7.237119 95.875164 1.606693
3745 105 1 -1.1794 11.299043 93.442332 9.029934
3746 105 2 0.5897 11.933470 92.775193 8.639514
3747 105 2 0.5897 10.702339 93.796035 8.309629
3748 106 1 -1.1794 21.199651 83.363409 25.415681
3749 106 2 0.5897 21.775000 83.093394 26.187734
3750 106 2 0.5897 21.774711 83.537569 24.616322
3751 107 1 -1.1794 12.723813 74.648108 33.083379
3752 107 2 0.5897 11.826879 74.834265 33.484446
3753 107 2 0.5897 12.611444 74.373863 32.128307
3754 108 1 -1.1794 21.670333 94.165643 31.686475
3755 108 2 0.5897 21.734949 95.090165 32.062086
3756 108 2 0.5897 21.775158 94.201565 30.692633
3757 109 1 -1.1794 3.348137 69.152427 14.348002
3758 109 2 0.5897 3.984676 69.638891 13.749529
3759 109 2 0.5897 2.480841 69.648772 14.385931
3760 110 1 -1.1794 6.326907 71.226381 0.711204
3761 110 2 0.5897 5.670064 71.477166 0.000103
3762 110 2 0.5897 7.154262 70.859157 0.286197
3763 111 1 -1.1794 9.374956 84.182920 3.908048
3764 111 2 0.5897 9.249700 83.837380 4.838055
3765 111 2 0.5897 9.879765 85.045624 3.938172
3766 112 1 -1.1794 20.308061 81.000453 10.892939
3767 112 2 0.5897 20.135407 80.697327 11.830118
3768 112 2 0.5897 21.150410 81.538740 10.866573
3769 113 1 -1.1794 5.066035 84.186361 33.662199
3770 113 2 0.5897 4.584472 83.444460 33.195638
3771 113 2 0.5897 5.970008 84.306868 33.251940
3772 114 1 -1.1794 4.355254 55.604974 26.925577
3773 114 2 0.5897 5.230400 55.473478 26.459929
3774 114 2 0.5897 3.675253 55.934162 26.270417
3775 115 1 -1.1794 15.588806 76.759244 -0.001325
3776 115 2 0.5897 14.992179 75.956781 0.008112
3777 115 2 0.5897 15.276770 77.414692 0.686441
3778 116 1 -1.1794 14.225800 61.222541 13.817485
3779 116 2 0.5897 14.459022 60.507259 13.158714
3780 116 2 0.5897 14.475956 62.115267 13.442702
3781 117 1 -1.1794 8.011262 61.233011 23.835446
3782 117 2 0.5897 7.132787 61.288998 23.360950
3783 117 2 0.5897 7.957529 60.541476 24.555787
3784 118 1 -1.1794 21.075049 75.967490 13.349109
3785 118 2 0.5897 20.314408 75.386921 13.639567
3786 118 2 0.5897 21.117184 76.778401 13.932760
3787 119 1 -1.1794 20.056693 92.996751 30.032886
3788 119 2 0.5897 19.894363 93.660754 29.302989
3789 119 2 0.5897 19.746645 93.376876 30.904307
3790 120 1 -1.1794 12.117676 72.660929 25.971471
3791 120 2 0.5897 13.009033 72.801436 26.402447
3792 120 2 0.5897 11.393206 72.881119 26.624662
3793 121 1 -1.1794 0.343678 77.498517 21.683809
3794 121 2 0.5897 0.399644 78.327353 21.127124
3795 121 2 0.5897 1.155231 77.431404 22.264221
3796 122 1 -1.1794 15.394956 52.687550 3.980221
3797 122 2 0.5897 15.936949 53.387328 3.514866
3798 122 2 0.5897 14.535099 52.550222 3.488502
3799 123 1 -1.1794 -0.000026 50.243676 4.962414
3800 123 2 0.5897 0.126686 49.359451 4.512870
3801 123 2 0.5897 0.727097 50.868936 4.678968
3802 124 1 -1.1794 12.974088 84.829502 14.887352
3803 124 2 0.5897 13.778113 84.716438 15.471099
3804 124 2 0.5897 12.178290 85.043390 15.453884
3805 125 1 -1.1794 0.562608 95.299645 29.204358
3806 125 2 0.5897 0.013280 94.555622 29.584712
3807 125 2 0.5897 -0.015968 96.103133 29.064153
3808 126 1 -1.1794 14.368691 67.894441 29.210951
3809 126 2 0.5897 13.754088 68.407415 28.611684
3810 126 2 0.5897 15.317005 68.080868 28.954151
3811 127 1 -1.1794 4.856239 91.278331 10.895709
3812 127 2 0.5897 4.685436 91.215563 11.879013
3813 127 2 0.5897 5.738136 91.722714 10.738291
3814 128 1 -1.1794 8.942833 95.336517 0.326527
3815 128 2 0.5897 8.696869 96.250746 0.004521
3816 128 2 0.5897 8.267062 94.675348 0.000661
3817 129 1 -1.1794 1.039142 53.249221 16.727847
3818 129 2 0.5897 0.058798 53.210963 16.534298
3819 129 2 0.5897 1.345206 52.362739 17.074942
3820 130 1 -1.1794 5.358335 52.193942 8.689360
3821 130 2 0.5897 5.854025 52.836273 8.104807
3822 130 2 0.5897 5.905743 51.366487 8.814513
3823 131 1 -1.1794 9.851732 76.792945 19.771833
3824 131 2 0.5897 10.317254 75.920442 19.920254
3825 131 2 0.5897 8.863943 76.662395 19.856858
3826 132 1 -1.1794 6.235086 64.724558 28.506510
3827 132 2 0.5897 6.998756 64.442664 29.087322
3828 132 2 0.5897 5.509932 65.113389 29.074808
3829 133 1 -1.1794 0.107760 94.837186 26.332611
3830 133 2 0.5897 0.833948 95.459265 26.625304
3831 133 2 0.5897 -0.007826 94.115292 27.014893
3832 134 1 -1.1794 17.134005 53.133238 27.151746
3833 134 2 0.5897 17.952223 53.635432 26.871889
3834 134 2 0.5897 16.619311 53.677350 27.814341
3835 135 1 -1.1794 8.658352 49.432442 -0.000002
3836 135 2 0.5897 9.377904 49.084236 0.600828
3837 135 2 0.5897 8.053592 50.036177 0.519392
3838 136 1 -1.1794 12.399086 72.121739 7.180881
3839 136 2 0.5897 12.122727 71.405286 6.540318
3840 136 2 0.5897 12.715350 72.921366 6.670416
3841 137 1 -1.1794 12.659951 78.665857 13.198054
3842 137 2 0.5897 12.040420 78.165677 13.803034
3843 137 2 0.5897 13.199375 78.016188 12.662376
3844 138 1 -1.1794 0.484820 54.815889 30.001847
3845 138 2 0.5897 0.023283 55.159521 30.819710
3846 138 2 0.5897 -0.000153 54.011547 29.658577
3847 139 1 -1.1794 12.205437 89.999421 15.427472
3848 139 2 0.5897 11.993102 89.414519 16.210290
3849 139 2 0.5897 12.816963 90.735544 15.717571
3850 140 1 -1.1794 4.932644 93.655302 7.340628
3851 140 2 0.5897 5.558876 93.380349 8.070173
3852 140 2 0.5897 4.089599 94.013050 7.742238
3853 141 1 -1.1794 9.824028 72.315895 1.246184
3854 141 2 0.5897 9.877108 72.784399 2.128050
3855 141 2 0.5897 8.973185 72.568279 0.785351
3856 142 1 -1.1794 5.982999 60.496293 5.482278
3857 142 2 0.5897 6.584267 61.268116 5.689080
3858 142 2 0.5897 6.491541 59.806274 4.967245
3859 143 1 -1.1794 20.560757 57.041376 25.935094
3860 143 2 0.5897 20.876305 56.196972 26.368004
3861 143 2 0.5897 19.671435 56.883710 25.505853
3862 144 1 -1.1794 0.302430 58.688200 28.247446
3863 144 2 0.5897 0.864328 58.007172 28.716989
3864 144 2 0.5897 -0.000017 59.380095 28.903043
3865 145 1 -1.1794 5.006876 74.014025 10.558359
3866 145 2 0.5897 4.122571 74.154658 11.003584
3867 145 2 0.5897 5.692448 73.776354 11.246474
3868 146 1 -1.1794 15.171665 54.652329 22.957490
3869 146 2 0.5897 15.535071 55.400746 23.512294
3870 146 2 0.5897 14.437632 54.192752 23.457476
3871 147 1 -1.1794 21.424014 79.700873 15.109037
3872 147 2 0.5897 21.439357 79.032430 14.365433
3873 147 2 0.5897 21.295316 80.617520 14.730626
3874 148 1 -1.1794 13.462430 70.275288 9.957685
3875 148 2 0.5897 13.461558 70.954124 9.223396
3876 148 2 0.5897 13.295960 69.367539 9.572613
3877 149 1 -1.1794 -0.003686 91.689070 2.313945
3878 149 2 0.5897 0.034046 92.597684 2.729873
3879 149 2 0.5897 -0.000099 90.993297 3.032197
3880 150 1 -1.1794 8.788945 70.743836 2.964051
3881 150 2 0.5897 8.228067 71.053885 2.196402
3882 150 2 0.5897 9.715281 70.547927 2.642303
3883 151 1 -1.1794 20.609300 87.146596 3.612510
3884 151 2 0.5897 20.197277 86.361477 4.074923
3885 151 2 0.5897 20.229612 87.991850 3.988520
3886 152 1 -1.1794 12.080169 85.380068 20.350392
3887 152 2 0.5897 11.866287 84.660122 19.690141
3888 152 2 0.5897 11.312025 86.017676 20.408797
3889 153 1 -1.1794 6.586259 62.058165 12.204432
3890 153 2 0.5897 5.682176 62.321743 11.868039
3891 153 2 0.5897 7.023443 61.448867 11.542900
3892 154 1 -1.1794 17.258561 89.022329 5.589815
3893 154 2 0.5897 17.529113 88.950578 6.549843
3894 154 2 0.5897 18.026458 88.757732 5.006442
3895 155 1 -1.1794 18.559439 77.240638 15.882752
3896 155 2 0.5897 19.544886 77.386578 15.969913
3897 155 2 0.5897 18.362441 76.261184 15.925878
3898 156 1 -1.1794 13.845030 53.066305 10.350386
3899 156 2 0.5897 14.074290 52.414052 9.627887
3900 156 2 0.5897 12.941281 53.455963 10.173173
3901 157 1 -1.1794 16.898743 69.536909 1.594073
3902 157 2 0.5897 16.814036 68.545745 1.492000
3903 157 2 0.5897 17.047766 69.952844 0.696972
3904 158 1 -1.1794 18.398439 59.214306 14.046234
3905 158 2 0.5897 17.822322 60.015968 13.886773
3906 158 2 0.5897 18.207465 58.522723 13.349641
3907 159 1 -1.1794 17.709350 81.846819 28.101199
3908 159 2 0.5897 18.068744 81.434445 28.938327
3909 159 2 0.5897 17.992835 81.301212 27.312562
3910 160 1 -1.1794 12.307408 92.034241 32.768538
3911 160 2 0.5897 12.337798 92.481356 33.662497
3912 160 2 0.5897 12.118310 92.715529 32.061368
3913 161 1 -1.1794 20.118499 93.736920 18.661397
3914 161 2 0.5897 19.416553 93.174667 18.224197
3915 161 2 0.5897 20.466153 94.406265 18.004804
3916 162 1 -1.1794 15.975835 73.495344 8.178178
3917 162 2 0.5897 16.726683 73.345619 7.534897
3918 162 2 0.5897 15.112724 73.550098 7.676142
3919 163 1 -1.1794 2.399560 97.354551 1.617593
3920 163 2 0.5897 1.809346 97.186561 0.828019
3921 163 2 0.5897 1.875877 97.817600 2.332675
3922 164 1 -1.1794 4.414165 50.616773 7.367450
3923 164 2 0.5897 4.942860 49.768580 7.399839
3924 164 2 0.5897 4.864713 51.267227 6.755963
3925 165 1 -1.1794 17.517524 61.012270 7.761955
3926 165 2 0.5897 17.894451 61.566887 7.020115
3927 165 2 0.5897 16.888612 61.567144 8.306550
3928 166 1 -1.1794 8.059251 66.128010 14.183367
3929 166 2 0.5897 7.817036 66.851526 14.829786
3930 166 2 0.5897 8.959906 65.760994 14.416003
3931 167 1 -1.1794 16.127147 66.033291 2.645195
3932 167 2 0.5897 16.936826 66.494635 2.282453
3933 167 2 0.5897 16.410580 65.281609 3.240711
3934 168 1 -1.1794 13.931819 93.049193 7.593720
3935 168 2 0.5897 13.966520 93.802380 8.250610
3936 168 2 0.5897 14.056352 92.181383 8.074757
3937 169 1 -1.1794 6.999963 48.662442 5.402038
3938 169 2 0.5897 7.381343 48.550032 6.319596
3939 169 2 0.5897 6.006991 48.549584 5.437675
3940 170 1 -1.1794 6.005196 83.497455 30.487872
3941 170 2 0.5897 5.050765 83.721166 30.685393
3942 170 2 0.5897 6.051143 82.612203 30.025036
3943 171 1 -1.1794 17.400007 84.393646 1.813062
3944 171 2 0.5897 16.609748 84.658818 2.365488
3945 171 2 0.5897 17.493767 83.398088 1.821706
3946 172 1 -1.1794 13.555045 96.288891 1.543536
3947 172 2 0.5897 13.098643 97.155024 1.339796
3948 172 2 0.5897 12.934323 95.698266 2.059158
3949 173 1 -1.1794 0.434997 91.539574 24.983109
3950 173 2 0.5897 0.030926 91.300367 24.100212
3951 173 2 0.5897 0.996537 92.360719 24.881158
3952 174 1 -1.1794 15.990506 61.525213 11.173527
3953 174 2 0.5897 16.405879 62.053840 10.433244
3954 174 2 0.5897 15.407109 60.811152 10.786532
3955 175 1 -1.1794 21.201244 68.402364 6.293304
3956 175 2 0.5897 21.775002 67.618884 6.531972
3957 175 2 0.5897 21.725178 69.039159 5.727631
3958 176 1 -1.1794 18.811987 78.894257 27.317962
3959 176 2 0.5897 18.274671 78.124641 27.662899
3960 176 2 0.5897 19.027996 79.514509 28.072036
3961 177 1 -1.1794 1.952208 90.904988 5.038769
3962 177 2 0.5897 2.448631 91.209241 4.225753
3963 177 2 0.5897 1.000478 91.206319 4.980386
3964 178 1 -1.1794 18.112572 52.807817 17.717436
3965 178 2 0.5897 17.861981 52.079484 17.079677
3966 178 2 0.5897 18.114871 53.685040 17.237358
3967 179 1 -1.1794 10.825537 83.384194 15.961967
3968 179 2 0.5897 10.068337 82.770584 16.185869
3969 179 2 0.5897 11.567643 82.859453 15.544924
3970 180 1 -1.1794 4.931389 86.653257 17.127703
3971 180 2 0.5897 5.796561 86.658026 16.626250
3972 180 2 0.5897 4.958564 87.348570 17.845896
3973 181 1 -1.1794 18.853942 83.921543 18.757357
3974 181 2 0.5897 19.104909 83.047386 18.341586
3975 181 2 0.5897 18.914960 84.646617 18.071395
3976 182 1 -1.1794 10.065800 90.941347 27.836461
3977 182 2 0.5897 10.762154 90.360244 28.257662
3978 182 2 0.5897 9.955074 91.774733 28.377948
3979 183 1 -1.1794 15.455028 74.003495 2.454208
3980 183 2 0.5897 16.294179 73.527458 2.717294
3981 183 2 0.5897 14.699970 73.691323 3.030781
3982 184 1 -1.1794 11.711370 60.863807 19.778591
3983 184 2 0.5897 11.093397 61.506956 19.326410
3984 184 2 0.5897 11.366255 59.932435 19.662652
3985 185 1 -1.1794 6.879202 49.395138 8.735931
3986 185 2 0.5897 6.387706 48.550021 8.525670
3987 185 2 0.5897 7.242059 49.346981 9.666531
3988 186 1 -1.1794 4.181585 72.613210 19.101594
3989 186 2 0.5897 3.285294 73.056330 19.119137
3990 186 2 0.5897 4.081105 71.648188 19.343744
3991 187 1 -1.1794 3.840539 67.882257 19.560924
3992 187 2 0.5897 3.491717 67.885610 20.498107
3993 187 2 0.5897 3.460722 68.660674 19.061117
3994 188 1 -1.1794 15.098507 74.319396 11.128993
3995 188 2 0.5897 14.466933 73.844879 10.515848
3996 188 2 0.5897 14.611032 75.047026 11.611615
3997 189 1 -1.1794 2.402047 97.263107 27.383855
3998 189 2 0.5897 1.994791 98.121551 27.072059
3999 189 2 0.5897 1.796694 96.830260 28.051831
4000 190 1 -1.1794 14.682863 95.891463 18.194460
4001 190 2 0.5897 15.608919 96.128474 18.488136
4002 190 2 0.5897 14.067275 95.914318 18.982196
4003 191 1 -1.1794 0.975642 92.148921 27.071222
4004 191 2 0.5897 0.037851 91.939993 27.348527
4005 191 2 0.5897 1.575725 92.111309 27.870275
4006 192 1 -1.1794 7.092863 60.623363 27.046055
4007 192 2 0.5897 8.043017 60.713020 26.747444
4008 192 2 0.5897 6.700970 59.786427 26.664010
4009 193 1 -1.1794 13.164492 96.768304 4.381133
4010 193 2 0.5897 13.202780 97.372626 3.585313
4011 193 2 0.5897 13.583193 95.889384 4.152682
4012 194 1 -1.1794 7.590600 67.502264 4.137347
4013 194 2 0.5897 8.046221 68.062431 4.829173
4014 194 2 0.5897 6.876393 66.952743 4.570864
4015 195 1 -1.1794 0.390129 66.317636 1.370539
4016 195 2 0.5897 0.418410 67.131384 1.951068
4017 195 2 0.5897 0.358791 65.499504 1.944716
4018 196 1 -1.1794 4.149422 63.849686 12.788918
4019 196 2 0.5897 4.837778 64.572334 12.726101
4020 196 2 0.5897 3.252123 64.257791 12.957157
4021 197 1 -1.1794 16.498122 51.035185 26.032109
4022 197 2 0.5897 17.236409 50.962691 25.361531
4023 197 2 0.5897 15.624873 50.830612 25.589857
4024 198 1 -1.1794 14.570468 56.208307 18.690980
4025 198 2 0.5897 14.653206 57.179404 18.467092
4026 198 2 0.5897 14.432347 55.683231 17.851207
4027 199 1 -1.1794 15.467512 87.930323 19.396307
4028 199 2 0.5897 14.823443 87.857159 20.157768
4029 199 2 0.5897 15.955480 87.064196 19.288098
4030 200 1 -1.1794 18.882541 58.983136 8.928134
4031 200 2 0.5897 18.740455 58.779226 7.959510
4032 200 2 0.5897 19.520426 59.748048 9.017648
4033 201 1 -1.1794 15.219852 85.760478 24.944877
4034 201 2 0.5897 15.315723 86.755684 24.925509
4035 201 2 0.5897 16.074819 85.349352 25.261115
4036 202 1 -1.1794 15.165259 80.337186 21.638096
4037 202 2 0.5897 14.959183 79.589349 22.269185
4038 202 2 0.5897 14.558718 80.280787 20.845047
4039 203 1 -1.1794 20.277613 92.488679 22.751478
4040 203 2 0.5897 19.481786 92.663462 22.171727
4041 203 2 0.5897 21.093396 92.400265 22.179918
4042 204 1 -1.1794 7.923198 85.314500 -0.009265
4043 204 2 0.5897 8.489854 85.798173 0.657790
4044 204 2 0.5897 6.999056 85.203778 0.356388
4045 205 1 -1.1794 2.526629 68.506174 22.376631
4046 205 2 0.5897 1.533440 68.394588 22.410163
4047 205 2 0.5897 2.847280 68.898322 23.238839
4048 206 1 -1.1794 9.181235 82.686400 13.463710
4049 206 2 0.5897 9.735719 82.117272 14.070869
4050 206 2 0.5897 8.593812 83.283046 14.010472
4051 207 1 -1.1794 20.030633 94.790351 22.468856
4052 207 2 0.5897 20.622471 94.498894 21.717336
4053 207 2 0.5897 19.084626 94.839230 22.148417
4054 208 1 -1.1794 5.631865 81.704594 2.966247
4055 208 2 0.5897 6.388377 81.338417 2.424394
4056 208 2 0.5897 4.769547 81.543875 2.486062
4057 209 1 -1.1794 11.201651 91.410132 14.050272
4058 209 2 0.5897 10.297407 91.829851 13.971665
4059 209 2 0.5897 11.801953 91.776107 13.339146
4060 210 1 -1.1794 21.674268 69.370257 25.587787
4061 210 2 0.5897 20.716720 69.097083 25.495710
4062 210 2 0.5897 21.775000 70.328055 25.318576
4063 211 1 -1.1794 18.548235 59.580861 16.232469
4064 211 2 0.5897 18.788494 60.497221 15.912218
4065 211 2 0.5897 18.557160 59.564205 17.232290
4066 212 1 -1.1794 0.671044 67.694868 10.382068
4067 212 2 0.5897 0.130602 67.614661 11.219618
4068 212 2 0.5897 1.351491 66.962646 10.353055
4069 213 1 -1.1794 11.503197 80.826384 14.704847
4070 213 2 0.5897 12.323200 81.127881 14.218333
4071 213 2 0.5897 11.057916 80.096042 14.186846
4072 214 1 -1.1794 20.867310 83.185021 31.103543
4073 214 2 0.5897 21.252182 83.679614 30.324279
4074 214 2 0.5897 19.869313 83.240854 31.073805
4075 215 1 -1.1794 20.920549 65.539707 22.443731
4076 215 2 0.5897 20.345029 65.173337 23.174861
4077 215 2 0.5897 21.775000 65.021936 22.400982
4078 216 1 -1.1794 21.774984 87.697697 13.831577
4079 216 2 0.5897 21.586818 87.486688 12.872375
4080 216 2 0.5897 21.100733 87.240868 14.411830
4081 217 1 -1.1794 18.912497 48.702597 18.694568
4082 217 2 0.5897 19.767641 48.792438 18.184022
4083 217 2 0.5897 18.157803 48.549991 18.056487
4084 218 1 -1.1794 17.738891 87.360646 17.843192
4085 218 2 0.5897 17.737529 88.098585 18.518057
4086 218 2 0.5897 17.062313 87.556812 17.133430
4087 219 1 -1.1794 1.739488 83.364984 -0.001503
4088 219 2 0.5897 1.024262 82.844467 0.464881
4089 219 2 0.5897 1.840974 84.258255 0.436409
4090 220 1 -1.1794 5.638399 61.621205 8.766469
4091 220 2 0.5897 5.791153 61.751536 9.746101
4092 220 2 0.5897 6.271592 62.198319 8.250712
4093 221 1 -1.1794 14.539010 92.843566 31.026122
4094 221 2 0.5897 14.512295 92.354406 31.897907
4095 221 2 0.5897 13.691520 92.674501 30.522955
4096 222 1 -1.1794 11.636444 53.651208 32.066406
4097 222 2 0.5897 11.533754 54.004777 31.136651
4098 222 2 0.5897 11.085734 52.823066 32.170799
4099 223 1 -1.1794 1.790023 94.800862 33.637321
4100 223 2 0.5897 1.922762 95.641551 33.112324
4101 223 2 0.5897 1.786426 94.017110 33.016258
4102 224 1 -1.1794 7.178085 74.966227 17.797325
4103 224 2 0.5897 6.606888 74.256904 18.210357
4104 224 2 0.5897 7.884422 75.245974 18.447579
4105 225 1 -1.1794 12.645976 78.214775 6.696677
4106 225 2 0.5897 11.978759 78.673371 7.283628
4107 225 2 0.5897 13.309210 77.726722 7.264062
4108 226 1 -1.1794 0.005197 86.666167 31.291405
4109 226 2 0.5897 0.427278 87.248065 30.596248
4110 226 2 0.5897 0.000230 85.717867 30.974071
4111 227 1 -1.1794 15.732228 60.000419 32.941347
4112 227 2 0.5897 16.158860 59.096405 32.968616
4113 227 2 0.5897 15.042645 60.065444 33.662628
4114 228 1 -1.1794 5.191963 96.693518 30.762552
4115 228 2 0.5897 5.757137 97.437366 31.119300
4116 228 2 0.5897 5.322468 96.620472 29.773799
4117 229 1 -1.1794 6.914292 51.488097 4.278579
4118 229 2 0.5897 6.514422 50.711567 4.765513
4119 229 2 0.5897 6.675930 51.432097 3.309018
4120 230 1 -1.1794 0.860570 56.998214 6.540831
4121 230 2 0.5897 1.573688 57.531833 6.086174
4122 230 2 0.5897 0.205055 56.670084 5.860661
4123 231 1 -1.1794 20.719849 70.024636 28.482056
4124 231 2 0.5897 20.802553 70.117748 27.489841
4125 231 2 0.5897 21.568117 69.646932 28.853245
4126 232 1 -1.1794 12.248964 87.319023 21.915730
4127 232 2 0.5897 13.151584 87.323190 21.485313
4128 232 2 0.5897 12.218291 86.608686 22.618923
4129 233 1 -1.1794 7.193572 49.309967 2.551060
4130 233 2 0.5897 8.137208 49.489611 2.829049
4131 233 2 0.5897 6.826927 48.550000 3.087738
4132 234 1 -1.1794 1.542615 54.743959 5.711443
4133 234 2 0.5897 2.255277 54.485931 6.363772
4134 234 2 0.5897 1.476544 54.047291 4.997099
4135 235 1 -1.1794 19.239351 75.437246 8.962859
4136 235 2 0.5897 18.687720 75.015353 9.682379
4137 235 2 0.5897 19.828261 74.745241 8.545351
4138 236 1 -1.1794 1.590683 79.870941 17.207014
4139 236 2 0.5897 1.208880 79.806660 16.285009
4140 236 2 0.5897 1.544262 78.975695 17.650161
4141 237 1 -1.1794 11.601109 61.415526 26.371799
4142 237 2 0.5897 12.316780 61.687251 25.728385
4143 237 2 0.5897 10.732269 61.324768 25.885096
4144 238 1 -1.1794 18.815033 64.495205 25.518099
4145 238 2 0.5897 17.990358 64.749752 25.013009
4146 238 2 0.5897 19.574134 65.080768 25.233702
4147 239 1 -1.1794 12.154556 83.905393 29.745560
4148 239 2 0.5897 12.927769 84.533771 29.660227
4149 239 2 0.5897 11.374378 84.265497 29.234044
4150 240 1 -1.1794 8.174250 84.608024 24.089362
4151 240 2 0.5897 8.481610 83.917440 23.434669
4152 240 2 0.5897 7.958659 85.455160 23.603686
4153 241 1 -1.1794 6.384488 67.787439 12.515010
4154 241 2 0.5897 5.968988 67.143015 13.156942
4155 241 2 0.5897 7.380320 67.740498 12.593219
4156 242 1 -1.1794 1.305517 98.550785 7.188638
4157 242 2 0.5897 1.663865 98.327628 8.095163
4158 242 2 0.5897 0.441054 98.069300 7.044151
4159 243 1 -1.1794 9.409356 87.862446 23.941917
4160 243 2 0.5897 10.144866 87.316567 23.540618
4161 243 2 0.5897 8.567919 87.723107 23.419836
4162 244 1 -1.1794 16.626825 96.414880 23.586648
4163 244 2 0.5897 17.358956 96.078115 22.994555
4164 244 2 0.5897 16.839283 97.346151 23.882615
4165 245 1 -1.1794 8.134460 93.238619 32.091739
4166 245 2 0.5897 8.867655 92.875133 32.666459
4167 245 2 0.5897 7.597525 93.900203 32.615197
4168 246 1 -1.1794 7.585773 91.706414 18.939512
4169 246 2 0.5897 7.010615 92.519411 19.030237
4170 246 2 0.5897 7.657455 91.248275 19.825497
4171 247 1 -1.1794 3.885128 70.872660 29.818195
4172 247 2 0.5897 3.570952 69.932230 29.948139
4173 247 2 0.5897 3.862071 71.100279 28.844717
4174 248 1 -1.1794 18.240141 66.835890 22.510439
4175 248 2 0.5897 17.340608 67.017264 22.907861
4176 248 2 0.5897 18.160195 66.118791 21.818068
4177 249 1 -1.1794 4.750741 82.430157 19.983180
4178 249 2 0.5897 4.067158 82.210391 20.679180
4179 249 2 0.5897 4.290571 82.714034 19.141956
4180 250 1 -1.1794 15.138896 78.740134 10.223588
4181 250 2 0.5897 14.851595 79.574532 9.753228
4182 250 2 0.5897 14.516978 78.555518 10.984597
4183 251 1 -1.1794 16.049570 86.872168 33.575385
4184 251 2 0.5897 15.465264 87.673591 33.447682
4185 251 2 0.5897 17.001815 87.164555 33.663369
4186 252 1 -1.1794 0.773629 54.187230 14.693346
4187 252 2 0.5897 0.268291 54.875790 14.173232
4188 252 2 0.5897 1.229634 53.560513 14.061455
4189 253 1 -1.1794 14.149250 69.911970 32.921144
4190 253 2 0.5897 14.020670 69.388631 32.078776
4191 253 2 0.5897 13.411984 70.581218 33.013583
4192 254 1 -1.1794 5.354054 52.919290 13.158565
4193 254 2 0.5897 4.940095 53.821563 13.279149
4194 254 2 0.5897 6.350243 53.006447 13.162122
4195 255 1 -1.1794 9.279447 71.302984 17.035089
4196 255 2 0.5897 8.427733 70.940856 17.413831
4197 255 2 0.5897 9.086261 71.782513 16.179093
4198 256 1 -1.1794 20.890173 49.490756 23.872648
4199 256 2 0.5897 20.212642 49.003670 23.321560
4200 256 2 0.5897 21.775009 49.470903 23.407168
4201 257 1 -1.1794 21.528267 53.150679 32.476125
4202 257 2 0.5897 21.576620 54.148400 32.429052
4203 257 2 0.5897 20.836850 52.881749 33.146662
4204 258 1 -1.1794 16.579990 50.529464 2.907692
4205 258 2 0.5897 16.709822 49.541225 2.988474
4206 258 2 0.5897 15.602563 50.734008 2.854784
4207 259 1 -1.1794 12.421277 92.255049 2.171188
4208 259 2 0.5897 13.073145 92.251659 2.929513
4209 259 2 0.5897 12.789354 91.717064 1.412841
4210 260 1 -1.1794 20.873143 49.227380 26.344029
4211 260 2 0.5897 21.401435 48.550000 26.855951
4212 260 2 0.5897 20.906909 50.105898 26.820544
4213 261 1 -1.1794 0.171465 86.261265 22.649257
4214 261 2 0.5897 0.397386 87.121267 22.191703
4215 261 2 0.5897 0.000742 85.553709 21.963532
4216 262 1 -1.1794 2.801437 52.458202 7.790986
4217 262 2 0.5897 2.885430 52.307536 6.805976
4218 262 2 0.5897 1.989467 53.011995 7.975426
4219 263 1 -1.1794 12.694077 63.177453 23.601089
4220 263 2 0.5897 13.471652 62.806422 24.108743
4221 263 2 0.5897 11.892725 63.213377 24.198201
4222 264 1 -1.1794 11.978933 67.056363 5.586748
4223 264 2 0.5897 12.139951 67.897180 6.103565
4224 264 2 0.5897 12.144038 67.225566 4.615094
4225 265 1 -1.1794 13.016277 82.541061 11.812987
4226 265 2 0.5897 13.386049 82.384772 12.728871
4227 265 2 0.5897 12.822596 83.514812 11.693421
4228 266 1 -1.1794 1.672505 60.449594 31.052469
4229 266 2 0.5897 1.966548 59.968270 30.226718
4230 266 2 0.5897 0.987511 61.137118 30.811444
4231 267 1 -1.1794 21.786341 64.551471 30.776135
4232 267 2 0.5897 21.759447 64.887819 29.834782
4233 267 2 0.5897 21.644826 63.561545 30.780553
4234 268 1 -1.1794 19.315939 65.560559 6.573306
4235 268 2 0.5897 18.425924 65.886751 6.254758
4236 268 2 0.5897 19.375078 64.571088 6.441212
4237 269 1 -1.1794 5.493288 86.565808 6.416606
4238 269 2 0.5897 4.911478 86.219412 5.680733
4239 269 2 0.5897 4.974466 86.583773 7.271299
4240 270 1 -1.1794 1.350948 61.380368 6.634154
4241 270 2 0.5897 1.996558 60.670233 6.915039
4242 270 2 0.5897 1.278253 61.389167 5.636838
4243 271 1 -1.1794 9.673210 81.284713 26.636380
4244 271 2 0.5897 9.957416 81.710837 27.495243
4245 271 2 0.5897 9.356173 80.353331 26.815308
4246 272 1 -1.1794 11.419268 65.420045 17.393558
4247 272 2 0.5897 10.737707 64.689319 17.354640
4248 272 2 0.5897 12.040219 65.338534 16.613959
4249 273 1 -1.1794 18.276971 80.143031 31.713193
4250 273 2 0.5897 18.288598 79.769395 30.785690
4251 273 2 0.5897 17.495988 80.759311 31.814506
4252 274 1 -1.1794 17.743764 59.286484 11.338612
4253 274 2 0.5897 16.925201 59.599832 11.820033
4254 274 2 0.5897 18.041221 59.990541 10.693769
4255 275 1 -1.1794 13.561673 55.717118 1.751804
4256 275 2 0.5897 13.806963 56.221433 0.923856
4257 275 2 0.5897 14.075004 54.859535 1.784097
4258 276 1 -1.1794 16.410550 60.317924 18.535179
4259 276 2 0.5897 16.425150 61.302294 18.710687
4260 276 2 0.5897 16.833226 59.836183 19.302819
4261 277 1 -1.1794 5.949921 52.747722 25.236040
4262 277 2 0.5897 6.049917 53.729180 25.399564
4263 277 2 0.5897 6.843402 52.304754 25.310010
4264 278 1 -1.1794 12.957534 83.760676 32.644654
4265 278 2 0.5897 12.798827 82.835078 32.301026
4266 278 2 0.5897 12.929934 83.754413 33.644254
4267 279 1 -1.1794 19.908045 82.968412 23.249890
4268 279 2 0.5897 19.132177 83.208128 22.666310
4269 279 2 0.5897 20.729533 82.869602 22.688289
4270 280 1 -1.1794 16.634566 95.624683 26.479231
4271 280 2 0.5897 17.207321 94.889649 26.116357
4272 280 2 0.5897 16.196821 96.110533 25.722707
4273 281 1 -1.1794 21.162008 58.869909 32.824105
4274 281 2 0.5897 21.775002 59.049371 33.593542
4275 281 2 0.5897 20.948331 59.729842 32.360577
4276 282 1 -1.1794 10.610487 75.064572 16.687044
4277 282 2 0.5897 11.598491 74.910158 16.685194
4278 282 2 0.5897 10.136872 74.194387 16.551153
4279 283 1 -1.1794 9.070436 85.474856 28.587217
4280 283 2 0.5897 9.165970 84.587667 28.135809
4281 283 2 0.5897 8.346454 86.000113 28.140053
4282 284 1 -1.1794 17.904423 78.516757 7.099253
4283 284 2 0.5897 17.483146 78.850802 6.256080
4284 284 2 0.5897 17.878942 77.517154 7.111274
4285 285 1 -1.1794 15.360183 75.776459 28.384511
4286 285 2 0.5897 14.682433 75.113442 28.702415
4287 285 2 0.5897 14.950428 76.363112 27.685985
4288 286 1 -1.1794 7.954665 81.158632 11.386716
4289 286 2 0.5897 7.491489 82.041603 11.463076
4290 286 2 0.5897 8.814972 81.188418 11.895622
4291 287 1 -1.1794 16.827617 98.353111 21.784422
4292 287 2 0.5897 16.080488 97.691336 21.846484
4293 287 2 0.5897 17.019464 98.550017 20.822952
4294 288 1 -1.1794 1.898087 62.129475 12.665304
4295 288 2 0.5897 2.535157 61.594593 12.110287
4296 288 2 0.5897 1.292689 61.511319 13.166679
4297 289 1 -1.1794 5.198222 90.197888 2.530372
4298 289 2 0.5897 6.161615 89.969292 2.670430
4299 289 2 0.5897 4.744180 90.285704 3.417014
4300 290 1 -1.1794 14.156438 90.104565 24.557255
4301 290 2 0.5897 13.710175 89.344449 24.084949
4302 290 2 0.5897 13.558720 90.906037 24.537864
4303 291 1 -1.1794 2.839106 94.164906 29.751205
4304 291 2 0.5897 3.496555 94.857462 29.454340
4305 291 2 0.5897 2.252960 93.910351 28.982027
4306 292 1 -1.1794 20.983480 56.336039 9.335581
4307 292 2 0.5897 21.256029 55.704324 10.061289
4308 292 2 0.5897 21.774999 56.875724 9.048808
4309 293 1 -1.1794 9.444264 55.836023 18.959625
4310 293 2 0.5897 8.832155 55.290445 18.387203
4311 293 2 0.5897 10.008577 55.227958 19.518023
4312 294 1 -1.1794 7.671316 50.391393 23.776159
4313 294 2 0.5897 7.221320 49.546719 24.066037
4314 294 2 0.5897 8.272206 50.199576 23.000183
4315 295 1 -1.1794 10.833427 62.734708 22.330365
4316 295 2 0.5897 11.140827 61.790827 22.209561
4317 295 2 0.5897 10.440677 63.069552 21.473844
4318 296 1 -1.1794 14.433181 83.712533 21.080103
4319 296 2 0.5897 14.631630 82.732428 21.083706
4320 296 2 0.5897 13.851551 83.931965 20.296805
4321 297 1 -1.1794 3.126362 48.657472 9.089313
4322 297 2 0.5897 4.119129 48.549979 9.035848
4323 297 2 0.5897 2.729884 48.550009 8.177581
4324 298 1 -1.1794 3.173913 91.054053 18.080976
4325 298 2 0.5897 4.036253 91.180834 17.590775
4326 298 2 0.5897 2.480169 91.664220 17.698333
4327 299 1 -1.1794 6.834118 96.452094 8.260277
4328 299 2 0.5897 5.849732 96.385520 8.423225
4329 299 2 0.5897 7.311754 96.536648 9.134757
4330 300 1 -1.1794 1.365096 62.394071 18.777555
4331 300 2 0.5897 2.084420 62.871954 19.281738
4332 300 2 0.5897 0.886126 61.768176 19.393056
4333 301 1 -1.1794 10.427124 98.518330 -0.000786
4334 301 2 0.5897 9.668187 98.546680 0.649760
4335 301 2 0.5897 11.293930 98.555696 0.496456
4336 302 1 -1.1794 10.943044 92.254914 5.386245
4337 302 2 0.5897 10.178641 92.810925 5.059839
4338 302 2 0.5897 11.520190 91.994517 4.612232
4339 303 1 -1.1794 1.975706 63.926629 23.369963
4340 303 2 0.5897 1.165913 63.503967 23.776893
4341 303 2 0.5897 2.282630 64.683157 23.947425
4342 304 1 -1.1794 18.370894 85.433977 20.530055
4343 304 2 0.5897 17.618555 85.357920 19.875684
4344 304 2 0.5897 18.273482 84.729706 21.233272
4345 305 1 -1.1794 13.212242 77.223660 1.931637
4346 305 2 0.5897 13.222227 76.725513 1.064602
4347 305 2 0.5897 13.520595 78.162777 1.780056
4348 306 1 -1.1794 20.912619 66.676213 30.796109
4349 306 2 0.5897 21.462713 67.264274 30.203167
4350 306 2 0.5897 20.021993 67.102411 30.954666
4351 307 1 -1.1794 8.506488 81.285883 15.736619
4352 307 2 0.5897 7.977725 81.999304 16.196446
4353 307 2 0.5897 9.055945 80.791693 16.410319
4354 308 1 -1.1794 3.806442 60.163966 3.549730
4355 308 2 0.5897 2.978541 60.445431 4.034866
4356 308 2 0.5897 3.650106 59.280244 3.108602
4357 309 1 -1.1794 10.650739 74.387069 4.553587
4358 309 2 0.5897 11.143776 73.708065 5.097525
4359 309 2 0.5897 11.143411 74.551071 3.698966
4360 310 1 -1.1794 10.971042 96.572843 1.392765
4361 310 2 0.5897 10.324675 96.005077 1.902522
4362 310 2 0.5897 10.866837 96.399292 0.413469
4363 311 1 -1.1794 1.751882 89.750910 20.648832
4364 311 2 0.5897 1.947936 88.770732 20.677366
4365 311 2 0.5897 2.162118 90.196188 21.444718
4366 312 1 -1.1794 20.809873 50.823873 15.020647
4367 312 2 0.5897 21.067224 49.891216 14.767819
4368 312 2 0.5897 21.608910 51.303395 15.383410
4369 313 1 -1.1794 17.731452 79.276783 9.156515
4370 313 2 0.5897 17.924251 78.361372 9.509859
4371 313 2 0.5897 17.046817 79.720044 9.735129
4372 314 1 -1.1794 13.239781 81.220846 4.181266
4373 314 2 0.5897 13.740999 81.401320 3.334974
4374 314 2 0.5897 13.152999 80.233385 4.313142
4375 315 1 -1.1794 0.627639 64.200334 14.316798
4376 315 2 0.5897 0.601334 63.894293 13.365143
4377 315 2 0.5897 1.337120 64.896947 14.423411
4378 316 1 -1.1794 2.885352 90.645348 28.858557
4379 316 2 0.5897 2.265534 89.862734 28.916354
4380 316 2 0.5897 3.123859 90.950441 29.780529
4381 317 1 -1.1794 0.852272 57.262402 31.057513
4382 317 2 0.5897 -0.000169 57.651750 30.708582
4383 317 2 0.5897 1.599584 57.910296 30.910003
4384 318 1 -1.1794 6.597984 75.810172 5.035305
4385 318 2 0.5897 6.954699 76.085086 5.928153
4386 318 2 0.5897 6.744883 74.829612 4.905221
4387 319 1 -1.1794 2.948519 77.509834 33.565420
4388 319 2 0.5897 2.026208 77.135778 33.662496
4389 319 2 0.5897 3.618685 76.774338 33.665043
4390 320 1 -1.1794 7.806571 64.963546 11.750459
4391 320 2 0.5897 8.423473 64.480488 12.371817
4392 320 2 0.5897 7.149408 65.497990 12.281972
4393 321 1 -1.1794 16.120120 94.385245 11.969347
4394 321 2 0.5897 15.789438 95.326083 11.895364
4395 321 2 0.5897 16.717892 94.180134 11.194364
4396 322 1 -1.1794 13.690923 76.623995 19.319014
4397 322 2 0.5897 13.957838 76.265002 20.213374
4398 322 2 0.5897 14.498733 76.976928 18.846911
4399 323 1 -1.1794 14.070334 65.455106 24.031851
4400 323 2 0.5897 13.073408 65.413323 24.098133
4401 323 2 0.5897 14.452425 65.720191 24.917140
4402 324 1 -1.1794 14.595390 56.022211 12.345994
4403 324 2 0.5897 14.072089 55.170717 12.312621
4404 324 2 0.5897 15.573036 55.813962 12.317001
4405 325 1 -1.1794 13.196577 71.484432 18.401869
4406 325 2 0.5897 13.846241 72.210909 18.177889
4407 325 2 0.5897 12.290666 71.729212 18.056313
4408 326 1 -1.1794 6.915633 77.051866 12.584287
4409 326 2 0.5897 5.935498 77.031925 12.386960
4410 326 2 0.5897 7.125468 76.384270 13.298630
4411 327 1 -1.1794 10.601083 54.406759 17.130977
4412 327 2 0.5897 9.973969 53.681113 17.414114
4413 327 2 0.5897 11.535490 54.158071 17.386003
4414 328 1 -1.1794 17.698097 84.153243 29.256515
4415 328 2 0.5897 18.009805 85.043366 29.588958
4416 328 2 0.5897 18.044219 83.433028 29.857755
4417 329 1 -1.1794 10.529649 71.907112 9.463506
4418 329 2 0.5897 9.876916 72.231624 10.148072
4419 329 2 0.5897 10.073218 71.832217 8.576905
4420 330 1 -1.1794 6.068949 63.600374 3.487618
4421 330 2 0.5897 5.875232 63.778203 2.522812
4422 330 2 0.5897 6.404332 62.664227 3.593203
4423 331 1 -1.1794 7.928324 87.264441 16.181867
4424 331 2 0.5897 7.895792 87.787004 17.033847
4425 331 2 0.5897 7.952353 86.286881 16.391150
4426 332 1 -1.1794 20.644235 76.061028 19.102556
4427 332 2 0.5897 20.214838 75.193949 19.355129
4428 332 2 0.5897 21.592729 76.067979 19.419272
4429 333 1 -1.1794 18.164587 58.943811 24.310936
4430 333 2 0.5897 19.111270 58.828756 24.611856
4431 333 2 0.5897 17.752116 59.715039 24.795782
4432 334 1 -1.1794 9.953344 54.807948 28.386001
4433 334 2 0.5897 9.248011 54.429039 27.786891
4434 334 2 0.5897 10.313046 55.650827 27.985789
4435 335 1 -1.1794 7.723810 82.253918 28.004096
4436 335 2 0.5897 8.135140 82.696675 28.800823
4437 335 2 0.5897 8.027056 82.717511 27.171556
4438 336 1 -1.1794 18.523303 49.870861 15.752936
4439 336 2 0.5897 18.975025 50.163819 16.595624
4440 336 2 0.5897 17.855511 49.156935 15.963564
4441 337 1 -1.1794 16.687591 73.742540 15.913804
4442 337 2 0.5897 15.929070 73.643104 16.557821
4443 337 2 0.5897 17.552785 73.742331 16.415242
4444 338 1 -1.1794 21.707941 88.359876 19.968190
4445 338 2 0.5897 21.775080 89.047457 19.245193
4446 338 2 0.5897 21.774802 87.446444 19.566727
4447 339 1 -1.1794 4.794033 95.395264 5.207755
4448 339 2 0.5897 4.852528 96.132546 5.880802
4449 339 2 0.5897 4.180860 94.681962 5.547195
4450 340 1 -1.1794 4.460057 58.344546 4.927531
4451 340 2 0.5897 5.089016 58.174818 5.686217
4452 340 2 0.5897 3.551567 58.000191 5.164312
4453 341 1 -1.1794 21.140612 75.770888 7.108177
4454 341 2 0.5897 21.775727 76.324245 6.569267
4455 341 2 0.5897 20.567494 75.228277 6.494085
4456 342 1 -1.1794 16.409470 63.220627 12.672969
4457 342 2 0.5897 16.640446 62.365886 13.137799
4458 342 2 0.5897 15.904432 63.814637 13.299139
4459 343 1 -1.1794 3.838568 84.724752 6.890158
4460 343 2 0.5897 3.871703 84.314783 5.978661
4461 343 2 0.5897 4.633353 84.426665 7.418799
4462 344 1 -1.1794 19.438647 97.818798 6.006500
4463 344 2 0.5897 19.104014 98.550002 5.412057
4464 344 2 0.5897 19.712615 97.035120 5.449014
4465 345 1 -1.1794 15.249273 76.440868 21.985891
4466 345 2 0.5897 15.014406 77.391948 22.186601
4467 345 2 0.5897 14.529998 75.839412 22.333590
4468 346 1 -1.1794 7.486978 63.534202 9.582534
4469 346 2 0.5897 6.822515 63.606700 10.326331
4470 346 2 0.5897 8.327452 64.011677 9.838699
4471 347 1 -1.1794 14.663454 70.630905 3.115573
4472 347 2 0.5897 14.400174 71.395828 2.527716
4473 347 2 0.5897 14.930878 69.851634 2.548809
4474 348 1 -1.1794 13.117202 84.023224 3.815370
4475 348 2 0.5897 12.827877 83.407761 3.082228
4476 348 2 0.5897 12.635446 83.786284 4.659035
4477 349 1 -1.1794 15.993715 65.610282 18.857329
4478 349 2 0.5897 16.955154 65.624572 19.131978
4479 349 2 0.5897 15.615478 64.698143 19.015252
4480 350 1 -1.1794 20.281634 56.024066 3.378489
4481 350 2 0.5897 21.158945 56.500877 3.433056
4482 350 2 0.5897 20.032067 55.894029 2.418903
4483 351 1 -1.1794 11.968573 80.830519 2.163330
4484 351 2 0.5897 12.529991 80.768991 1.338089
4485 351 2 0.5897 11.245948 81.507802 2.025124
4486 352 1 -1.1794 8.044304 93.984512 12.782104
4487 352 2 0.5897 7.073344 93.748284 12.819969
4488 352 2 0.5897 8.589607 93.202562 13.084096
4489 353 1 -1.1794 18.806783 71.115271 4.107857
4490 353 2 0.5897 19.705915 70.907425 3.722679
4491 353 2 0.5897 18.114638 70.545286 3.665078
4492 354 1 -1.1794 12.018067 96.703245 19.118395
4493 354 2 0.5897 12.336569 97.084665 18.250596
4494 354 2 0.5897 11.038927 96.509283 19.057869
4495 355 1 -1.1794 4.310598 72.074183 7.710423
4496 355 2 0.5897 4.892581 72.423030 6.975847
4497 355 2 0.5897 4.158067 72.795595 8.385922
4498 356 1 -1.1794 18.969650 74.002106 29.561593
4499 356 2 0.5897 18.391574 74.782655 29.799441
4500 356 2 0.5897 19.006755 73.367369 30.333431
4501 357 1 -1.1794 1.850478 75.762087 17.962960
4502 357 2 0.5897 2.508238 75.267569 17.394802
4503 357 2 0.5897 1.873933 76.734405 17.730477
4504 358 1 -1.1794 3.769069 93.864475 20.071022
4505 358 2 0.5897 4.661515 93.765375 20.511159
4506 358 2 0.5897 3.805781 93.473646 19.151292
4507 359 1 -1.1794 6.625228 63.903753 18.804781
4508 359 2 0.5897 7.304092 63.687316 18.103141
4509 359 2 0.5897 5.855038 63.270335 18.730035
4510 360 1 -1.1794 7.245312 80.448604 24.540430
4511 360 2 0.5897 7.715529 80.135968 25.365751
4512 360 2 0.5897 6.324952 80.058483 24.513155
4513 361 1 -1.1794 16.160660 79.696174 26.221442
4514 361 2 0.5897 16.861748 78.983167 26.211561
4515 361 2 0.5897 15.709130 79.707303 27.113629
4516 362 1 -1.1794 7.150966 67.267864 8.320805
4517 362 2 0.5897 7.793989 67.155124 9.078308
4518 362 2 0.5897 7.177268 66.455946 7.737625
4519 363 1 -1.1794 9.566406 81.422810 33.662774
4520 363 2 0.5897 9.003685 80.645649 33.381054
4521 363 2 0.5897 10.529864 81.154961 33.660353
4522 364 1 -1.1794 15.579913 91.249376 28.314147
4523 364 2 0.5897 15.075899 91.914756 28.864820
4524 364 2 0.5897 15.053542 91.029453 27.492827
4525 365 1 -1.1794 10.392342 71.057052 4.690664
4526 365 2 0.5897 10.143416 71.024532 5.658640
4527 365 2 0.5897 10.111038 71.935093 4.303481
4528 366 1 -1.1794 2.688660 54.960797 15.656508
4529 366 2 0.5897 2.493882 55.935946 15.762076
4530 366 2 0.5897 3.136192 54.803687 14.776149
4531 367 1 -1.1794 6.128239 75.535963 32.206498
4532 367 2 0.5897 5.615441 74.791850 32.634673
4533 367 2 0.5897 7.091556 75.277821 32.133133
4534 368 1 -1.1794 15.703599 97.810869 17.073815
4535 368 2 0.5897 16.640805 97.826128 17.422257
4536 368 2 0.5897 15.582250 98.549985 16.411258
4537 369 1 -1.1794 12.879429 87.923309 14.851381
4538 369 2 0.5897 13.159826 87.063472 15.278062
4539 369 2 0.5897 12.000516 87.796202 14.391647
4540 370 1 -1.1794 5.028309 69.234908 3.298543
4541 370 2 0.5897 4.492504 68.785879 2.583500
4542 370 2 0.5897 5.440237 70.069197 2.932104
4543 371 1 -1.1794 4.043239 73.104225 1.892242
4544 371 2 0.5897 4.139153 73.748431 1.133428
4545 371 2 0.5897 4.337527 72.195252 1.597009
4546 372 1 -1.1794 14.374476 63.945885 20.732638
4547 372 2 0.5897 14.882609 63.152119 20.398367
4548 372 2 0.5897 14.378385 63.947183 21.732630
4549 373 1 -1.1794 5.875416 93.158933 24.824122
4550 373 2 0.5897 6.468353 93.957024 24.716996
4551 373 2 0.5897 6.436971 92.338156 24.928907
4552 374 1 -1.1794 7.195198 55.638061 32.202547
4553 374 2 0.5897 6.835251 56.108410 33.008283
4554 374 2 0.5897 7.900998 54.987847 32.483736
4555 375 1 -1.1794 1.259166 89.465135 10.753626
4556 375 2 0.5897 0.439718 88.958309 11.021267
4557 375 2 0.5897 1.235241 89.641857 9.769656
4558 376 1 -1.1794 0.769443 71.849789 13.273358
4559 376 2 0.5897 1.001714 72.622769 13.863741
4560 376 2 0.5897 0.724344 72.157930 12.323087
4561 377 1 -1.1794 14.531901 98.159764 18.966362
4562 377 2 0.5897 15.475390 98.202309 19.295023
4563 377 2 0.5897 13.905867 98.188708 19.745621
4564 378 1 -1.1794 20.443832 87.695639 33.613851
4565 378 2 0.5897 20.040177 86.782027 33.662604
4566 378 2 0.5897 20.378351 88.039411 32.677084
4567 379 1 -1.1794 14.498115 90.113931 9.657961
4568 379 2 0.5897 14.309845 89.437975 8.945474
4569 379 2 0.5897 15.330849 90.617559 9.427928
4570 380 1 -1.1794 6.894877 86.317229 18.649877
4571 380 2 0.5897 6.494212 86.200951 19.558693
4572 380 2 0.5897 6.916364 85.434914 18.179708
4573 381 1 -1.1794 18.008595 81.932381 14.223976
4574 381 2 0.5897 18.239522 82.055507 13.258827
4575 381 2 0.5897 18.583414 81.213667 14.615172
4576 382 1 -1.1794 15.634063 82.158035 9.445146
4577 382 2 0.5897 16.480025 81.749637 9.102276
4578 382 2 0.5897 14.934292 82.123719 8.731604
4579 383 1 -1.1794 12.220680 81.488471 20.033546
4580 383 2 0.5897 12.896194 81.444592 19.297505
4581 383 2 0.5897 12.253096 80.642978 20.566547
4582 384 1 -1.1794 11.085731 65.411426 28.847440
4583 384 2 0.5897 11.685097 65.226170 28.068697
4584 384 2 0.5897 10.173419 65.651993 28.516059
4585 385 1 -1.1794 0.592872 68.413026 7.440603
4586 385 2 0.5897 -0.000016 69.149026 7.767385
4587 385 2 0.5897 1.009903 67.949083 8.222167
4588 386 1 -1.1794 15.472295 90.557315 14.678721
4589 386 2 0.5897 15.008457 90.613639 15.562848
4590 386 2 0.5897 16.452207 90.710826 14.806033
4591 387 1 -1.1794 16.603132 79.098186 20.525151
4592 387 2 0.5897 17.292424 79.781137 20.766925
4593 387 2 0.5897 16.763023 78.262665 21.050832
4594 388 1 -1.1794 0.415072 81.005809 26.449441
4595 388 2 0.5897 -0.000287 81.054698 27.357784
4596 388 2 0.5897 0.000444 81.695483 25.855779
4597 389 1 -1.1794 6.707764 58.332069 24.671106
4598 389 2 0.5897 5.986212 58.108872 24.015709
4599 389 2 0.5897 6.835446 57.565317 25.300223
4600 390 1 -1.1794 5.620027 70.038127 10.493115
4601 390 2 0.5897 5.260284 69.856956 11.408409
4602 390 2 0.5897 4.895165 70.419783 9.919604
4603 391 1 -1.1794 12.273280 83.526970 26.903393
4604 391 2 0.5897 12.721565 84.414828 26.799714
4605 391 2 0.5897 11.306518 83.664826 27.118725
4606 392 1 -1.1794 14.338566 56.092661 10.162607
4607 392 2 0.5897 15.229446 56.535642 10.062102
4608 392 2 0.5897 14.395229 55.151003 9.830839
4609 393 1 -1.1794 17.515785 87.949806 21.178726
4610 393 2 0.5897 17.943059 87.266103 21.770323
4611 393 2 0.5897 16.595924 88.152850 21.514328
4612 394 1 -1.1794 8.465637 52.271947 32.524429
4613 394 2 0.5897 8.959636 53.089465 32.820450
4614 394 2 0.5897 9.109679 51.619945 32.124301
4615 395 1 -1.1794 19.699062 79.361871 33.427580
4616 395 2 0.5897 20.516116 79.463870 32.860112
4617 395 2 0.5897 19.574623 78.397856 33.662504
4618 396 1 -1.1794 12.573187 52.750505 15.926666
4619 396 2 0.5897 12.998892 53.158243 15.118876
4620 396 2 0.5897 11.588820 52.660652 15.775175
4621 397 1 -1.1794 11.535313 61.996937 15.783060
4622 397 2 0.5897 11.631071 61.225173 16.411717
4623 397 2 0.5897 11.351062 62.830363 16.304072
4624 398 1 -1.1794 17.028962 48.696674 22.573662
4625 398 2 0.5897 16.088801 48.547628 22.267260
4626 398 2 0.5897 17.642063 48.689621 21.783688
4627 399 1 -1.1794 18.306429 97.261060 8.233191
4628 399 2 0.5897 18.856600 96.590092 7.736086
4629 399 2 0.5897 18.907442 97.948143 8.641481
4630 400 1 -1.1794 12.124908 56.513554 19.483605
4631 400 2 0.5897 12.147724 55.577883 19.131469
4632 400 2 0.5897 12.557702 56.541223 20.384673
4633 401 1 -1.1794 9.600752 75.474951 25.679802
4634 401 2 0.5897 9.544840 74.510755 25.939032
4635 401 2 0.5897 8.773761 75.734516 25.181092
4636 402 1 -1.1794 13.021755 72.029807 4.573930
4637 402 2 0.5897 12.508009 71.586400 3.839455
4638 402 2 0.5897 13.102306 73.007714 4.381031
4639 403 1 -1.1794 0.782920 59.202574 11.142550
4640 403 2 0.5897 0.000323 59.675668 10.737922
4641 403 2 0.5897 1.274231 59.828648 11.748062
4642 404 1 -1.1794 19.785360 73.451547 23.829837
4643 404 2 0.5897 20.004263 74.427271 23.836581
4644 404 2 0.5897 20.538897 72.938049 24.240327
4645 405 1 -1.1794 9.232358 88.645101 2.442870
4646 405 2 0.5897 8.818398 88.846215 1.555069
4647 405 2 0.5897 8.525258 88.653586 3.149932
4648 406 1 -1.1794 2.930358 83.706569 2.266504
4649 406 2 0.5897 3.038174 82.865654 2.796824
4650 406 2 0.5897 3.078713 84.496870 2.860991
4651 407 1 -1.1794 20.307392 83.668593 5.167106
4652 407 2 0.5897 20.525970 84.132561 6.025568
4653 407 2 0.5897 19.750798 84.270988 4.594983
4654 408 1 -1.1794 6.359847 98.550659 8.718997
4655 408 2 0.5897 5.800338 98.519980 7.890741
4656 408 2 0.5897 5.774487 98.433114 9.521205
4657 409 1 -1.1794 8.952780 52.342983 2.480352
4658 409 2 0.5897 8.634661 51.491451 2.063585
4659 409 2 0.5897 9.141851 52.189109 3.450185
4660 410 1 -1.1794 15.975994 56.451931 7.755866
4661 410 2 0.5897 15.091272 56.018834 7.928187
4662 410 2 0.5897 16.672200 55.746486 7.623031
4663 411 1 -1.1794 18.918956 90.249560 24.888259
4664 411 2 0.5897 18.478454 91.133843 24.733334
4665 411 2 0.5897 18.952165 90.061134 25.869785
4666 412 1 -1.1794 -0.019686 60.805503 17.058227
4667 412 2 0.5897 0.608286 60.333807 16.439232
4668 412 2 0.5897 0.154807 61.789561 17.023838
4669 413 1 -1.1794 3.416392 58.404488 9.936173
4670 413 2 0.5897 4.007084 58.842717 10.613697
4671 413 2 0.5897 2.852899 57.710511 10.384361
4672 414 1 -1.1794 11.077075 94.321020 25.369470
4673 414 2 0.5897 10.347679 93.820833 24.902786
4674 414 2 0.5897 10.690050 94.841852 26.130355
4675 415 1 -1.1794 17.048645 51.924608 6.282116
4676 415 2 0.5897 17.243094 52.188361 7.226904
4677 415 2 0.5897 16.144438 52.262627 6.021057
4678 416 1 -1.1794 17.399200 98.216799 3.267590
4679 416 2 0.5897 18.164285 97.679977 3.623213
4680 416 2 0.5897 17.023005 97.765485 2.458397
4681 417 1 -1.1794 13.364580 54.714513 27.219563
4682 417 2 0.5897 14.017554 54.060401 27.601350
4683 417 2 0.5897 13.736481 55.639672 27.295529
4684 418 1 -1.1794 1.228092 62.276101 32.787806
4685 418 2 0.5897 0.569534 61.537875 32.933835
4686 418 2 0.5897 1.438460 62.712944 33.662399
4687 419 1 -1.1794 9.330421 50.094592 8.030608
4688 419 2 0.5897 9.243766 50.910029 8.602931
4689 419 2 0.5897 9.155473 49.279559 8.582980
4690 420 1 -1.1794 8.056323 51.025951 17.309183
4691 420 2 0.5897 7.460139 50.458246 16.741490
4692 420 2 0.5897 8.893822 50.522092 17.520657
4693 421 1 -1.1794 5.298673 84.618043 24.799107
4694 421 2 0.5897 6.188533 85.003915 25.042528
4695 421 2 0.5897 4.580291 85.283935 25.000392
4696 422 1 -1.1794 6.147706 55.700440 24.327535
4697 422 2 0.5897 7.106492 55.429951 24.240551
4698 422 2 0.5897 5.761717 55.856869 23.418391
4699 423 1 -1.1794 17.670153 65.246077 11.139429
4700 423 2 0.5897 18.118793 65.692536 11.913637
4701 423 2 0.5897 18.215282 64.460808 10.845853
4702 424 1 -1.1794 18.549879 82.693814 16.242274
4703 424 2 0.5897 19.316972 83.149067 15.790263
4704 424 2 0.5897 17.731895 83.263937 16.165712
4705 425 1 -1.1794 18.869084 68.584395 4.317547
4706 425 2 0.5897 18.062598 68.146213 4.714506
4707 425 2 0.5897 19.461102 68.919459 5.050518
4708 426 1 -1.1794 21.483765 89.895401 14.514348
4709 426 2 0.5897 20.709811 90.413485 14.878471
4710 426 2 0.5897 21.774991 90.297263 13.646192
4711 427 1 -1.1794 11.100702 53.368448 8.971315
4712 427 2 0.5897 11.768359 52.950290 8.355378
4713 427 2 0.5897 10.260417 52.826305 8.969679
4714 428 1 -1.1794 20.062683 90.973942 17.127875
4715 428 2 0.5897 20.583505 90.123342 17.055604
4716 428 2 0.5897 19.572862 90.991823 17.999515
4717 429 1 -1.1794 3.278769 80.922414 11.102508
4718 429 2 0.5897 3.775801 80.719817 10.258758
4719 429 2 0.5897 2.755570 81.766708 10.986615
4720 430 1 -1.1794 11.019317 83.579238 7.744854
4721 430 2 0.5897 10.269483 83.248255 8.317740
4722 430 2 0.5897 11.714367 84.009125 8.321138
4723 431 1 -1.1794 18.782503 90.104419 20.163126
4724 431 2 0.5897 18.141607 90.074805 19.396069
4725 431 2 0.5897 19.194422 89.201843 20.288338
4726 432 1 -1.1794 11.725845 63.755219 6.105825
4727 432 2 0.5897 11.289159 63.796380 5.207154
4728 432 2 0.5897 12.512734 64.372086 6.122606
4729 433 1 -1.1794 15.530375 82.508250 25.861712
4730 433 2 0.5897 16.061825 81.883640 26.433921
4731 433 2 0.5897 15.016329 83.138017 26.444078
4732 434 1 -1.1794 18.483493 71.185864 16.200481
4733 434 2 0.5897 19.254484 71.320011 15.577925
4734 434 2 0.5897 17.669373 71.626848 15.822669
4735 435 1 -1.1794 18.301794 49.188336 29.836300
4736 435 2 0.5897 18.703719 49.096487 30.747355
4737 435 2 0.5897 17.306263 49.121379 29.902889
4738 436 1 -1.1794 7.160431 55.027367 2.691004
4739 436 2 0.5897 7.247114 54.369145 1.943187
4740 436 2 0.5897 6.192722 55.170876 2.898233
4741 437 1 -1.1794 9.357282 81.313915 23.883632
4742 437 2 0.5897 9.875797 80.717682 24.496533
4743 437 2 0.5897 8.850633 81.986632 24.422852
4744 438 1 -1.1794 0.773438 98.068828 29.658794
4745 438 2 0.5897 0.656177 98.559037 28.795113
4746 438 2 0.5897 1.429210 98.558360 30.233531
4747 439 1 -1.1794 15.081267 51.341121 28.654773
4748 439 2 0.5897 14.816118 51.235005 27.696423
4749 439 2 0.5897 16.045215 51.602039 28.706984
4750 440 1 -1.1794 14.965544 50.687999 21.590770
4751 440 2 0.5897 14.486552 50.053325 22.197199
4752 440 2 0.5897 15.939227 50.695957 21.818536
4753 441 1 -1.1794 14.214350 70.745093 6.711194
4754 441 2 0.5897 14.528041 70.975042 5.789933
4755 441 2 0.5897 14.492235 71.464930 7.347288
4756 442 1 -1.1794 14.910885 57.788572 20.861091
4757 442 2 0.5897 15.547772 58.191097 20.203559
4758 442 2 0.5897 15.107948 58.142319 21.775437
4759 443 1 -1.1794 20.988833 89.370903 10.071379
4760 443 2 0.5897 21.299181 89.112651 9.156508
4761 443 2 0.5897 21.624198 89.008832 10.753446
4762 444 1 -1.1794 1.809040 57.702249 1.550172
4763 444 2 0.5897 2.796950 57.813488 1.442195
4764 444 2 0.5897 1.470228 57.053460 0.868792
4765 445 1 -1.1794 18.471841 87.131389 2.948006
4766 445 2 0.5897 18.004554 86.418445 2.425174
4767 445 2 0.5897 18.748019 87.869398 2.332320
4768 446 1 -1.1794 1.914072 67.070871 26.042509
4769 446 2 0.5897 2.647034 67.017634 26.720692
4770 446 2 0.5897 1.046989 67.260770 26.503057
4771 447 1 -1.1794 12.437204 56.945910 30.819790
4772 447 2 0.5897 12.464674 55.954096 30.695094
4773 447 2 0.5897 11.825410 57.350488 30.140066
4774 448 1 -1.1794 0.087482 90.938327 21.462860
4775 448 2 0.5897 -0.000969 90.194356 22.125192
4776 448 2 0.5897 0.001812 91.816123 21.934171
4777 449 1 -1.1794 0.119995 74.649293 16.339871
4778 449 2 0.5897 0.000146 74.061781 15.539580
4779 449 2 0.5897 0.130644 74.087578 17.167133
4780 450 1 -1.1794 19.483659 58.445124 31.338507
4781 450 2 0.5897 19.511064 57.677007 30.698785
4782 450 2 0.5897 19.429460 59.302876 30.827308
4783 451 1 -1.1794 11.225519 88.821570 3.355967
4784 451 2 0.5897 11.328745 89.789654 3.584349
4785 451 2 0.5897 11.895713 88.284870 3.868601
4786 452 1 -1.1794 17.359184 56.273100 18.524559
4787 452 2 0.5897 16.770345 55.529841 18.842106
4788 452 2 0.5897 16.851273 57.134176 18.548531
4789 453 1 -1.1794 9.272526 66.446408 1.719535
4790 453 2 0.5897 9.673780 66.100873 0.871242
4791 453 2 0.5897 8.278762 66.340175 1.685666
4792 454 1 -1.1794 12.944124 82.990143 22.529481
4793 454 2 0.5897 12.423438 82.941262 21.677133
4794 454 2 0.5897 13.329222 82.090868 22.736856
4795 455 1 -1.1794 6.969036 50.347097 20.036101
4796 455 2 0.5897 6.919492 50.056847 20.991768
4797 455 2 0.5897 7.925609 50.482844 19.778144
4798 456 1 -1.1794 17.438735 80.849512 17.897085
4799 456 2 0.5897 17.683436 80.161889 18.580675
4800 456 2 0.5897 17.167481 81.694995 18.357064
4801 457 1 -1.1794 21.019970 94.769163 11.152008
4802 457 2 0.5897 20.646850 94.598194 12.063902
4803 457 2 0.5897 21.403964 93.921998 10.784776
4804 458 1 -1.1794 21.051959 93.316466 0.760533
4805 458 2 0.5897 21.068125 93.663329 1.698309
4806 458 2 0.5897 20.297498 92.668196 0.657891
4807 459 1 -1.1794 15.663910 90.663234 22.436479
4808 459 2 0.5897 15.383515 89.744490 22.714489
4809 459 2 0.5897 16.142575 91.108857 23.192984
4810 460 1 -1.1794 5.509764 56.854982 8.906884
4811 460 2 0.5897 4.667314 56.325829 9.008253
4812 460 2 0.5897 5.291700 57.830898 8.900847
4813 461 1 -1.1794 13.177126 59.008635 15.147911
4814 461 2 0.5897 13.147236 59.976747 15.396642
4815 461 2 0.5897 13.673688 58.499126 15.850639
4816 462 1 -1.1794 19.040591 82.011933 32.881252
4817 462 2 0.5897 18.372428 82.697258 32.591618
4818 462 2 0.5897 19.729285 82.443311 33.464015
4819 463 1 -1.1794 8.426824 55.222261 16.180491
4820 463 2 0.5897 8.686867 56.170357 16.363496
4821 463 2 0.5897 9.100035 54.803719 15.570893
4822 464 1 -1.1794 20.550571 87.251636 22.014873
4823 464 2 0.5897 20.106397 87.990469 22.521664
4824 464 2 0.5897 20.968295 86.610227 22.658380
4825 465 1 -1.1794 20.880927 68.854564 16.107226
4826 465 2 0.5897 21.078124 69.829271 16.002062
4827 465 2 0.5897 20.645205 68.464266 15.217225
4828 466 1 -1.1794 8.975311 78.738588 24.142454
4829 466 2 0.5897 9.046523 77.814583 24.518145
4830 466 2 0.5897 9.615977 78.839194 23.381254
4831 467 1 -1.1794 7.708575 55.607289 6.706318
4832 467 2 0.5897 7.359334 55.420606 5.788070
4833 467 2 0.5897 8.492976 56.224553 6.645480
4834 468 1 -1.1794 2.233867 59.569672 27.669691
4835 468 2 0.5897 1.779793 60.252536 27.097403
4836 468 2 0.5897 2.681655 58.891224 27.087287
4837 469 1 -1.1794 16.495546 65.772837 16.001928
4838 469 2 0.5897 16.565246 65.193170 15.190061
4839 469 2 0.5897 16.235033 66.698901 15.728912
4840 470 1 -1.1794 19.748693 80.960984 26.025957
4841 470 2 0.5897 20.543664 81.302204 26.527546
4842 470 2 0.5897 19.281978 81.725387 25.581136
4843 471 1 -1.1794 4.890314 74.639769 22.865049
4844 471 2 0.5897 4.991348 74.629347 23.859877
4845 471 2 0.5897 3.923214 74.735181 22.629221
4846 472 1 -1.1794 9.394240 69.276404 21.548878
4847 472 2 0.5897 10.251977 69.360536 21.041720
4848 472 2 0.5897 9.229983 70.115490 22.067488
4849 473 1 -1.1794 13.606875 61.771848 18.851770
4850 473 2 0.5897 14.429071 62.193922 18.469870
4851 473 2 0.5897 13.010921 61.469823 18.107714
4852 474 1 -1.1794 3.727929 97.839747 6.693342
4853 474 2 0.5897 3.051666 97.127640 6.881946
4854 474 2 0.5897 3.314228 98.549764 6.123494
4855 475 1 -1.1794 4.759666 55.499638 18.954926
4856 475 2 0.5897 5.663792 55.805584 19.253176
4857 475 2 0.5897 4.177611 55.350938 19.754363
4858 476 1 -1.1794 5.465595 53.310239 18.957300
4859 476 2 0.5897 6.363119 53.748483 18.908377
4860 476 2 0.5897 5.162393 53.276947 19.909644
4861 477 1 -1.1794 1.454512 66.853293 31.797711
4862 477 2 0.5897 2.100214 67.372858 32.357283
4863 477 2 0.5897 0.841828 66.332734 32.392384
4864 478 1 -1.1794 2.689879 93.133874 6.282179
4865 478 2 0.5897 1.747747 92.799127 6.300389
4866 478 2 0.5897 3.286715 92.428971 5.898906
4867 479 1 -1.1794 10.251353 56.158114 32.416753
4868 479 2 0.5897 10.486975 56.937213 31.835817
4869 479 2 0.5897 9.974328 55.386808 31.843740
4870 480 1 -1.1794 12.798066 79.782857 25.860162
4871 480 2 0.5897 13.728897 79.579563 26.163847
4872 480 2 0.5897 12.760294 79.757206 24.861205
4873 481 1 -1.1794 18.653939 86.408588 11.130877
4874 481 2 0.5897 19.476874 86.102757 11.609672
4875 481 2 0.5897 17.911168 86.530481 11.789233
4876 482 1 -1.1794 9.385983 70.365838 28.935075
4877 482 2 0.5897 9.117159 70.634494 28.010112
4878 482 2 0.5897 8.701265 69.742992 29.313523
4879 483 1 -1.1794 21.674638 85.330393 31.939465
4880 483 2 0.5897 21.774886 84.556417 32.564693
4881 483 2 0.5897 21.775041 86.185259 32.448506
4882 484 1 -1.1794 10.937236 63.910467 14.083091
4883 484 2 0.5897 11.184216 64.651453 14.707545
4884 484 2 0.5897 10.028930 63.564830 14.318708
4885 485 1 -1.1794 8.882627 51.154614 5.377874
4886 485 2 0.5897 9.428647 51.415714 6.173920
4887 485 2 0.5897 8.554015 50.217078 5.492072
4888 486 1 -1.1794 11.306737 89.702797 23.822809
4889 486 2 0.5897 11.642766 88.910661 23.313295
4890 486 2 0.5897 11.197684 89.457678 24.786149
4891 487 1 -1.1794 12.883480 85.878101 1.138215
4892 487 2 0.5897 12.682614 86.671110 1.713359
4893 487 2 0.5897 13.144712 85.104877 1.716040
4894 488 1 -1.1794 4.214718 87.275611 19.915333
4895 488 2 0.5897 3.310509 87.021719 20.258764
4896 488 2 0.5897 4.874750 87.253527 20.666245
4897 489 1 -1.1794 12.378520 50.803597 9.835950
4898 489 2 0.5897 12.574269 51.230867 10.718629
4899 489 2 0.5897 11.399781 50.609623 9.769283
4900 490 1 -1.1794 19.893038 63.174300 22.334943
4901 490 2 0.5897 19.296750 63.734519 21.759969
4902 490 2 0.5897 20.485046 62.614449 21.755208
4903 491 1 -1.1794 1.404691 55.940833 18.271889
4904 491 2 0.5897 1.812137 55.210264 17.723932
4905 491 2 0.5897 0.779182 56.474856 17.703068
4906 492 1 -1.1794 17.403680 53.844955 32.910034
4907 492 2 0.5897 16.544762 54.236902 33.239637
4908 492 2 0.5897 17.866781 53.376622 33.662498
4909 493 1 -1.1794 6.521829 88.733104 11.547440
4910 493 2 0.5897 7.276893 88.545918 12.175803
4911 493 2 0.5897 5.785784 89.197633 12.039832
4912 494 1 -1.1794 14.619669 70.126021 27.544577
4913 494 2 0.5897 13.708193 70.043876 27.141509
4914 494 2 0.5897 14.807912 71.086396 27.750109
4915 495 1 -1.1794 14.489868 71.952976 14.752137
4916 495 2 0.5897 15.157285 72.697254 14.727580
4917 495 2 0.5897 14.393667 71.561218 13.837112
4918 496 1 -1.1794 14.889165 87.941096 4.140400
4919 496 2 0.5897 14.590886 88.239422 3.233741
4920 496 2 0.5897 15.885602 88.000890 4.199886
4921 497 1 -1.1794 10.463034 86.714355 6.306847
4922 497 2 0.5897 10.650549 85.853514 5.833780
4923 497 2 0.5897 10.798284 87.477885 5.754916
4924 498 1 -1.1794 10.843988 82.474004 30.779563
4925 498 2 0.5897 9.933344 82.486617 30.366563
4926 498 2 0.5897 10.771875 82.194838 31.737095
4927 499 1 -1.1794 17.201539 72.316871 19.693390
4928 499 2 0.5897 17.253518 71.847693 18.811818
4929 499 2 0.5897 16.282200 72.212576 20.072781
4930 500 1 -1.1794 18.402937 59.584617 28.353346
4931 500 2 0.5897 19.043471 58.899072 28.699388
4932 500 2 0.5897 17.746458 59.147217 27.738759
4933 501 1 -1.1794 20.090517 98.550437 29.433357
4934 501 2 0.5897 20.996389 98.299886 29.774853
4935 501 2 0.5897 19.670006 97.758054 28.991430
4936 502 1 -1.1794 -0.000764 65.804912 24.416784
4937 502 2 0.5897 0.635249 65.526674 25.136555
4938 502 2 0.5897 0.494901 65.903714 23.553909
4939 503 1 -1.1794 17.260905 63.036338 33.250287
4940 503 2 0.5897 16.835546 63.913730 33.028357
4941 503 2 0.5897 16.579596 62.429805 33.660087
4942 504 1 -1.1794 10.157136 65.838353 4.129761
4943 504 2 0.5897 9.168576 65.688119 4.143186
4944 504 2 0.5897 10.532164 65.511723 3.262197
4945 505 1 -1.1794 10.820544 84.712620 13.512589
4946 505 2 0.5897 10.245565 84.812161 14.324680
4947 505 2 0.5897 11.417047 83.917495 13.621950
4948 506 1 -1.1794 16.406772 97.647506 7.193027
4949 506 2 0.5897 15.990612 98.549986 7.081939
4950 506 2 0.5897 16.958003 97.433111 6.386691
4951 507 1 -1.1794 18.682545 52.586655 4.870739
4952 507 2 0.5897 18.685449 51.588532 4.809571
4953 507 2 0.5897 17.943536 52.953090 4.305415
4954 508 1 -1.1794 14.194759 58.109373 33.119575
4955 508 2 0.5897 13.391139 58.590935 33.469279
4956 508 2 0.5897 14.205318 58.160057 32.120916
4957 509 1 -1.1794 1.339717 58.645029 23.251015
4958 509 2 0.5897 1.267172 59.439606 22.648200
4959 509 2 0.5897 1.864826 57.926957 22.794251
4960 510 1 -1.1794 11.919961 74.426816 0.000042
4961 510 2 0.5897 11.223935 73.896568 0.484175
4962 510 2 0.5897 12.821692 74.031503 0.174997
4963 511 1 -1.1794 20.205696 85.406921 27.862361
4964 511 2 0.5897 20.385560 84.798446 28.635282
4965 511 2 0.5897 20.458575 86.342505 28.108806
4966 512 1 -1.1794 16.939173 92.078178 32.763059
4967 512 2 0.5897 16.645057 92.939770 32.349350
4968 512 2 0.5897 17.540195 91.591921 32.128767
4969 513 1 -1.1794 8.563735 76.647161 27.226461
4970 513 2 0.5897 8.990302 77.360179 26.670002
4971 513 2 0.5897 8.850698 76.751198 28.178737
4972 514 1 -1.1794 7.144681 54.418115 21.481766
4973 514 2 0.5897 6.176707 54.590535 21.664239
4974 514 2 0.5897 7.661033 54.479844 22.335915
4975 515 1 -1.1794 19.281268 93.465198 13.873132
4976 515 2 0.5897 18.984802 94.293779 14.348066
4977 515 2 0.5897 19.752425 92.862410 14.517070
4978 516 1 -1.1794 8.562954 65.236792 22.746459
4979 516 2 0.5897 9.491291 65.034630 22.434496
4980 516 2 0.5897 7.978568 65.421389 21.956258
4981 517 1 -1.1794 13.013683 67.060023 19.280455
4982 517 2 0.5897 12.805524 67.990367 18.978579
4983 517 2 0.5897 13.583704 67.095643 20.101313
4984 518 1 -1.1794 17.753046 91.937856 28.040490
4985 518 2 0.5897 17.329645 92.485595 28.762094
4986 518 2 0.5897 17.257583 92.076104 27.182933
4987 519 1 -1.1794 16.049659 51.216327 31.473352
4988 519 2 0.5897 16.826036 51.094989 30.854874
4989 519 2 0.5897 15.594915 50.336877 31.613974
4990 520 1 -1.1794 12.015712 72.476679 23.565837
4991 520 2 0.5897 12.733058 71.924349 23.990509
4992 520 2 0.5897 11.340838 71.875075 23.138498
4993 521 1 -1.1794 16.992973 63.951135 5.056543
4994 521 2 0.5897 17.271877 63.185612 5.636360
4995 521 2 0.5897 16.670968 64.704000 5.630570
4996 522 1 -1.1794 7.544616 96.412244 20.261840
4997 522 2 0.5897 6.985160 96.730983 21.026964
4998 522 2 0.5897 8.388404 96.005925 20.612448
4999 523 1 -1.1794 17.181579 82.903316 20.294875
5000 523 2 0.5897 16.389703 83.204525 19.763645
5001 523 2 0.5897 17.022992 81.975551 20.632664
5002 524 1 -1.1794 2.858964 82.859889 25.109470
5003 524 2 0.5897 3.042108 83.745255 24.682169
5004 524 2 0.5897 3.447236 82.748279 25.910394
5005 525 1 -1.1794 17.887457 68.039044 14.368086
5006 525 2 0.5897 17.728216 68.271796 15.327496
5007 525 2 0.5897 18.820253 67.695602 14.258813
5008 526 1 -1.1794 4.841945 68.072758 33.662471
5009 526 2 0.5897 5.238365 67.283533 33.193456
5010 526 2 0.5897 5.448834 68.860894 33.559871
5011 527 1 -1.1794 21.147993 75.410617 28.250540
5012 527 2 0.5897 20.152412 75.316760 28.253798
5013 527 2 0.5897 21.530194 74.881436 27.492985
5014 528 1 -1.1794 13.206848 59.576633 7.621639
5015 528 2 0.5897 13.647753 60.076734 8.366959
5016 528 2 0.5897 12.517576 58.957371 7.997696
5017 529 1 -1.1794 7.910488 95.550654 14.466192
5018 529 2 0.5897 6.978086 95.189477 14.479544
5019 529 2 0.5897 8.056841 96.064434 13.620846
5020 530 1 -1.1794 7.934303 60.042134 31.678097
5021 530 2 0.5897 7.276190 60.393844 31.012374
5022 530 2 0.5897 7.909842 60.608264 32.502050
5023 531 1 -1.1794 5.623586 92.151496 33.662751
5024 531 2 0.5897 5.715907 91.414262 32.993450
5025 531 2 0.5897 5.658119 93.033907 33.193542
5026 532 1 -1.1794 5.973409 76.814448 29.070442
5027 532 2 0.5897 6.191882 77.771755 29.259734
5028 532 2 0.5897 5.011308 76.737571 28.808808
5029 533 1 -1.1794 19.898870 95.657383 28.379165
5030 533 2 0.5897 19.206130 95.212148 27.811824
5031 533 2 0.5897 20.587205 96.083274 27.791958
5032 534 1 -1.1794 4.242807 69.177070 25.639802
5033 534 2 0.5897 3.493046 68.597643 25.320237
5034 534 2 0.5897 4.982443 69.166380 24.966880
5035 535 1 -1.1794 20.107255 87.226909 18.016614
5036 535 2 0.5897 19.937190 88.068457 18.529327
5037 535 2 0.5897 20.053059 86.443034 18.635164
5038 536 1 -1.1794 1.917370 77.253057 30.725621
5039 536 2 0.5897 2.534898 77.289954 29.939938
5040 536 2 0.5897 2.305103 77.783444 31.479512
5041 537 1 -1.1794 11.667364 72.640692 11.645501
5042 537 2 0.5897 12.186406 72.385884 10.829616
5043 537 2 0.5897 12.300230 72.869777 12.385096
5044 538 1 -1.1794 1.002821 91.866707 33.617582
5045 538 2 0.5897 1.706728 91.690192 32.929572
5046 538 2 0.5897 0.234996 92.346751 33.193316
5047 539 1 -1.1794 21.041235 72.138630 16.566552
5048 539 2 0.5897 20.299969 72.487238 17.140135
5049 539 2 0.5897 21.775038 71.786709 17.147658
5050 540 1 -1.1794 0.201699 70.296153 9.633769
5051 540 2 0.5897 -0.000027 71.265317 9.775290
5052 540 2 0.5897 -0.001042 69.787821 10.470725
5053 541 1 -1.1794 9.132463 68.346917 13.895332
5054 541 2 0.5897 9.503633 67.665749 13.264268
5055 541 2 0.5897 8.962815 69.200359 13.402527
5056 542 1 -1.1794 16.170959 52.361209 23.561164
5057 542 2 0.5897 15.214421 52.159013 23.771291
5058 542 2 0.5897 16.597750 52.807845 24.347526
5059 543 1 -1.1794 1.850129 92.952324 8.944805
5060 543 2 0.5897 1.608251 93.735671 8.372211
5061 543 2 0.5897 2.257463 92.237295 8.376640
5062 544 1 -1.1794 7.711884 60.897930 3.491789
5063 544 2 0.5897 7.972537 60.083542 2.973298
5064 544 2 0.5897 8.486018 61.529705 3.531488
5065 545 1 -1.1794 12.774593 73.213291 15.925072
5066 545 2 0.5897 13.701725 73.321214 16.283928
5067 545 2 0.5897 12.576802 72.241106 15.799635
5068 546 1 -1.1794 18.371747 84.439932 27.125991
5069 546 2 0.5897 18.530602 83.599817 26.607366
5070 546 2 0.5897 18.226945 85.200217 26.492746
5071 547 1 -1.1794 3.240202 66.373731 15.094895
5072 547 2 0.5897 2.701540 66.857847 14.405348
5073 547 2 0.5897 3.651166 65.559227 14.685392
5074 548 1 -1.1794 3.972589 89.248145 10.748123
5075 548 2 0.5897 3.403594 89.806430 10.144333
5076 548 2 0.5897 3.490803 89.092785 11.610529
5077 549 1 -1.1794 13.223659 94.098570 28.464741
5078 549 2 0.5897 12.910100 93.946880 27.527366
5079 549 2 0.5897 12.571787 94.686933 28.943167
5080 550 1 -1.1794 6.587395 97.352472 5.297388
5081 550 2 0.5897 6.961100 98.150420 5.770278
5082 550 2 0.5897 7.051113 97.238267 4.418797
5083 551 1 -1.1794 18.303046 68.335431 8.039508
5084 551 2 0.5897 18.026722 67.817994 7.229629
5085 551 2 0.5897 19.298638 68.307689 8.129103
5086 552 1 -1.1794 14.249506 90.368837 2.508816
5087 552 2 0.5897 14.423997 90.211378 1.536829
5088 552 2 0.5897 13.354696 89.994289 2.751775
5089 553 1 -1.1794 4.681246 98.548216 3.206109
5090 553 2 0.5897 5.675755 98.550136 3.310744
5091 553 2 0.5897 4.251107 98.550144 4.108869
5092 554 1 -1.1794 6.224379 98.555813 23.603127
5093 554 2 0.5897 5.576480 98.423337 24.353245
5094 554 2 0.5897 7.113564 98.177117 23.859914
5095 555 1 -1.1794 7.392638 48.550005 26.944013
5096 555 2 0.5897 6.898983 48.830776 26.120925
5097 555 2 0.5897 6.834654 48.745839 27.750426
5098 556 1 -1.1794 19.692051 62.376093 24.551970
5099 556 2 0.5897 20.665735 62.271980 24.754700
5100 556 2 0.5897 19.221858 61.509924 24.721289
5101 557 1 -1.1794 8.310699 66.077390 26.950280
5102 557 2 0.5897 8.163878 67.053333 27.111460
5103 557 2 0.5897 9.218655 65.937706 26.555180
5104 558 1 -1.1794 6.027296 59.551663 13.522342
5105 558 2 0.5897 5.090909 59.699187 13.203881
5106 558 2 0.5897 6.659856 59.648560 12.753916
5107 559 1 -1.1794 11.900450 55.939757 22.396441
5108 559 2 0.5897 12.603319 56.541151 22.776312
5109 559 2 0.5897 11.791323 55.140100 22.986898
5110 560 1 -1.1794 15.326857 82.487981 4.404968
5111 560 2 0.5897 15.070908 83.354615 4.833262
5112 560 2 0.5897 16.170660 82.147557 4.819826
5113 561 1 -1.1794 5.230367 88.560670 32.818973
5114 561 2 0.5897 4.261518 88.343917 32.938765
5115 561 2 0.5897 5.723021 88.364966 33.666907
5116 562 1 -1.1794 19.337264 83.622467 10.929745
5117 562 2 0.5897 18.553398 83.309730 11.466167
5118 562 2 0.5897 19.051935 84.365909 10.324864
5119 563 1 -1.1794 8.147671 63.560446 24.212221
5120 563 2 0.5897 7.267888 63.458840 23.747830
5121 563 2 0.5897 8.880571 63.241503 23.611277
5122 564 1 -1.1794 19.421128 61.738386 0.598780
5123 564 2 0.5897 19.928223 62.442752 0.102068
5124 564 2 0.5897 19.102110 62.109746 1.470743
5125 565 1 -1.1794 16.893019 77.312467 31.663179
5126 565 2 0.5897 16.868219 78.112253 31.063407
5127 565 2 0.5897 16.330158 77.484526 32.471624
5128 566 1 -1.1794 17.149821 76.670799 23.069251
5129 566 2 0.5897 18.047064 76.950891 22.727925
5130 566 2 0.5897 17.250784 75.860056 23.645881
5131 567 1 -1.1794 17.649283 83.952075 24.621562
5132 567 2 0.5897 18.460848 84.465753 24.343176
5133 567 2 0.5897 17.820176 82.973056 24.510576
5134 568 1 -1.1794 8.983587 66.636343 19.913596
5135 568 2 0.5897 8.503049 66.656284 19.036849
5136 568 2 0.5897 8.810178 67.487997 20.408181
5137 569 1 -1.1794 3.789927 88.965705 22.272891
5138 569 2 0.5897 4.637752 88.809732 22.779710
5139 569 2 0.5897 3.116322 88.272280 22.528663
5140 570 1 -1.1794 6.518747 94.401830 28.942778
5141 570 2 0.5897 5.667988 94.471077 29.463751
5142 570 2 0.5897 7.297510 94.517364 29.559366
5143 571 1 -1.1794 17.655903 88.298361 14.919158
5144 571 2 0.5897 17.712134 88.881407 14.108667
5145 571 2 0.5897 18.257131 88.659549 15.631948
5146 572 1 -1.1794 13.059956 55.756566 32.887722
5147 572 2 0.5897 13.617490 56.057189 33.661532
5148 572 2 0.5897 12.169337 55.445562 33.219498
5149 573 1 -1.1794 6.612732 69.473244 22.746032
5150 573 2 0.5897 7.056628 68.653090 22.385055
5151 573 2 0.5897 6.401504 70.096663 21.993217
5152 574 1 -1.1794 11.626078 94.386196 0.872809
5153 574 2 0.5897 11.160468 93.984391 1.661327
5154 574 2 0.5897 12.473483 93.885742 0.695466
5155 575 1 -1.1794 4.697497 88.065088 3.655991
5156 575 2 0.5897 4.179797 88.247723 2.820150
5157 575 2 0.5897 5.078665 87.141411 3.616854
5158 576 1 -1.1794 6.399122 53.689315 15.877630
5159 576 2 0.5897 6.698789 53.353265 16.770530
5160 576 2 0.5897 5.735802 53.051159 15.486781
5161 577 1 -1.1794 17.915799 92.274980 15.576286
5162 577 2 0.5897 17.942141 91.652535 16.358507
5163 577 2 0.5897 17.859495 93.218477 15.902849
5164 578 1 -1.1794 17.694952 52.200453 10.331518
5165 578 2 0.5897 17.460036 51.382017 9.807134
5166 578 2 0.5897 17.288602 52.140186 11.243246
5167 579 1 -1.1794 8.551508 75.775092 22.986255
5168 579 2 0.5897 8.214721 74.867754 23.237873
5169 579 2 0.5897 8.696696 75.814394 21.997631
5170 580 1 -1.1794 7.637899 74.937107 28.487392
5171 580 2 0.5897 8.462209 74.590252 28.039949
5172 580 2 0.5897 6.893654 74.988402 27.821459
5173 581 1 -1.1794 8.621910 75.305558 0.781877
5174 581 2 0.5897 9.114476 76.038787 0.313095
5175 581 2 0.5897 9.276077 74.707794 1.245281
5176 582 1 -1.1794 12.662551 59.009687 28.190044
5177 582 2 0.5897 12.647919 58.205615 27.595693
5178 582 2 0.5897 12.660477 59.838186 27.630056
5179 583 1 -1.1794 19.030858 65.068136 30.518069
5180 583 2 0.5897 18.852463 65.681364 29.748571
5181 583 2 0.5897 19.663949 64.349086 30.231430
5182 584 1 -1.1794 19.707892 51.942158 30.789374
5183 584 2 0.5897 19.353125 52.487308 31.548948
5184 584 2 0.5897 20.625350 51.614140 31.014487
5185 585 1 -1.1794 9.723086 79.524619 0.712264
5186 585 2 0.5897 9.557982 78.583027 1.005768
5187 585 2 0.5897 8.939424 79.851333 0.183934
5188 586 1 -1.1794 8.680739 56.387500 29.265244
5189 586 2 0.5897 7.854543 55.844917 29.416913
5190 586 2 0.5897 9.158735 56.516813 30.134035
5191 587 1 -1.1794 9.792998 76.340125 3.216433
5192 587 2 0.5897 8.883433 76.470591 2.821881
5193 587 2 0.5897 10.465793 76.253762 2.481662
5194 588 1 -1.1794 9.640357 56.295095 24.583676
5195 588 2 0.5897 10.322322 56.510489 23.884728
5196 588 2 0.5897 9.349569 57.137910 25.036562
5197 589 1 -1.1794 8.102351 79.982308 2.740961
5198 589 2 0.5897 7.803153 79.216586 2.171619
5199 589 2 0.5897 8.477855 80.703611 2.158966
5200 590 1 -1.1794 14.053803 85.347763 22.722987
5201 590 2 0.5897 14.378359 86.260816 22.969963
5202 590 2 0.5897 13.463272 84.996138 23.449370
5203 591 1 -1.1794 3.964436 84.378599 27.966855
5204 591 2 0.5897 3.415779 83.543165 27.998868
5205 591 2 0.5897 4.326104 84.504653 27.043109
5206 592 1 -1.1794 5.412230 98.547802 28.712485
5207 592 2 0.5897 5.541714 97.897365 27.964043
5208 592 2 0.5897 6.230631 98.562140 29.286954
5209 593 1 -1.1794 10.030906 51.849452 25.287546
5210 593 2 0.5897 9.612962 51.443875 24.474632
5211 593 2 0.5897 10.997170 51.595049 25.327709
5212 594 1 -1.1794 1.368565 65.766062 28.133424
5213 594 2 0.5897 0.672401 65.235795 28.617337
5214 594 2 0.5897 2.256864 65.628227 28.571518
5215 595 1 -1.1794 17.573831 67.792526 11.365999
5216 595 2 0.5897 16.635961 67.685395 11.696035
5217 595 2 0.5897 17.828535 68.759150 11.393638
5218 596 1 -1.1794 18.395320 93.213542 10.143078
5219 596 2 0.5897 17.959490 92.332166 9.960790
5220 596 2 0.5897 18.782750 93.209468 11.064968
5221 597 1 -1.1794 16.816302 90.135773 11.853876
5222 597 2 0.5897 17.109045 90.558125 12.711734
5223 597 2 0.5897 16.602698 89.171865 12.012791
5224 598 1 -1.1794 6.559825 96.830963 25.510539
5225 598 2 0.5897 6.680662 97.629897 26.099695
5226 598 2 0.5897 6.217488 96.064641 26.054189
5227 599 1 -1.1794 15.103644 89.827705 5.642796
5228 599 2 0.5897 14.216072 89.368267 5.676442
5229 599 2 0.5897 15.050384 90.692624 6.141875
5230 600 1 -1.1794 10.769386 74.347339 14.449387
5231 600 2 0.5897 10.944259 73.464290 14.013904
5232 600 2 0.5897 10.836485 75.074827 13.766555
5233 601 1 -1.1794 2.095037 75.563393 25.365030
5234 601 2 0.5897 1.381586 76.124072 25.785301
5235 601 2 0.5897 2.790313 75.341258 26.048586
5236 602 1 -1.1794 12.620098 78.502190 20.004081
5237 602 2 0.5897 13.340036 78.929065 19.456846
5238 602 2 0.5897 11.897089 78.166620 19.400218
5239 603 1 -1.1794 7.583581 48.549994 15.623309
5240 603 2 0.5897 7.907027 49.233769 14.969219
5241 603 2 0.5897 6.603709 48.674959 15.778985
5242 604 1 -1.1794 16.751278 89.703211 0.319735
5243 604 2 0.5897 16.745536 89.944775 1.290103
5244 604 2 0.5897 17.695971 89.630202 0.000008
5245 605 1 -1.1794 1.526572 77.022755 15.558684
5246 605 2 0.5897 0.762671 77.265444 14.960722
5247 605 2 0.5897 2.292999 77.642090 15.388346
5248 606 1 -1.1794 8.381499 66.117459 29.711062
5249 606 2 0.5897 9.042640 65.928996 30.437267
5250 606 2 0.5897 7.548878 66.501794 30.109848
5251 607 1 -1.1794 18.186766 48.550101 32.814821
5252 607 2 0.5897 17.438849 49.170004 33.052184
5253 607 2 0.5897 18.865411 48.549975 33.549288
5254 608 1 -1.1794 4.827790 78.391980 3.011395
5255 608 2 0.5897 5.037898 78.820645 2.132703
5256 608 2 0.5897 5.008847 79.040758 3.750520
5257 609 1 -1.1794 5.306843 50.839763 14.499725
5258 609 2 0.5897 6.247553 51.174644 14.445696
5259 609 2 0.5897 5.189554 50.309378 15.339329
5260 610 1 -1.1794 16.294841 58.283760 29.166057
5261 610 2 0.5897 15.373799 58.351874 29.549516
5262 610 2 0.5897 16.956466 58.167000 29.906745
5263 611 1 -1.1794 6.702311 59.722450 7.465000
5264 611 2 0.5897 5.742288 59.664098 7.738771
5265 611 2 0.5897 7.219701 60.212788 8.166339
5266 612 1 -1.1794 18.267448 49.222139 6.718996
5267 612 2 0.5897 18.911440 48.791945 7.351616
5268 612 2 0.5897 17.615465 49.778494 7.234153
5269 613 1 -1.1794 16.224864 89.813503 32.611777
5270 613 2 0.5897 16.142947 89.967259 31.627069
5271 613 2 0.5897 15.315787 89.827983 33.028152
5272 614 1 -1.1794 12.124096 52.023885 2.214129
5273 614 2 0.5897 11.132738 52.082203 2.096625
5274 614 2 0.5897 12.416360 52.679508 2.910362
5275 615 1 -1.1794 2.813495 72.735304 27.811698
5276 615 2 0.5897 3.663765 73.259118 27.863265
5277 615 2 0.5897 2.779660 72.239324 26.944024
5278 616 1 -1.1794 14.177004 66.399825 17.101726
5279 616 2 0.5897 14.513673 67.148787 17.672436
5280 616 2 0.5897 13.960649 65.612314 17.678802
5281 617 1 -1.1794 12.853838 96.970125 7.939334
5282 617 2 0.5897 12.647363 96.015211 8.152658
5283 617 2 0.5897 12.721591 97.530433 8.756993
5284 618 1 -1.1794 19.375074 86.068966 31.277700
5285 618 2 0.5897 19.186954 86.926136 30.798251
5286 618 2 0.5897 19.879828 85.452738 30.673145
5287 619 1 -1.1794 13.217882 81.156929 30.490640
5288 619 2 0.5897 12.385488 80.881020 30.971258
5289 619 2 0.5897 13.508386 80.421723 29.878202
5290 620 1 -1.1794 15.239202 94.894718 22.809967
5291 620 2 0.5897 14.806424 94.247460 22.182463
5292 620 2 0.5897 14.541841 95.492236 23.205769
5293 621 1 -1.1794 14.049967 70.772722 30.368053
5294 621 2 0.5897 14.511789 69.991139 29.948708
5295 621 2 0.5897 13.725691 71.391479 29.652522
5296 622 1 -1.1794 20.031731 68.027304 32.952565
5297 622 2 0.5897 20.370145 67.152724 33.299820
5298 622 2 0.5897 20.096550 68.719063 33.671778
5299 623 1 -1.1794 10.147681 72.448566 29.291642
5300 623 2 0.5897 9.377138 72.704379 28.707843
5301 623 2 0.5897 10.848850 71.997493 28.739469
5302 624 1 -1.1794 3.924186 70.392008 22.019434
5303 624 2 0.5897 4.318307 69.715254 21.397604
5304 624 2 0.5897 3.318901 71.001967 21.507985
5305 625 1 -1.1794 3.447022 97.876467 31.392114
5306 625 2 0.5897 3.275523 97.084040 31.977476
5307 625 2 0.5897 3.987871 98.551110 31.894448
5308 626 1 -1.1794 15.164830 60.061477 16.269646
5309 626 2 0.5897 14.690372 60.684724 16.891299
5310 626 2 0.5897 15.544079 59.296362 16.790001
5311 627 1 -1.1794 7.542311 55.341706 13.975239
5312 627 2 0.5897 7.616419 55.740522 13.061207
5313 627 2 0.5897 6.621110 54.974962 14.105192
5314 628 1 -1.1794 17.181384 59.611796 2.403404
5315 628 2 0.5897 17.018703 60.168905 1.589055
5316 628 2 0.5897 16.305376 59.333767 2.797497
5317 629 1 -1.1794 7.722414 90.099172 7.312393
5318 629 2 0.5897 7.527813 91.019433 6.972905
5319 629 2 0.5897 8.633217 90.081743 7.724867
5320 630 1 -1.1794 10.555817 97.718066 9.095442
5321 630 2 0.5897 10.624483 96.903793 8.519036
5322 630 2 0.5897 9.594668 97.975072 9.196137
5323 631 1 -1.1794 4.013094 49.834339 23.241588
5324 631 2 0.5897 3.909325 49.005381 22.691986
5325 631 2 0.5897 4.855514 50.304948 22.979181
5326 632 1 -1.1794 1.214201 94.559153 2.434646
5327 632 2 0.5897 0.910095 95.383051 1.956406
5328 632 2 0.5897 2.151283 94.688663 2.758844
5329 633 1 -1.1794 18.150656 88.992722 29.324214
5330 633 2 0.5897 17.840535 89.736240 28.731757
5331 633 2 0.5897 19.000493 89.260581 29.778118
5332 634 1 -1.1794 0.420965 97.696733 4.474640
5333 634 2 0.5897 0.576020 98.550085 3.976896
5334 634 2 0.5897 0.280116 96.951544 3.822831
5335 635 1 -1.1794 16.960547 89.215826 25.047208
5336 635 2 0.5897 15.989483 89.118734 25.265398
5337 635 2 0.5897 17.081740 89.206102 24.054626
5338 636 1 -1.1794 6.595912 84.657999 28.037735
5339 636 2 0.5897 6.919407 84.691351 27.092093
5340 636 2 0.5897 6.075812 83.816269 28.182600
5341 637 1 -1.1794 8.458277 65.894398 16.703652
5342 637 2 0.5897 9.305424 66.324493 17.015677
5343 637 2 0.5897 7.676377 66.437602 17.009531
5344 638 1 -1.1794 5.231710 97.447694 17.828098
5345 638 2 0.5897 4.528572 97.077538 17.220988
5346 638 2 0.5897 5.484273 98.366399 17.524467
5347 639 1 -1.1794 1.728415 63.304790 29.678507
5348 639 2 0.5897 1.809423 64.138383 30.224913
5349 639 2 0.5897 2.170868 63.442774 28.792394
5350 640 1 -1.1794 19.507746 72.141627 8.268444
5351 640 2 0.5897 18.731680 71.602242 8.595225
5352 640 2 0.5897 19.373634 72.368051 7.303692
5353 641 1 -1.1794 9.113887 61.351868 20.838175
5354 641 2 0.5897 9.656313 60.522058 20.969279
5355 641 2 0.5897 8.524501 61.493921 21.633440
5356 642 1 -1.1794 21.196008 66.805323 24.380036
5357 642 2 0.5897 20.235569 67.083431 24.394666
5358 642 2 0.5897 21.775000 67.612431 24.264510
5359 643 1 -1.1794 13.494927 93.462797 14.481494
5360 643 2 0.5897 13.252134 94.254761 13.921276
5361 643 2 0.5897 13.725068 92.692135 13.887260
5362 644 1 -1.1794 11.888828 61.781933 8.393850
5363 644 2 0.5897 11.488796 61.078393 7.806478
5364 644 2 0.5897 12.287838 62.502385 7.826628
5365 645 1 -1.1794 2.943845 80.619557 24.528099
5366 645 2 0.5897 3.747828 80.484875 25.107298
5367 645 2 0.5897 2.136362 80.749057 25.103600
5368 646 1 -1.1794 13.232566 52.375208 26.047284
5369 646 2 0.5897 13.432261 51.740740 25.300576
5370 646 2 0.5897 12.608105 53.085733 25.722935
5371 647 1 -1.1794 0.476478 83.927313 26.938988
5372 647 2 0.5897 -0.001255 84.602446 26.376880
5373 647 2 0.5897 1.180271 83.475315 26.390924
5374 648 1 -1.1794 8.168343 91.067768 3.454986
5375 648 2 0.5897 8.954510 91.656692 3.642362
5376 648 2 0.5897 8.217500 90.735906 2.512940
5377 649 1 -1.1794 0.116577 48.604681 7.989481
5378 649 2 0.5897 0.440800 48.565583 8.934653
5379 649 2 0.5897 0.000192 49.559565 7.716256
5380 650 1 -1.1794 17.092565 55.735923 21.995210
5381 650 2 0.5897 18.048609 55.444108 21.966509
5382 650 2 0.5897 16.613937 55.389396 21.188467
5383 651 1 -1.1794 17.600950 68.615151 32.780781
5384 651 2 0.5897 18.022909 69.349941 33.311851
5385 651 2 0.5897 17.415048 68.938809 31.853049
5386 652 1 -1.1794 12.671964 68.094680 24.921061
5387 652 2 0.5897 11.704747 67.867518 24.807536
5388 652 2 0.5897 13.212004 67.604482 24.236909
5389 653 1 -1.1794 5.051213 87.055647 26.219449
5390 653 2 0.5897 4.463044 87.303581 26.989245
5391 653 2 0.5897 5.853179 86.563322 26.557776
5392 654 1 -1.1794 16.431664 67.676913 20.462557
5393 654 2 0.5897 17.408810 67.531136 20.307847
5394 654 2 0.5897 16.273243 68.630767 20.717635
5395 655 1 -1.1794 12.470459 50.882677 20.819737
5396 655 2 0.5897 13.005314 51.643569 21.187123
5397 655 2 0.5897 11.784468 50.602583 21.491276
5398 656 1 -1.1794 16.655386 89.879224 17.727230
5399 656 2 0.5897 16.661335 89.685034 16.746284
5400 656 2 0.5897 15.712570 89.883164 18.060520
5401 657 1 -1.1794 18.674535 70.478195 25.796608
5402 657 2 0.5897 19.090977 70.804697 24.948096
5403 657 2 0.5897 18.060062 69.715608 25.594412
5404 658 1 -1.1794 19.173424 76.812904 10.853748
5405 658 2 0.5897 19.168749 76.162436 11.613267
5406 658 2 0.5897 19.502512 77.700212 11.176834
5407 659 1 -1.1794 6.389546 66.099712 19.289649
5408 659 2 0.5897 6.767763 65.749156 20.146423
5409 659 2 0.5897 6.250355 67.087028 19.366030
5410 660 1 -1.1794 12.134625 74.869864 27.653547
5411 660 2 0.5897 12.851100 75.562113 27.567207
5412 660 2 0.5897 11.414261 75.050418 26.983864
5413 661 1 -1.1794 10.610544 83.363660 23.359076
5414 661 2 0.5897 11.165609 84.153759 23.098985
5415 661 2 0.5897 10.345023 82.858097 22.538159
5416 662 1 -1.1794 11.664441 58.606632 21.544761
5417 662 2 0.5897 11.219782 59.262583 22.154684
5418 662 2 0.5897 11.099863 57.784575 21.470769
5419 663 1 -1.1794 4.037647 53.594368 5.431844
5420 663 2 0.5897 4.912507 53.213037 5.730517
5421 663 2 0.5897 4.157010 54.052315 4.550914
5422 664 1 -1.1794 14.255908 67.890202 0.181626
5423 664 2 0.5897 13.676119 68.225994 0.923979
5424 664 2 0.5897 14.908635 67.224616 0.543487
5425 665 1 -1.1794 15.052961 69.597389 12.078737
5426 665 2 0.5897 16.034567 69.748166 12.195855
5427 665 2 0.5897 14.897700 69.020417 11.276866
5428 666 1 -1.1794 11.098830 81.230401 12.302154
5429 666 2 0.5897 10.905809 80.598257 11.551730
5430 666 2 0.5897 10.788341 82.147839 12.053349
5431 667 1 -1.1794 7.986256 80.670511 30.594883
5432 667 2 0.5897 8.768365 80.817277 31.200494
5433 667 2 0.5897 7.491720 79.850141 30.881983
5434 668 1 -1.1794 2.354425 78.784356 26.819303
5435 668 2 0.5897 3.315302 79.053258 26.752909
5436 668 2 0.5897 2.093698 78.714224 27.782165
5437 669 1 -1.1794 17.934952 86.714253 24.406571
5438 669 2 0.5897 17.177770 86.591279 23.765047
5439 669 2 0.5897 18.620518 87.318877 24.001072
5440 670 1 -1.1794 5.742108 93.321965 16.747779
5441 670 2 0.5897 5.592682 93.558683 17.707797
5442 670 2 0.5897 6.483750 92.654543 16.680590
5443 671 1 -1.1794 4.839594 89.057253 28.585843
5444 671 2 0.5897 5.028421 88.901515 29.555426
5445 671 2 0.5897 5.118445 89.984717 28.336739
5446 672 1 -1.1794 2.522854 93.767776 25.607356
5447 672 2 0.5897 2.787502 94.621646 26.055540
5448 672 2 0.5897 2.673298 93.847992 24.621997
5449 673 1 -1.1794 3.615398 88.688266 24.818614
5450 673 2 0.5897 3.482538 87.704255 24.700001
5451 673 2 0.5897 4.583851 88.876561 24.981842
5452 674 1 -1.1794 9.406981 61.277682 9.464365
5453 674 2 0.5897 9.611440 61.066167 10.420115
5454 674 2 0.5897 8.453399 61.567844 9.383830
5455 675 1 -1.1794 13.485064 96.866117 26.445172
5456 675 2 0.5897 13.743458 95.903704 26.528796
5457 675 2 0.5897 13.105483 97.185966 27.313283
5458 676 1 -1.1794 3.420132 62.457757 32.741349
5459 676 2 0.5897 4.238338 63.028377 32.671123
5460 676 2 0.5897 3.654838 61.591327 33.182044
5461 677 1 -1.1794 1.503474 55.247331 21.442524
5462 677 2 0.5897 2.385654 55.082428 21.001429
5463 677 2 0.5897 1.019650 55.976172 20.958059
5464 678 1 -1.1794 10.053431 71.511579 20.187599
5465 678 2 0.5897 10.183337 70.988435 19.345314
5466 678 2 0.5897 9.078810 71.552280 20.407728
5467 679 1 -1.1794 3.552192 85.548374 31.965552
5468 679 2 0.5897 4.183401 85.923464 32.644435
5469 679 2 0.5897 2.698628 85.283818 32.414372
5470 680 1 -1.1794 14.645036 76.218529 6.379710
5471 680 2 0.5897 14.835452 75.240435 6.295598
5472 680 2 0.5897 14.895840 76.681254 5.529426
5473 681 1 -1.1794 16.878188 61.004453 31.354856
5474 681 2 0.5897 16.472260 61.381894 30.522534
5475 681 2 0.5897 17.837432 60.778578 31.185061
5476 682 1 -1.1794 7.055713 87.770548 27.947797
5477 682 2 0.5897 7.216084 88.412209 28.697833
5478 682 2 0.5897 7.740893 87.914458 27.233781
5479 683 1 -1.1794 5.531466 93.010747 22.663135
5480 683 2 0.5897 6.015390 92.660711 21.861080
5481 683 2 0.5897 4.546353 92.897593 22.533719
5482 684 1 -1.1794 3.690047 51.595005 1.025123
5483 684 2 0.5897 4.058953 51.407502 1.935480
5484 684 2 0.5897 2.773406 51.985414 1.110852
5485 685 1 -1.1794 6.467467 74.820949 -0.000485
5486 685 2 0.5897 5.715365 75.461674 0.153831
5487 685 2 0.5897 6.116044 73.884838 0.013571
5488 686 1 -1.1794 5.346699 90.644012 26.239997
5489 686 2 0.5897 6.157829 90.267667 25.792300
5490 686 2 0.5897 5.603385 91.451994 26.770354
5491 687 1 -1.1794 16.353059 85.610657 10.062961
5492 687 2 0.5897 15.849223 86.230899 10.664168
5493 687 2 0.5897 16.890830 84.974178 10.615860
5494 688 1 -1.1794 20.507550 61.936032 7.811818
5495 688 2 0.5897 20.093697 62.013907 8.718825
5496 688 2 0.5897 20.280943 62.746316 7.271365
5497 689 1 -1.1794 6.202481 62.746675 21.922929
5498 689 2 0.5897 5.775458 61.959976 21.477108
5499 689 2 0.5897 6.983876 63.053999 21.379815
5500 690 1 -1.1794 12.399176 57.069185 9.808828
5501 690 2 0.5897 11.432057 57.321712 9.778620
5502 690 2 0.5897 12.950718 57.883289 9.990583
5503 691 1 -1.1794 19.500022 62.663674 27.536191
5504 691 2 0.5897 20.261207 62.621177 26.889049
5505 691 2 0.5897 18.637092 62.711300 27.033117
5506 692 1 -1.1794 3.024674 71.219069 17.274853
5507 692 2 0.5897 2.281241 71.572757 17.842491
5508 692 2 0.5897 3.387075 70.381683 17.684060
5509 693 1 -1.1794 9.746913 73.773183 19.004411
5510 693 2 0.5897 10.669450 73.814503 19.388100
5511 693 2 0.5897 9.689712 73.014993 18.354891
5512 694 1 -1.1794 8.555265 87.352076 9.593009
5513 694 2 0.5897 7.961902 87.902931 9.006087
5514 694 2 0.5897 9.379987 87.097364 9.088077
5515 695 1 -1.1794 20.013444 97.356041 17.311039
5516 695 2 0.5897 20.431711 96.919923 18.107816
5517 695 2 0.5897 19.742539 98.289559 17.545888
5518 696 1 -1.1794 14.516781 64.556866 4.673545
5519 696 2 0.5897 14.867386 63.672558 4.365201
5520 696 2 0.5897 13.851967 64.901328 4.010697
5521 697 1 -1.1794 8.487864 71.740168 13.345438
5522 697 2 0.5897 7.883959 71.078195 13.789386
5523 697 2 0.5897 8.952181 72.287217 14.041963
5524 698 1 -1.1794 9.384611 62.913774 2.075328
5525 698 2 0.5897 8.763208 63.355726 1.428384
5526 698 2 0.5897 9.628147 63.560311 2.798294
5527 699 1 -1.1794 1.410310 83.515779 32.103857
5528 699 2 0.5897 0.500163 83.927411 32.150669
5529 699 2 0.5897 1.581188 82.989165 32.936610
5530 700 1 -1.1794 3.706923 98.598407 11.042794
5531 700 2 0.5897 3.719024 98.021209 10.226279
5532 700 2 0.5897 3.394694 98.061063 11.826232
5533 701 1 -1.1794 15.825460 88.976154 28.258642
5534 701 2 0.5897 15.516421 88.264447 28.889488
5535 701 2 0.5897 15.396921 88.838979 27.365592
5536 702 1 -1.1794 2.330703 79.602750 30.242827
5537 702 2 0.5897 3.100515 80.082963 30.663284
5538 702 2 0.5897 1.784694 80.249843 29.710713
5539 703 1 -1.1794 8.465948 92.593920 0.684688
5540 703 2 0.5897 8.984129 92.553329 1.538995
5541 703 2 0.5897 7.733868 91.913041 0.706226
5542 704 1 -1.1794 3.789792 58.596465 29.067747
5543 704 2 0.5897 3.893860 58.488531 30.056443
5544 704 2 0.5897 3.676869 57.697573 28.644378
5545 705 1 -1.1794 10.907002 82.292882 -0.002028
5546 705 2 0.5897 10.122188 82.834115 0.299853
5547 705 2 0.5897 11.752818 82.765481 0.245450
5548 706 1 -1.1794 1.061751 85.097796 4.389304
5549 706 2 0.5897 1.001300 85.837327 5.059707
5550 706 2 0.5897 1.795634 84.470604 4.650161
5551 707 1 -1.1794 7.692540 81.516541 8.737725
5552 707 2 0.5897 8.116251 82.225817 9.301105
5553 707 2 0.5897 7.241322 80.847267 9.328043
5554 708 1 -1.1794 8.856158 76.042442 15.482925
5555 708 2 0.5897 8.080712 76.197821 16.094923
5556 708 2 0.5897 9.528863 76.772146 15.605397
5557 709 1 -1.1794 15.284757 78.716501 29.660753
5558 709 2 0.5897 14.478455 78.616784 29.077715
5559 709 2 0.5897 16.101768 78.793831 29.089341
5560 710 1 -1.1794 6.895145 76.359083 10.053875
5561 710 2 0.5897 6.785152 75.732672 10.825569
5562 710 2 0.5897 6.771607 77.300278 10.368344
5563 711 1 -1.1794 10.132080 77.085222 11.485071
5564 711 2 0.5897 9.921865 76.506003 12.272671
5565 711 2 0.5897 10.596154 77.914738 11.795779
5566 712 1 -1.1794 2.006206 74.979845 0.711186
5567 712 2 0.5897 2.709136 74.977341 -0.000069
5568 712 2 0.5897 1.708424 75.919034 0.882209
5569 713 1 -1.1794 17.327084 94.171705 19.559210
5570 713 2 0.5897 17.721934 94.494955 18.699208
5571 713 2 0.5897 16.349894 94.000375 19.433730
5572 714 1 -1.1794 20.470438 89.744991 -0.000017
5573 714 2 0.5897 20.957977 88.915764 0.273273
5574 714 2 0.5897 19.764189 89.954579 0.676212
5575 715 1 -1.1794 3.186640 73.027513 4.368957
5576 715 2 0.5897 3.855490 72.948426 5.108136
5577 715 2 0.5897 3.148198 72.167128 3.860764
5578 716 1 -1.1794 7.033678 92.006052 30.295662
5579 716 2 0.5897 7.649914 92.340733 29.582751
5580 716 2 0.5897 6.224094 91.599287 29.872441
5581 717 1 -1.1794 7.446583 70.399447 11.743216
5582 717 2 0.5897 7.595174 69.512124 11.306663
5583 717 2 0.5897 7.525013 71.124727 11.059244
5584 718 1 -1.1794 20.426362 77.215079 21.206024
5585 718 2 0.5897 20.665373 76.361102 21.668191
5586 718 2 0.5897 19.869467 77.779363 21.815491
5587 719 1 -1.1794 8.127325 91.272691 10.732660
5588 719 2 0.5897 7.810970 91.885045 11.457189
5589 719 2 0.5897 8.501714 90.439726 11.140092
5590 720 1 -1.1794 17.052771 76.152278 10.828589
5591 720 2 0.5897 16.095724 76.436662 10.772136
5592 720 2 0.5897 17.103318 75.222939 11.194340
5593 721 1 -1.1794 0.937721 65.624303 12.049434
5594 721 2 0.5897 1.242010 66.292640 12.728207
5595 721 2 0.5897 1.733601 65.172007 11.646937
5596 722 1 -1.1794 18.671545 90.241612 2.903312
5597 722 2 0.5897 19.170035 90.667379 3.658448
5598 722 2 0.5897 18.497015 90.923291 2.192781
5599 723 1 -1.1794 19.177105 50.727672 33.527344
5600 723 2 0.5897 20.014853 50.846768 32.994434
5601 723 2 0.5897 18.423081 51.202604 33.073596
5602 724 1 -1.1794 9.837522 88.495135 18.230753
5603 724 2 0.5897 9.633738 87.970652 19.057427
5604 724 2 0.5897 10.283095 89.354265 18.482468
5605 725 1 -1.1794 0.895684 92.632531 31.114311
5606 725 2 0.5897 1.595151 92.399264 30.438788
5607 725 2 0.5897 -0.002208 92.643466 30.674232
5608 726 1 -1.1794 15.558046 83.926860 0.577145
5609 726 2 0.5897 14.961696 83.369220 -0.000267
5610 726 2 0.5897 16.154480 84.484519 -0.000162
5611 727 1 -1.1794 21.228630 93.641401 26.009113
5612 727 2 0.5897 20.945198 94.579359 26.208865
5613 727 2 0.5897 20.998245 93.418130 25.061973
5614 728 1 -1.1794 15.274115 69.199618 14.661214
5615 728 2 0.5897 15.829630 69.979733 14.373423
5616 728 2 0.5897 15.710040 68.351184 14.360996
5617 729 1 -1.1794 15.203203 60.748693 20.614591
5618 729 2 0.5897 14.645856 60.202542 19.989226
5619 729 2 0.5897 14.630253 61.090977 21.359286
5620 730 1 -1.1794 10.291582 76.521520 6.324409
5621 730 2 0.5897 10.251403 77.466447 6.649216
5622 730 2 0.5897 10.535908 76.512475 5.354758
5623 731 1 -1.1794 5.216023 54.521921 30.083608
5624 731 2 0.5897 4.830449 53.610451 29.940232
5625 731 2 0.5897 5.212877 55.024895 29.219312
5626 732 1 -1.1794 16.892996 78.629766 15.416793
5627 732 2 0.5897 17.526228 79.331157 15.744004
5628 732 2 0.5897 16.025474 79.056773 15.161703
5629 733 1 -1.1794 5.384856 74.689840 29.522185
5630 733 2 0.5897 4.540871 74.779136 30.051066
5631 733 2 0.5897 6.171467 74.829217 30.123698
5632 734 1 -1.1794 14.457510 69.024344 22.659078
5633 734 2 0.5897 14.239597 68.471850 21.854550
5634 734 2 0.5897 13.614973 69.404989 23.040182
5635 735 1 -1.1794 0.295569 87.251849 7.492371
5636 735 2 0.5897 0.389015 86.468815 8.107290
5637 735 2 0.5897 0.107145 88.075307 8.027547
5638 736 1 -1.1794 11.430242 77.861075 -0.001486
5639 736 2 0.5897 11.719585 78.607672 0.597574
5640 736 2 0.5897 11.113903 77.091808 0.553633
5641 737 1 -1.1794 0.359058 69.037543 30.769504
5642 737 2 0.5897 0.330684 69.068301 31.768628
5643 737 2 0.5897 1.249636 68.693699 30.471775
5644 738 1 -1.1794 9.479143 93.235029 20.866947
5645 738 2 0.5897 8.730834 93.228903 20.203625
5646 738 2 0.5897 9.229237 92.674591 21.656539
5647 739 1 -1.1794 15.214383 85.204910 30.296795
5648 739 2 0.5897 16.076556 85.131160 30.798012
5649 739 2 0.5897 14.478306 85.438078 30.932266
5650 740 1 -1.1794 5.155553 74.768013 26.063435
5651 740 2 0.5897 5.345402 73.970239 26.635724
5652 740 2 0.5897 5.005261 75.567374 26.645186
5653 741 1 -1.1794 2.000104 48.647006 5.419903
5654 741 2 0.5897 2.945829 48.550041 5.730068
5655 741 2 0.5897 1.402421 48.782654 6.210077
5656 742 1 -1.1794 0.728566 93.717239 10.686238
5657 742 2 0.5897 0.857984 93.436463 11.637246
5658 742 2 0.5897 -0.011000 94.388333 10.634533
5659 743 1 -1.1794 18.439078 66.109745 32.736242
5660 743 2 0.5897 18.139084 66.339296 33.662153
5661 743 2 0.5897 18.634530 65.130514 32.682354
5662 744 1 -1.1794 13.541190 82.509444 24.919223
5663 744 2 0.5897 13.145492 81.944403 25.643206
5664 744 2 0.5897 12.951750 83.300132 24.753774
5665 745 1 -1.1794 4.626179 94.913667 31.919625
5666 745 2 0.5897 3.664402 94.727924 32.120833
5667 745 2 0.5897 5.110666 95.120299 32.769669
5668 746 1 -1.1794 2.290796 51.444503 21.056312
5669 746 2 0.5897 2.864956 51.148860 21.819814
5670 746 2 0.5897 1.489180 51.926945 21.409386
5671 747 1 -1.1794 2.041962 80.344966 14.101605
5672 747 2 0.5897 2.299777 79.455382 13.724548
5673 747 2 0.5897 2.240639 81.060913 13.432317
5674 748 1 -1.1794 15.504991 58.583109 8.618648
5675 748 2 0.5897 14.965845 58.679209 9.455360
5676 748 2 0.5897 16.325724 59.150676 8.683949
5677 749 1 -1.1794 14.634875 94.371982 16.604412
5678 749 2 0.5897 14.567817 94.898762 15.757059
5679 749 2 0.5897 13.904883 93.689042 16.630972
5680 750 1 -1.1794 13.074386 97.536408 29.963286
5681 750 2 0.5897 13.554169 96.834127 29.437349
5682 750 2 0.5897 12.467755 98.050628 29.357006
5683 751 1 -1.1794 12.397391 72.481498 20.192330
5684 751 2 0.5897 12.672675 73.442471 20.219690
5685 751 2 0.5897 11.969745 72.232414 21.061281
5686 752 1 -1.1794 16.905340 75.628198 2.142767
5687 752 2 0.5897 16.716533 75.312288 1.212954
5688 752 2 0.5897 16.563483 76.561391 2.253599
5689 753 1 -1.1794 5.232181 49.999693 28.624864
5690 753 2 0.5897 5.859114 50.733222 28.887332
5691 753 2 0.5897 5.041547 50.058843 27.644987
5692 754 1 -1.1794 -0.001206 59.171113 3.934341
5693 754 2 0.5897 0.035906 60.048655 4.412403
5694 754 2 0.5897 0.279418 58.440390 4.556670
5695 755 1 -1.1794 21.508068 96.571927 0.644862
5696 755 2 0.5897 21.498801 95.807685 0.000000
5697 755 2 0.5897 21.775000 96.241073 1.550005
5698 756 1 -1.1794 12.733573 87.963994 19.412260
5699 756 2 0.5897 12.062153 87.429878 18.898532
5700 756 2 0.5897 12.535541 88.938491 19.306719
5701 757 1 -1.1794 20.011711 50.249744 11.301026
5702 757 2 0.5897 20.439760 50.385851 12.194473
5703 757 2 0.5897 19.095417 49.868902 11.424974
5704 758 1 -1.1794 0.924920 86.674344 12.197332
5705 758 2 0.5897 1.503272 86.173908 11.553071
5706 758 2 0.5897 0.000005 86.294593 12.179370
5707 759 1 -1.1794 16.351096 92.703708 21.677672
5708 759 2 0.5897 17.295690 92.644765 21.354767
5709 759 2 0.5897 15.729266 92.447390 20.937652
5710 760 1 -1.1794 3.573764 82.146084 8.596419
5711 760 2 0.5897 4.471603 82.559024 8.749278
5712 760 2 0.5897 3.685232 81.270647 8.126115
5713 761 1 -1.1794 1.092612 84.388384 15.737185
5714 761 2 0.5897 0.852003 85.004107 16.487513
5715 761 2 0.5897 0.336887 84.348287 15.083525
5716 762 1 -1.1794 9.442524 89.720192 21.385519
5717 762 2 0.5897 9.215452 89.672063 20.412831
5718 762 2 0.5897 10.369015 90.080512 21.494075
5719 763 1 -1.1794 18.561716 70.745192 28.754756
5720 763 2 0.5897 18.557018 70.020209 29.443507
5721 763 2 0.5897 19.054316 71.539513 29.110283
5722 764 1 -1.1794 11.577439 70.889994 14.330767
5723 764 2 0.5897 12.373678 70.693263 13.758666
5724 764 2 0.5897 10.800293 71.130291 13.749130
5725 765 1 -1.1794 4.115959 77.100089 14.246040
5726 765 2 0.5897 3.785739 77.794599 13.606813
5727 765 2 0.5897 4.373576 76.276928 13.740038
5728 766 1 -1.1794 11.069425 54.924716 25.545678
5729 766 2 0.5897 11.580597 55.490039 26.193067
5730 766 2 0.5897 10.651944 54.156612 26.031195
5731 767 1 -1.1794 11.648050 70.119398 8.297707
5732 767 2 0.5897 11.919019 69.311208 7.774826
5733 767 2 0.5897 11.189951 69.833651 9.139428
5734 768 1 -1.1794 13.387053 66.443364 2.180407
5735 768 2 0.5897 13.680553 67.124313 2.851351
5736 768 2 0.5897 12.496261 66.075279 2.446870
5737 769 1 -1.1794 10.597813 52.082278 19.718461
5738 769 2 0.5897 10.161915 51.184586 19.782823
5739 769 2 0.5897 10.911074 52.234255 18.781033
5740 770 1 -1.1794 19.813286 83.607154 1.298173
5741 770 2 0.5897 19.810984 82.788126 1.871922
5742 770 2 0.5897 19.779746 84.420794 1.878574
5743 771 1 -1.1794 10.972382 62.675237 0.000001
5744 771 2 0.5897 11.277338 61.814945 0.408535
5745 771 2 0.5897 11.357895 63.442632 0.512333
5746 772 1 -1.1794 12.373100 53.124656 29.303086
5747 772 2 0.5897 13.207849 52.630647 29.059883
5748 772 2 0.5897 11.879946 53.376065 28.470264
5749 773 1 -1.1794 6.248213 79.726192 27.705162
5750 773 2 0.5897 7.220563 79.794333 27.481794
5751 773 2 0.5897 5.725312 79.557437 26.869641
5752 774 1 -1.1794 11.802067 50.409485 6.830253
5753 774 2 0.5897 11.252289 51.061377 7.352537
5754 774 2 0.5897 12.192292 49.729735 7.451272
5755 775 1 -1.1794 14.011921 89.190007 13.110669
5756 775 2 0.5897 13.666710 90.024508 13.540130
5757 775 2 0.5897 14.666707 88.746499 13.722678
5758 776 1 -1.1794 13.471215 91.911967 22.424244
5759 776 2 0.5897 13.619768 92.091650 21.451801
5760 776 2 0.5897 14.244852 92.264996 22.950416
5761 777 1 -1.1794 9.681892 80.437675 21.869260
5762 777 2 0.5897 10.114866 81.090978 21.248190
5763 777 2 0.5897 9.173639 79.759591 21.338336
5764 778 1 -1.1794 2.999280 86.279766 8.239131
5765 778 2 0.5897 3.435249 86.904838 8.886600
5766 778 2 0.5897 2.381367 85.667088 8.731888
5767 779 1 -1.1794 16.705478 63.959196 21.328852
5768 779 2 0.5897 16.309013 64.871223 21.223867
5769 779 2 0.5897 17.301886 63.763387 20.550420
5770 780 1 -1.1794 19.040982 97.448219 13.995068
5771 780 2 0.5897 18.480307 96.660924 13.738534
5772 780 2 0.5897 19.310694 97.947753 13.171830
5773 781 1 -1.1794 13.201071 48.721253 10.065705
5774 781 2 0.5897 12.223611 48.550192 10.189435
5775 781 2 0.5897 13.680992 48.549764 10.926093
5776 782 1 -1.1794 5.734984 92.154299 5.946838
5777 782 2 0.5897 6.521529 92.771742 5.936310
5778 782 2 0.5897 5.488582 91.912354 5.008356
5779 783 1 -1.1794 0.684279 53.997228 19.171827
5780 783 2 0.5897 0.336841 53.104819 18.883915
5781 783 2 0.5897 -0.000006 54.453659 19.740531
5782 784 1 -1.1794 0.692161 69.099611 27.657742
5783 784 2 0.5897 1.249678 68.546025 28.276384
5784 784 2 0.5897 0.006887 69.601414 28.185561
5785 785 1 -1.1794 12.746829 77.114275 4.791869
5786 785 2 0.5897 12.709115 76.552560 3.965399
5787 785 2 0.5897 13.317924 77.917624 4.623106
5788 786 1 -1.1794 21.775321 68.103663 2.920020
5789 786 2 0.5897 21.773859 67.449981 3.676788
5790 786 2 0.5897 21.361521 68.962860 3.220936
5791 787 1 -1.1794 10.224898 79.943923 5.669951
5792 787 2 0.5897 9.875882 79.632439 6.553786
5793 787 2 0.5897 11.198549 80.156591 5.752261
5794 788 1 -1.1794 13.568115 54.636739 21.390390
5795 788 2 0.5897 12.967691 54.106981 20.791350
5796 788 2 0.5897 14.212135 55.163406 20.835538
5797 789 1 -1.1794 10.845162 50.728748 3.806908
5798 789 2 0.5897 10.259683 49.982080 4.122662
5799 789 2 0.5897 11.117524 51.291600 4.587303
5800 790 1 -1.1794 5.455660 90.936015 14.355851
5801 790 2 0.5897 6.132242 90.353029 13.906003
5802 790 2 0.5897 4.542715 90.710854 14.015507
5803 791 1 -1.1794 17.800715 61.375293 21.252182
5804 791 2 0.5897 17.903442 61.662214 20.299751
5805 791 2 0.5897 17.739656 60.378084 21.295146
5806 792 1 -1.1794 15.913414 93.899815 27.849649
5807 792 2 0.5897 16.355117 94.601803 28.408318
5808 792 2 0.5897 15.127254 94.296695 27.375899
5809 793 1 -1.1794 7.581238 96.919790 28.721383
5810 793 2 0.5897 7.970382 97.707810 28.244317
5811 793 2 0.5897 7.090530 96.343496 28.067860
5812 794 1 -1.1794 15.064784 48.628904 16.680294
5813 794 2 0.5897 15.612220 48.818136 15.865122
5814 794 2 0.5897 14.093821 48.715096 16.457132
5815 795 1 -1.1794 17.925007 52.058951 2.076218
5816 795 2 0.5897 18.177120 51.234698 1.569220
5817 795 2 0.5897 17.453972 52.695127 1.465148
5818 796 1 -1.1794 4.478551 93.112736 14.434963
5819 796 2 0.5897 4.346436 94.059108 14.729795
5820 796 2 0.5897 5.137271 93.086752 13.683025
5821 797 1 -1.1794 9.281134 62.343179 18.400035
5822 797 2 0.5897 9.796356 61.993579 17.617522
5823 797 2 0.5897 9.439421 63.326378 18.490947
5824 798 1 -1.1794 16.316615 55.221237 26.239428
5825 798 2 0.5897 16.841039 54.898325 25.451579
5826 798 2 0.5897 15.553613 55.785156 25.923480
5827 799 1 -1.1794 18.093308 57.984420 20.928127
5828 799 2 0.5897 17.317335 58.229911 21.509160
5829 799 2 0.5897 17.912152 57.107433 20.483069
5830 800 1 -1.1794 0.684148 71.941633 19.310163
5831 800 2 0.5897 0.000012 71.223871 19.439679
5832 800 2 0.5897 1.480303 71.750767 19.884364
5833 801 1 -1.1794 3.291640 67.570579 11.973219
5834 801 2 0.5897 4.137446 67.999425 12.290557
5835 801 2 0.5897 2.506890 68.054704 12.360248
5836 802 1 -1.1794 6.710162 88.175758 25.304093
5837 802 2 0.5897 7.537675 88.699433 25.101640
5838 802 2 0.5897 6.387538 87.726911 24.470756
5839 803 1 -1.1794 11.451947 69.312628 29.401200
5840 803 2 0.5897 11.975375 70.139398 29.195105
5841 803 2 0.5897 11.310248 69.245379 30.388823
5842 804 1 -1.1794 13.538489 90.894446 18.058020
5843 804 2 0.5897 14.048025 91.523594 17.471040
5844 804 2 0.5897 13.552181 89.978783 17.656305
5845 805 1 -1.1794 19.338555 61.625594 29.469089
5846 805 2 0.5897 18.394755 61.639568 29.138868
5847 805 2 0.5897 19.390503 62.096209 30.349897
5848 806 1 -1.1794 3.373055 91.579114 25.970025
5849 806 2 0.5897 3.951733 92.113947 25.354326
5850 806 2 0.5897 2.694074 91.075544 25.435794
5851 807 1 -1.1794 3.534627 98.225426 23.150612
5852 807 2 0.5897 4.283950 98.550666 22.573780
5853 807 2 0.5897 2.785293 97.902088 22.572728
5854 808 1 -1.1794 21.169318 67.847447 21.865177
5855 808 2 0.5897 21.774998 68.534268 22.266958
5856 808 2 0.5897 20.238080 67.986270 22.202111
5857 809 1 -1.1794 9.367174 93.484256 11.018042
5858 809 2 0.5897 8.764737 93.435230 10.221383
5859 809 2 0.5897 10.119816 94.114807 10.828476
5860 810 1 -1.1794 14.382950 76.483292 9.383978
5861 810 2 0.5897 14.568648 75.592531 8.969175
5862 810 2 0.5897 13.705396 76.377316 10.111775
5863 811 1 -1.1794 16.167335 94.988647 8.877397
5864 811 2 0.5897 17.141225 94.813752 8.732657
5865 811 2 0.5897 16.051576 95.605663 9.655787
5866 812 1 -1.1794 3.968336 72.001074 24.911693
5867 812 2 0.5897 3.672767 71.864346 23.966207
5868 812 2 0.5897 4.625788 72.753602 24.949873
5869 813 1 -1.1794 3.830863 48.771215 25.671229
5870 813 2 0.5897 3.120327 48.718254 26.372895
5871 813 2 0.5897 4.717487 48.549896 26.077326
5872 814 1 -1.1794 12.659487 55.496872 14.729619
5873 814 2 0.5897 13.424506 55.945049 14.267144
5874 814 2 0.5897 11.994372 55.187271 14.050083
5875 815 1 -1.1794 7.113998 72.113179 9.129310
5876 815 2 0.5897 6.633684 71.273310 8.876489
5877 815 2 0.5897 7.910445 72.232984 8.536588
5878 816 1 -1.1794 8.739908 68.487227 0.664745
5879 816 2 0.5897 9.486972 68.490507 0.000000
5880 816 2 0.5897 7.896178 68.786912 0.219426
5881 817 1 -1.1794 20.106690 60.435274 5.186328
5882 817 2 0.5897 20.320941 59.702575 5.832277
5883 817 2 0.5897 19.882531 61.269213 5.690608
5884 818 1 -1.1794 9.857902 53.886840 21.370069
5885 818 2 0.5897 10.798062 53.834724 21.033345
5886 818 2 0.5897 9.235341 53.520864 20.678347
5887 819 1 -1.1794 21.616612 64.008573 9.531985
5888 819 2 0.5897 21.773832 63.290727 10.210202
5889 819 2 0.5897 21.774966 63.641549 8.615352
5890 820 1 -1.1794 21.774821 90.397849 29.995734
5891 820 2 0.5897 21.756031 90.486623 28.999859
5892 820 2 0.5897 21.078501 90.993180 30.396633
5893 821 1 -1.1794 7.644015 91.622308 14.877152
5894 821 2 0.5897 7.134274 92.433514 14.590605
5895 821 2 0.5897 8.173757 91.271523 14.104932
5896 822 1 -1.1794 7.554992 63.331819 26.573329
5897 822 2 0.5897 8.372968 63.905980 26.608761
5898 822 2 0.5897 7.518568 62.752920 27.387915
5899 823 1 -1.1794 4.268759 96.495016 24.458433
5900 823 2 0.5897 4.388335 95.616736 24.921387
5901 823 2 0.5897 3.846327 97.148236 25.086809
5902 824 1 -1.1794 11.231587 98.241358 13.110648
5903 824 2 0.5897 10.483815 98.548656 13.699210
5904 824 2 0.5897 10.891504 97.549921 12.473263
5905 825 1 -1.1794 7.201520 97.338082 12.035596
5906 825 2 0.5897 7.388909 97.615381 11.093264
5907 825 2 0.5897 6.213061 97.309793 12.184421
5908 826 1 -1.1794 15.146334 60.133567 6.578129
5909 826 2 0.5897 14.907632 59.210980 6.275053
5910 826 2 0.5897 14.450577 60.778641 6.262216
5911 827 1 -1.1794 10.549267 98.042159 24.522546
5912 827 2 0.5897 10.029694 98.550906 25.209001
5913 827 2 0.5897 10.521458 98.533325 23.651925
5914 828 1 -1.1794 18.894564 77.077703 18.069822
5915 828 2 0.5897 18.636262 76.112405 18.108302
5916 828 2 0.5897 18.071498 77.640077 17.990460
5917 829 1 -1.1794 2.126246 95.466597 5.580373
5918 829 2 0.5897 2.035070 96.337780 5.097956
5919 829 2 0.5897 1.938196 94.714524 4.948691
5920 830 1 -1.1794 6.237179 57.427050 27.412670
5921 830 2 0.5897 5.522969 58.121323 27.501483
5922 830 2 0.5897 6.077918 56.697976 28.078318
5923 831 1 -1.1794 19.894496 85.193435 8.468717
5924 831 2 0.5897 20.436379 85.958050 8.119824
5925 831 2 0.5897 18.922300 85.385160 8.334268
5926 832 1 -1.1794 12.945321 63.754263 13.198811
5927 832 2 0.5897 12.485679 63.987027 12.341752
5928 832 2 0.5897 13.764533 64.318467 13.301598
5929 833 1 -1.1794 11.455318 87.878639 7.884793
5930 833 2 0.5897 12.034660 88.164526 8.648096
5931 833 2 0.5897 10.631728 88.445324 7.860975
5932 834 1 -1.1794 5.578767 59.648155 21.133924
5933 834 2 0.5897 4.593853 59.820728 21.146677
5934 834 2 0.5897 5.911968 59.549086 22.071561
5935 835 1 -1.1794 0.601316 96.684249 24.812961
5936 835 2 0.5897 -0.005550 97.344087 25.256049
5937 835 2 0.5897 1.545885 96.862856 25.088440
5938 836 1 -1.1794 2.767262 61.072542 24.392888
5939 836 2 0.5897 1.857955 60.701584 24.581438
5940 836 2 0.5897 2.723721 62.071517 24.380538
5941 837 1 -1.1794 9.743136 65.918807 11.330404
5942 837 2 0.5897 10.460421 65.252548 11.126441
5943 837 2 0.5897 9.332636 66.238568 10.476447
5944 838 1 -1.1794 9.980207 51.030272 27.332008
5945 838 2 0.5897 9.667711 51.972344 27.453862
5946 838 2 0.5897 10.171140 50.624204 28.225681
5947 839 1 -1.1794 8.521253 93.184433 8.048250
5948 839 2 0.5897 8.828610 92.780776 7.186512
5949 839 2 0.5897 7.660822 92.758351 8.327737
5950 840 1 -1.1794 1.679580 86.677847 26.210297
5951 840 2 0.5897 1.043159 86.864045 25.461767
5952 840 2 0.5897 2.453770 86.147155 25.865339
5953 841 1 -1.1794 12.029271 64.272345 19.784024
5954 841 2 0.5897 11.498720 63.666599 19.191077
5955 841 2 0.5897 12.560110 64.907196 19.222621
5956 842 1 -1.1794 0.710404 75.208550 31.884505
5957 842 2 0.5897 -0.000120 75.500201 32.524892
5958 842 2 0.5897 1.595568 75.564676 32.183937
5959 843 1 -1.1794 20.431044 53.387053 7.051151
5960 843 2 0.5897 20.790155 53.244132 6.128865
5961 843 2 0.5897 19.998357 52.545485 7.374487
5962 844 1 -1.1794 4.193884 96.087394 3.073062
5963 844 2 0.5897 3.428694 96.629202 3.420810
5964 844 2 0.5897 4.600428 96.551477 2.286075
5965 845 1 -1.1794 8.747893 94.391249 27.907329
5966 845 2 0.5897 9.418773 93.741762 27.549436
5967 845 2 0.5897 8.033429 94.542835 27.224275
5968 846 1 -1.1794 2.390184 88.677430 27.052803
5969 846 2 0.5897 3.266069 89.159949 27.053109
5970 846 2 0.5897 1.906495 88.865203 26.197942
5971 847 1 -1.1794 10.308905 68.217425 16.515967
5972 847 2 0.5897 10.922770 68.748629 17.099912
5973 847 2 0.5897 9.704060 68.837798 16.016666
5974 848 1 -1.1794 11.029866 67.245916 9.506893
5975 848 2 0.5897 10.373668 67.795895 8.990243
5976 848 2 0.5897 11.447390 66.568797 8.900936
5977 849 1 -1.1794 15.738925 86.481425 14.075509
5978 849 2 0.5897 15.771355 87.168519 14.801354
5979 849 2 0.5897 15.534619 85.586616 14.472467
5980 850 1 -1.1794 15.209262 53.214112 12.572339
5981 850 2 0.5897 16.021454 53.663290 12.200072
5982 850 2 0.5897 15.033519 52.370009 12.065779
5983 851 1 -1.1794 8.622185 74.950357 9.799554
5984 851 2 0.5897 8.547465 73.953345 9.819102
5985 851 2 0.5897 9.430023 75.234254 10.316081
5986 852 1 -1.1794 9.706631 88.557898 26.490444
5987 852 2 0.5897 9.188812 89.412936 26.518268
5988 852 2 0.5897 10.647281 88.728190 26.784004
5989 853 1 -1.1794 19.455033 88.156474 12.836985
5990 853 2 0.5897 19.874260 88.848186 13.425018
5991 853 2 0.5897 19.155329 87.382296 13.394503
5992 854 1 -1.1794 17.281207 69.277032 17.264019
5993 854 2 0.5897 17.089652 68.441285 17.778638
5994 854 2 0.5897 17.755670 69.930369 17.853964
5995 855 1 -1.1794 21.307794 79.377375 28.350360
5996 855 2 0.5897 20.883031 79.448588 29.252859
5997 855 2 0.5897 21.775002 80.234464 28.133300
5998 856 1 -1.1794 2.442010 69.559802 7.771573
5999 856 2 0.5897 3.223496 69.284783 7.211533
6000 856 2 0.5897 1.882662 70.215380 7.264278
6001 857 1 -1.1794 13.532294 94.880569 11.028490
6002 857 2 0.5897 13.473083 95.232291 11.962720
6003 857 2 0.5897 14.000669 95.548366 10.449982
6004 858 1 -1.1794 15.474612 74.610946 31.296308
6005 858 2 0.5897 14.513117 74.531087 31.033343
6006 858 2 0.5897 15.825285 75.502855 31.010782
6007 859 1 -1.1794 6.664607 78.003083 22.956030
6008 859 2 0.5897 7.370738 78.636640 22.639827
6009 859 2 0.5897 6.723173 77.151617 22.434900
6010 860 1 -1.1794 2.315444 69.763802 10.290763
6011 860 2 0.5897 3.133404 69.353763 10.694261
6012 860 2 0.5897 2.029774 70.548364 10.841085
6013 861 1 -1.1794 14.907395 81.059987 13.654189
6014 861 2 0.5897 14.687836 80.364450 12.970067
6015 861 2 0.5897 15.443956 81.788581 13.228451
6016 862 1 -1.1794 15.700078 82.982692 30.511048
6017 862 2 0.5897 16.372804 82.836538 31.236360
6018 862 2 0.5897 14.796497 83.119306 30.917101
6019 863 1 -1.1794 13.362196 87.105704 10.048821
6020 863 2 0.5897 14.038788 87.673937 10.517152
6021 863 2 0.5897 12.899316 86.521101 10.715140
6022 864 1 -1.1794 11.234296 96.956036 31.675976
6023 864 2 0.5897 11.709522 97.578602 32.297725
6024 864 2 0.5897 10.805971 96.221706 32.202567
6025 865 1 -1.1794 15.503219 71.818591 0.217077
6026 865 2 0.5897 15.190480 72.546472 0.827308
6027 865 2 0.5897 16.469403 71.957773 0.000015
6028 866 1 -1.1794 0.395400 75.930677 13.200666
6029 866 2 0.5897 0.767180 75.900007 12.272852
6030 866 2 0.5897 0.441232 75.018737 13.608422
6031 867 1 -1.1794 18.607590 49.271431 26.283417
6032 867 2 0.5897 18.006931 48.911149 25.569691
6033 867 2 0.5897 18.057196 49.722914 26.985719
6034 868 1 -1.1794 11.589005 76.916483 9.846859
6035 868 2 0.5897 11.674215 76.068238 9.324153
6036 868 2 0.5897 11.624203 77.697323 9.223121
6037 869 1 -1.1794 4.506800 74.674869 7.045843
6038 869 2 0.5897 3.536389 74.806574 6.843468
6039 869 2 0.5897 5.000295 74.478346 6.198588
6040 870 1 -1.1794 15.183986 97.886424 4.630766
6041 870 2 0.5897 14.768281 98.549999 5.252745
6042 870 2 0.5897 15.240848 96.996171 5.082670
6043 871 1 -1.1794 11.819284 80.639368 17.552870
6044 871 2 0.5897 12.405119 81.345520 17.155194
6045 871 2 0.5897 11.212515 80.273371 16.847266
6046 872 1 -1.1794 5.269568 95.506714 19.311888
6047 872 2 0.5897 6.030627 95.520495 18.663351
6048 872 2 0.5897 4.405040 95.563435 18.812514
6049 873 1 -1.1794 6.594125 58.021721 30.424544
6050 873 2 0.5897 6.043693 58.287211 29.633001
6051 873 2 0.5897 7.563500 58.048056 30.180375
6052 874 1 -1.1794 5.292900 83.049253 14.261398
6053 874 2 0.5897 4.407279 82.835163 14.673516
6054 874 2 0.5897 5.217638 83.892288 13.728830
6055 875 1 -1.1794 12.151271 49.558150 12.143471
6056 875 2 0.5897 12.718377 49.667221 12.959862
6057 875 2 0.5897 11.205499 49.381128 12.415826
6058 876 1 -1.1794 4.739594 53.504955 0.724151
6059 876 2 0.5897 5.211286 54.295742 1.114232
6060 876 2 0.5897 4.121075 53.809671 -0.000129
6061 877 1 -1.1794 4.731944 51.514387 17.790006
6062 877 2 0.5897 4.127449 51.075385 17.125278
6063 877 2 0.5897 5.666120 51.527228 17.433426
6064 878 1 -1.1794 11.788606 50.299068 32.942948
6065 878 2 0.5897 12.112136 49.411082 32.616133
6066 878 2 0.5897 11.063606 50.632153 32.340097
6067 879 1 -1.1794 -0.000179 55.551810 23.537297
6068 879 2 0.5897 0.369921 56.330000 23.029906
6069 879 2 0.5897 0.672564 54.812048 23.550346
6070 880 1 -1.1794 17.749845 56.985463 28.147085
6071 880 2 0.5897 18.639193 56.986682 27.689856
6072 880 2 0.5897 17.023932 56.906049 27.463898
6073 881 1 -1.1794 19.545357 65.509427 0.023888
6074 881 2 0.5897 20.458873 65.915438 -0.001458
6075 881 2 0.5897 19.176291 65.576737 0.950850
6076 882 1 -1.1794 17.511677 98.061847 29.290908
6077 882 2 0.5897 17.623112 97.076881 29.422910
6078 882 2 0.5897 17.918997 98.549793 30.062917
6079 883 1 -1.1794 9.152052 72.592908 33.662522
6080 883 2 0.5897 8.837088 71.699235 33.342919
6081 883 2 0.5897 8.745234 73.311134 33.098031
6082 884 1 -1.1794 5.436342 66.469034 27.338331
6083 884 2 0.5897 5.635351 66.845361 26.433470
6084 884 2 0.5897 4.526967 66.053082 27.333694
6085 885 1 -1.1794 2.602984 65.040714 17.396671
6086 885 2 0.5897 3.538019 65.224736 17.093612
6087 885 2 0.5897 2.601547 64.854939 18.379262
6088 886 1 -1.1794 2.618092 90.992011 15.524351
6089 886 2 0.5897 2.779258 91.874681 15.082855
6090 886 2 0.5897 1.927140 90.483535 15.010505
6091 887 1 -1.1794 7.717711 55.599229 0.056995
6092 887 2 0.5897 6.734438 55.426310 -0.000210
6093 887 2 0.5897 8.212502 54.732083 0.000089
6094 888 1 -1.1794 18.394397 95.606194 2.908145
6095 888 2 0.5897 18.639892 95.672227 1.940999
6096 888 2 0.5897 17.560727 95.062320 3.004033
6097 889 1 -1.1794 4.308892 79.614117 28.738331
6098 889 2 0.5897 4.934521 79.909214 29.460486
6099 889 2 0.5897 3.954523 78.704567 28.955453
6100 890 1 -1.1794 0.833603 58.035475 15.107358
6101 890 2 0.5897 0.615768 57.244276 14.535911
6102 890 2 0.5897 -0.000751 58.556511 15.287291
6103 891 1 -1.1794 3.947219 56.161913 3.749124
6104 891 2 0.5897 3.252697 56.004912 3.046991
6105 891 2 0.5897 4.691096 56.709257 3.365637
6106 892 1 -1.1794 21.489804 96.371815 20.955605
6107 892 2 0.5897 21.774817 97.302840 20.727657
6108 892 2 0.5897 21.774995 95.748282 20.227681
6109 893 1 -1.1794 10.839542 97.649604 3.309391
6110 893 2 0.5897 10.405321 98.549989 3.336937
6111 893 2 0.5897 10.961389 97.309647 4.241905
6112 894 1 -1.1794 20.751011 52.223898 18.875628
6113 894 2 0.5897 20.534527 51.326419 18.491355
6114 894 2 0.5897 20.886445 52.880362 18.133528
6115 895 1 -1.1794 6.673770 81.060174 13.643867
6116 895 2 0.5897 7.485366 80.492940 13.504016
6117 895 2 0.5897 6.618473 81.331775 14.604687
6118 896 1 -1.1794 13.702127 92.590949 10.862307
6119 896 2 0.5897 13.031699 92.799614 11.574335
6120 896 2 0.5897 13.320017 91.914569 10.232623
6121 897 1 -1.1794 1.869254 82.465530 19.400102
6122 897 2 0.5897 2.010217 82.883514 18.502650
6123 897 2 0.5897 2.140731 83.110449 20.114511
6124 898 1 -1.1794 6.777164 90.674785 23.030776
6125 898 2 0.5897 6.263006 90.038555 23.605975
6126 898 2 0.5897 7.756830 90.546256 23.184837
6127 899 1 -1.1794 20.879120 66.165882 10.665000
6128 899 2 0.5897 21.755367 65.737327 10.885301
6129 899 2 0.5897 20.237198 66.017884 11.417352
6130 900 1 -1.1794 10.930265 91.747838 0.001175
6131 900 2 0.5897 10.554789 92.674668 -0.000663
6132 900 2 0.5897 10.662974 91.281598 0.844487
6133 901 1 -1.1794 0.587937 66.164592 16.821586
6134 901 2 0.5897 0.760480 66.780360 17.590390
6135 901 2 0.5897 1.301006 66.285671 16.131027
6136 902 1 -1.1794 7.569900 57.960079 8.949824
6137 902 2 0.5897 7.849409 57.142586 9.453391
6138 902 2 0.5897 7.712199 57.813464 7.970919
6139 903 1 -1.1794 20.837061 69.778588 18.188279
6140 903 2 0.5897 19.911931 69.439888 18.016765
6141 903 2 0.5897 20.847502 70.303038 19.039657
6142 904 1 -1.1794 4.989955 84.534850 1.772634
6143 904 2 0.5897 5.561132 83.714025 1.771236
6144 904 2 0.5897 5.192356 85.080377 2.585920
6145 905 1 -1.1794 15.646785 97.736532 28.170900
6146 905 2 0.5897 15.618728 98.550129 27.590148
6147 905 2 0.5897 15.322766 96.945389 27.652146
6148 906 1 -1.1794 20.825431 60.883563 17.446302
6149 906 2 0.5897 20.713115 60.132797 18.097252
6150 906 2 0.5897 20.019831 61.475195 17.477614
6151 907 1 -1.1794 5.798438 61.587028 33.662628
6152 907 2 0.5897 5.980422 60.608596 33.564891
6153 907 2 0.5897 6.380844 62.099081 33.031277
6154 908 1 -1.1794 18.235357 56.874096 9.578071
6155 908 2 0.5897 18.855503 56.599361 8.843265
6156 908 2 0.5897 17.427480 57.313676 9.185510
6157 909 1 -1.1794 6.888519 97.852024 0.712666
6158 909 2 0.5897 5.924433 97.626084 0.852269
6159 909 2 0.5897 6.967709 98.548958 -0.000083
6160 910 1 -1.1794 4.293711 66.452091 21.964471
6161 910 2 0.5897 5.005457 66.992844 22.412806
6162 910 2 0.5897 3.580804 66.224191 22.627665
6163 911 1 -1.1794 5.415853 51.600967 10.946044
6164 911 2 0.5897 5.358865 51.157746 11.840643
6165 911 2 0.5897 4.926017 52.472334 10.973968
6166 912 1 -1.1794 2.315026 58.140834 13.275469
6167 912 2 0.5897 2.904434 58.793805 12.799837
6168 912 2 0.5897 1.596192 57.827289 12.655011
6169 913 1 -1.1794 10.095858 93.734295 30.595286
6170 913 2 0.5897 10.227047 92.804672 30.939657
6171 913 2 0.5897 10.940018 94.256645 30.715886
6172 914 1 -1.1794 0.414832 62.151162 21.508022
6173 914 2 0.5897 0.000390 63.038865 21.708575
6174 914 2 0.5897 1.409649 62.247493 21.475450
6175 915 1 -1.1794 3.711758 56.125745 31.017787
6176 915 2 0.5897 4.611679 56.508850 30.809526
6177 915 2 0.5897 3.064703 56.386094 30.301171
6178 916 1 -1.1794 9.160730 79.049136 13.804879
6179 916 2 0.5897 9.759546 78.276806 14.016833
6180 916 2 0.5897 9.087291 79.151516 12.812848
6181 917 1 -1.1794 1.093080 58.045737 33.451650
6182 917 2 0.5897 1.781746 58.603863 32.988795
6183 917 2 0.5897 1.478739 57.147501 33.662458
6184 918 1 -1.1794 16.534324 71.853634 12.592345
6185 918 2 0.5897 15.674415 71.949289 12.090941
6186 918 2 0.5897 17.294830 71.809891 11.944490
6187 919 1 -1.1794 3.793830 73.891578 33.477597
6188 919 2 0.5897 3.320998 73.030115 33.662828
6189 919 2 0.5897 3.129915 74.639187 33.460342
6190 920 1 -1.1794 14.114275 72.188316 21.618581
6191 920 2 0.5897 13.977371 71.423911 22.248614
6192 920 2 0.5897 14.995302 72.622111 21.807297
6193 921 1 -1.1794 14.004113 57.892431 13.424088
6194 921 2 0.5897 14.960517 58.068647 13.656984
6195 921 2 0.5897 13.728916 58.489948 12.670936
6196 922 1 -1.1794 15.128296 51.569366 19.581990
6197 922 2 0.5897 15.103641 51.211249 18.648639
6198 922 2 0.5897 15.296394 52.554809 19.556560
6199 923 1 -1.1794 15.620295 62.840086 23.628703
6200 923 2 0.5897 15.498792 63.832658 23.622555
6201 923 2 0.5897 15.910069 62.545390 24.539299
6202 924 1 -1.1794 13.980799 52.055255 31.622208
6203 924 2 0.5897 13.987031 52.558691 32.486218
6204 924 2 0.5897 13.075211 52.122999 31.203493
6205 925 1 -1.1794 10.708375 74.545795 23.583110
6206 925 2 0.5897 10.962359 75.480499 23.334470
6207 925 2 0.5897 10.640256 73.987720 22.756120
6208 926 1 -1.1794 16.942299 91.138498 4.174042
6209 926 2 0.5897 17.194091 91.946034 3.640671
6210 926 2 0.5897 16.574608 90.437093 3.563440
6211 927 1 -1.1794 15.461228 74.580230 13.587143
6212 927 2 0.5897 15.883131 75.486626 13.608208
6213 927 2 0.5897 16.075263 73.937319 13.129293
6214 928 1 -1.1794 1.546928 73.075869 6.462144
6215 928 2 0.5897 1.713122 72.413240 7.192419
6216 928 2 0.5897 1.491617 73.994967 6.852272
6217 929 1 -1.1794 13.466222 69.590494 16.484260
6218 929 2 0.5897 13.138168 69.513650 17.425788
6219 929 2 0.5897 13.739457 68.687832 16.151778
6220 930 1 -1.1794 13.814688 82.109812 28.046504
6221 930 2 0.5897 14.584039 81.471951 28.011413
6222 930 2 0.5897 13.835389 82.609694 28.912350
6223 931 1 -1.1794 8.239885 78.374412 8.103963
6224 931 2 0.5897 8.179563 78.430955 9.100540
6225 931 2 0.5897 7.673336 77.617529 7.778156
6226 932 1 -1.1794 14.137168 51.285048 14.863165
6227 932 2 0.5897 14.350730 50.610113 14.156869
6228 932 2 0.5897 13.911474 50.814704 15.716299
6229 933 1 -1.1794 12.561857 74.189500 29.839978
6230 933 2 0.5897 11.748537 73.694296 30.145402
6231 933 2 0.5897 13.252548 73.536528 29.529215
6232 934 1 -1.1794 2.124185 64.897189 20.697064
6233 934 2 0.5897 2.825332 64.471518 21.269076
6234 934 2 0.5897 1.363702 65.199704 21.271650
6235 935 1 -1.1794 7.297033 74.920434 2.529816
6236 935 2 0.5897 6.734992 75.685878 2.843191
6237 935 2 0.5897 6.712262 74.229839 2.104233
6238 936 1 -1.1794 2.113351 75.291200 3.321517
6239 936 2 0.5897 1.432668 75.334275 4.052828
6240 936 2 0.5897 2.295411 76.213594 2.980867
6241 937 1 -1.1794 13.316046 85.729236 18.206143
6242 937 2 0.5897 13.819451 85.791060 19.067978
6243 937 2 0.5897 13.962158 85.714689 17.443039
6244 938 1 -1.1794 7.729373 90.998887 27.147848
6245 938 2 0.5897 7.659673 91.975266 27.352358
6246 938 2 0.5897 7.521328 90.470280 27.970826
6247 939 1 -1.1794 5.796262 64.347356 -0.003088
6248 939 2 0.5897 6.115036 64.984396 0.698740
6249 939 2 0.5897 5.237649 63.635211 0.422120
6250 940 1 -1.1794 16.218220 71.608433 9.296183
6251 940 2 0.5897 15.535101 72.024180 9.896601
6252 940 2 0.5897 16.961834 71.231260 9.848251
6253 941 1 -1.1794 21.362404 72.445679 30.637587
6254 941 2 0.5897 21.018735 71.507546 30.595172
6255 941 2 0.5897 21.235706 72.887540 29.749496
6256 942 1 -1.1794 11.946868 56.072027 7.775626
6257 942 2 0.5897 10.974800 56.306548 7.784794
6258 942 2 0.5897 12.082587 55.195278 8.237027
6259 943 1 -1.1794 21.077228 64.790493 19.364721
6260 943 2 0.5897 20.138962 65.125260 19.451827
6261 943 2 0.5897 21.579356 64.982786 20.207864
6262 944 1 -1.1794 10.300297 58.055963 27.600599
6263 944 2 0.5897 10.426561 58.930644 27.132634
6264 944 2 0.5897 10.509727 58.164574 28.572372
6265 945 1 -1.1794 1.005807 92.624181 0.598352
6266 945 2 0.5897 0.677851 91.857121 0.046932
6267 945 2 0.5897 1.365531 93.337393 -0.003252
6268 946 1 -1.1794 16.600480 92.012539 18.262016
6269 946 2 0.5897 17.377103 92.075273 18.888851
6270 946 2 0.5897 15.749830 91.984525 18.787000
6271 947 1 -1.1794 7.059234 89.024596 20.869699
6272 947 2 0.5897 7.447331 88.881962 21.780213
6273 947 2 0.5897 6.251850 89.610474 20.939546
6274 948 1 -1.1794 21.775502 77.749237 25.686699
6275 948 2 0.5897 21.539413 78.719440 25.741181
6276 948 2 0.5897 21.496060 77.387636 24.797230
6277 949 1 -1.1794 6.273901 97.118557 15.779542
6278 949 2 0.5897 5.536687 96.624270 15.318896
6279 949 2 0.5897 6.920107 97.463512 15.098790
6280 950 1 -1.1794 21.114479 73.956360 12.172116
6281 950 2 0.5897 20.492807 74.303197 11.469814
6282 950 2 0.5897 21.774976 73.332692 11.754048
6283 951 1 -1.1794 8.995531 90.009200 29.521098
6284 951 2 0.5897 8.822097 90.531013 30.356342
6285 951 2 0.5897 9.340578 89.101697 29.760641
6286 952 1 -1.1794 7.065000 74.550448 8.056388
6287 952 2 0.5897 7.535026 75.426140 7.945754
6288 952 2 0.5897 6.380899 74.628630 8.781573
6289 953 1 -1.1794 11.874626 50.077388 23.973240
6290 953 2 0.5897 12.303341 50.903672 23.607922
6291 953 2 0.5897 12.165117 49.285679 23.435828
6292 954 1 -1.1794 0.644189 63.585994 3.639535
6293 954 2 0.5897 1.617988 63.588844 3.866928
6294 954 2 0.5897 0.110562 63.386802 4.461462
6295 955 1 -1.1794 20.082400 67.629841 19.255631
6296 955 2 0.5897 19.600516 67.604127 20.131488
6297 955 2 0.5897 20.964470 67.167630 19.346806
6298 956 1 -1.1794 20.325031 53.950613 24.646077
6299 956 2 0.5897 20.889757 54.774836 24.687794
6300 956 2 0.5897 19.501489 54.137582 24.110520
6301 957 1 -1.1794 9.714497 58.682508 8.245281
6302 957 2 0.5897 10.201246 59.053279 9.036232
6303 957 2 0.5897 10.331847 58.649838 7.459271
6304 958 1 -1.1794 6.806027 83.529845 3.864023
6305 958 2 0.5897 7.136261 84.286313 4.428559
6306 958 2 0.5897 7.462660 83.349010 3.131813
6307 959 1 -1.1794 12.612978 48.589101 4.881478
6308 959 2 0.5897 12.827099 49.544127 5.086607
6309 959 2 0.5897 11.929396 48.549896 4.152657
6310 960 1 -1.1794 18.635005 76.805258 13.727599
6311 960 2 0.5897 19.042542 77.625853 13.326929
6312 960 2 0.5897 17.655551 76.787424 13.526722
6313 961 1 -1.1794 7.017067 56.518151 20.835524
6314 961 2 0.5897 6.641301 57.421708 21.041400
6315 961 2 0.5897 7.995081 56.599721 20.643603
6316 962 1 -1.1794 16.268345 79.254391 2.091488
6317 962 2 0.5897 16.445993 80.077001 2.631631
6318 962 2 0.5897 15.672916 79.483431 1.321420
6319 963 1 -1.1794 21.123892 96.534971 24.209439
6320 963 2 0.5897 21.444992 96.491967 23.263371
6321 963 2 0.5897 21.775000 96.063435 24.804176
6322 964 1 -1.1794 12.595836 77.621525 28.296567
6323 964 2 0.5897 12.718122 78.461174 27.767383
6324 964 2 0.5897 11.631829 77.356027 28.282400
6325 965 1 -1.1794 9.007962 89.775183 5.449348
6326 965 2 0.5897 9.646225 89.177289 4.964432
6327 965 2 0.5897 9.451442 90.650771 5.640847
6328 966 1 -1.1794 7.362443 63.574287 14.836597
6329 966 2 0.5897 7.051044 64.107845 14.050247
6330 966 2 0.5897 7.962614 62.838282 14.523403
6331 967 1 -1.1794 9.995748 79.433013 18.704319
6332 967 2 0.5897 10.486299 79.853342 19.467656
6333 967 2 0.5897 9.216156 80.006588 18.452827
6334 968 1 -1.1794 3.565918 67.499595 5.282081
6335 968 2 0.5897 2.758183 68.084366 5.356957
6336 968 2 0.5897 4.241852 67.775776 5.965336
6337 969 1 -1.1794 14.094620 97.707308 32.221107
6338 969 2 0.5897 13.872446 96.897977 32.764818
6339 969 2 0.5897 14.057863 98.519955 32.802704
6340 970 1 -1.1794 10.716328 89.761747 12.678367
6341 970 2 0.5897 10.096989 89.062545 13.035488
6342 970 2 0.5897 11.662979 89.472551 12.820555
6343 971 1 -1.1794 1.598927 57.021946 25.572772
6344 971 2 0.5897 2.129397 57.711860 25.080207
6345 971 2 0.5897 1.552051 56.185270 25.027083
6346 972 1 -1.1794 5.379118 79.664643 8.652545
6347 972 2 0.5897 4.558793 79.159215 8.920145
6348 972 2 0.5897 6.070002 79.024694 8.316175
6349 973 1 -1.1794 9.397607 58.666252 4.496789
6350 973 2 0.5897 10.266761 58.378737 4.094413
6351 973 2 0.5897 9.490679 59.591218 4.865264
6352 974 1 -1.1794 4.201443 49.867195 19.148843
6353 974 2 0.5897 3.619964 49.054639 19.108401
6354 974 2 0.5897 3.700041 50.614509 19.584869
6355 975 1 -1.1794 6.656830 69.955908 4.764315
6356 975 2 0.5897 6.339602 69.891259 5.710458
6357 975 2 0.5897 7.621383 70.219575 4.753445
6358 976 1 -1.1794 1.158250 72.880394 31.448401
6359 976 2 0.5897 0.230269 73.061295 31.774169
6360 976 2 0.5897 1.817512 73.315761 32.061450
6361 977 1 -1.1794 6.957428 51.739988 30.991324
6362 977 2 0.5897 7.513200 51.613252 30.169706
6363 977 2 0.5897 6.011664 51.930124 30.727925
6364 978 1 -1.1794 18.217276 53.164100 29.718883
6365 978 2 0.5897 17.336605 53.365059 30.147876
6366 978 2 0.5897 18.095568 52.455215 29.024139
6367 979 1 -1.1794 17.129268 70.085230 22.179114
6368 979 2 0.5897 16.616199 69.457742 22.764791
6369 979 2 0.5897 16.502389 70.750502 21.773608
6370 980 1 -1.1794 12.690696 59.467865 31.180000
6371 980 2 0.5897 12.031774 58.922309 31.697870
6372 980 2 0.5897 12.744411 60.386197 31.572150
6373 981 1 -1.1794 20.219043 57.854119 11.974845
6374 981 2 0.5897 21.115494 58.183651 11.678559
6375 981 2 0.5897 19.615270 57.772195 11.181910
6376 982 1 -1.1794 7.735501 72.255827 30.103549
6377 982 2 0.5897 7.579121 72.826223 30.909895
6378 982 2 0.5897 7.444916 71.318686 30.296751
6379 983 1 -1.1794 13.702707 67.651744 13.787120
6380 983 2 0.5897 14.078580 67.106636 13.037735
6381 983 2 0.5897 13.160208 68.403776 13.412765
6382 984 1 -1.1794 20.089005 68.972097 10.493817
6383 984 2 0.5897 19.621527 68.110453 10.296245
6384 984 2 0.5897 19.681311 69.705006 9.949181
6385 985 1 -1.1794 10.675878 60.965564 32.622665
6386 985 2 0.5897 10.073325 60.391285 32.068468
6387 985 2 0.5897 10.307151 61.038586 33.549330
6388 986 1 -1.1794 4.718582 77.464678 30.864440
6389 986 2 0.5897 4.368954 76.884324 31.599933
6390 986 2 0.5897 4.507646 78.421221 31.065763
6391 987 1 -1.1794 12.696433 50.366067 18.461819
6392 987 2 0.5897 12.907194 51.312417 18.706770
6393 987 2 0.5897 12.693498 50.272205 17.466238
6394 988 1 -1.1794 20.166558 92.032697 8.931201
6395 988 2 0.5897 21.164274 92.059180 8.869071
6396 988 2 0.5897 19.770837 92.499111 8.140086
6397 989 1 -1.1794 2.506326 89.870731 2.092210
6398 989 2 0.5897 3.278980 90.003244 1.471367
6399 989 2 0.5897 1.745752 90.453994 1.807022
6400 990 1 -1.1794 13.695022 69.067074 5.076448
6401 990 2 0.5897 14.167226 68.278967 4.681592
6402 990 2 0.5897 13.195154 69.550536 4.357841
6403 991 1 -1.1794 21.045742 94.079480 7.168108
6404 991 2 0.5897 20.219613 94.586784 6.922847
6405 991 2 0.5897 21.614252 93.955093 6.354890
6406 992 1 -1.1794 10.979972 94.747321 13.104294
6407 992 2 0.5897 11.515857 94.084757 12.581000
6408 992 2 0.5897 10.395840 94.263329 13.755861
6409 993 1 -1.1794 14.530713 82.485149 15.365784
6410 993 2 0.5897 14.260817 81.745527 15.982318
6411 993 2 0.5897 15.527416 82.565951 15.358413
6412 994 1 -1.1794 11.988799 81.953534 9.529201
6413 994 2 0.5897 11.582034 82.686634 10.074276
6414 994 2 0.5897 12.972486 81.914166 9.704730
6415 995 1 -1.1794 14.454756 77.152073 14.600559
6416 995 2 0.5897 14.131398 77.934866 15.132229
6417 995 2 0.5897 14.703052 76.407764 15.220521
6418 996 1 -1.1794 16.900061 66.586180 29.271134
6419 996 2 0.5897 16.264064 65.993927 29.765850
6420 996 2 0.5897 17.309251 67.240645 29.906931
6421 997 1 -1.1794 3.758623 82.227632 29.733886
6422 997 2 0.5897 3.111717 82.297798 30.493220
6423 997 2 0.5897 3.400403 81.593858 29.048313
6424 998 1 -1.1794 12.064563 75.061906 6.567078
6425 998 2 0.5897 12.695065 75.147361 5.795609
6426 998 2 0.5897 12.217010 75.814960 7.207133
6427 999 1 -1.1794 1.108084 81.934017 15.360249
6428 999 2 0.5897 2.044901 82.268873 15.259025
6429 999 2 0.5897 0.786968 82.117835 16.289278
6430 1000 1 -1.1794 11.345562 94.441820 33.660644
6431 1000 2 0.5897 10.563839 94.220515 33.077607
6432 1000 2 0.5897 12.127932 94.689668 33.089269
6433 1001 1 -1.1794 18.780605 75.077044 21.578588
6434 1001 2 0.5897 18.146314 75.591291 21.001331
6435 1001 2 0.5897 19.148198 74.303236 21.062742
6436 1002 1 -1.1794 11.819123 71.535035 0.746444
6437 1002 2 0.5897 11.205296 70.827160 0.396974
6438 1002 2 0.5897 12.386993 71.881980 0.000016
6439 1003 1 -1.1794 14.862747 65.179531 11.288265
6440 1003 2 0.5897 15.108983 64.632493 10.488192
6441 1003 2 0.5897 14.541183 66.078605 10.991174
6442 1004 1 -1.1794 10.230988 49.045142 21.449494
6443 1004 2 0.5897 9.490412 49.398339 20.877830
6444 1004 2 0.5897 9.844338 48.549970 22.227509
6445 1005 1 -1.1794 13.246920 87.225387 25.509629
6446 1005 2 0.5897 12.389927 87.443759 25.976402
6447 1005 2 0.5897 13.109717 87.275209 24.520339
6448 1006 1 -1.1794 11.541670 58.681003 24.251818
6449 1006 2 0.5897 11.967704 57.820320 24.530603
6450 1006 2 0.5897 11.044065 59.072649 25.025770
6451 1007 1 -1.1794 21.104781 85.233787 15.757603
6452 1007 2 0.5897 21.774992 85.882841 16.117527
6453 1007 2 0.5897 20.455771 84.990660 16.478488
6454 1008 1 -1.1794 16.084306 86.017730 21.308819
6455 1008 2 0.5897 16.244114 85.460196 22.123447
6456 1008 2 0.5897 15.209060 85.763485 20.897352
6457 1009 1 -1.1794 10.696233 81.699274 4.177697
6458 1009 2 0.5897 9.852313 81.411793 3.724758
6459 1009 2 0.5897 10.928317 82.628816 3.891186
6460 1010 1 -1.1794 12.480233 92.016340 26.101028
6461 1010 2 0.5897 13.404023 92.076770 26.479129
6462 1010 2 0.5897 11.837742 91.773959 26.827979
6463 1011 1 -1.1794 15.211512 64.839580 7.271145
6464 1011 2 0.5897 15.939900 65.335563 7.743853
6465 1011 2 0.5897 14.870393 64.107054 7.860250
6466 1012 1 -1.1794 0.433428 84.160195 12.893213
6467 1012 2 0.5897 0.498803 83.228201 12.536684
6468 1012 2 0.5897 1.347905 84.495107 13.120294
6469 1013 1 -1.1794 5.939537 64.993695 8.818853
6470 1013 2 0.5897 5.216224 64.389108 8.485247
6471 1013 2 0.5897 5.540197 65.864449 9.105759
6472 1014 1 -1.1794 8.105168 56.200008 27.156108
6473 1014 2 0.5897 8.381218 57.150598 27.014071
6474 1014 2 0.5897 7.853744 55.791290 26.278762
6475 1015 1 -1.1794 2.499277 83.820544 10.237063
6476 1015 2 0.5897 1.983299 84.056260 11.060595
6477 1015 2 0.5897 3.476741 83.809613 10.447878
6478 1016 1 -1.1794 0.455443 78.260821 29.178672
6479 1016 2 0.5897 0.000095 79.142569 29.055468
6480 1016 2 0.5897 0.000079 77.569298 28.617922
6481 1017 1 -1.1794 16.996748 84.412786 32.664108
6482 1017 2 0.5897 17.598883 85.209075 32.722044
6483 1017 2 0.5897 16.082826 84.661979 32.984497
6484 1018 1 -1.1794 10.671248 95.127497 16.331779
6485 1018 2 0.5897 9.919915 94.701263 16.835588
6486 1018 2 0.5897 11.179265 95.735347 16.942055
6487 1019 1 -1.1794 21.736501 68.781318 9.001513
6488 1019 2 0.5897 21.774964 69.408935 8.223942
6489 1019 2 0.5897 21.431313 67.881764 8.689001
6490 1020 1 -1.1794 3.430955 68.762489 28.090152
6491 1020 2 0.5897 3.128627 69.515893 27.506217
6492 1020 2 0.5897 4.188632 68.281900 27.648610
6493 1021 1 -1.1794 0.315696 53.135262 25.421762
6494 1021 2 0.5897 0.001977 54.067438 25.602395
6495 1021 2 0.5897 -0.000001 52.529871 26.152403
6496 1022 1 -1.1794 7.225652 64.235562 5.735882
6497 1022 2 0.5897 7.427471 63.289904 5.480933
6498 1022 2 0.5897 7.225503 64.808888 4.916555
6499 1023 1 -1.1794 13.264768 74.870096 13.367997
6500 1023 2 0.5897 12.958819 75.625366 13.947619
6501 1023 2 0.5897 13.354396 74.041258 13.920261
6502 1024 1 -1.1794 19.713076 72.948148 26.279416
6503 1024 2 0.5897 19.031104 73.360868 26.883217
6504 1024 2 0.5897 20.609850 72.976322 26.721007
6505 1025 1 -1.1794 14.937401 93.831167 25.234167
6506 1025 2 0.5897 15.719354 93.553534 24.676073
6507 1025 2 0.5897 14.122199 93.893251 24.658327
6508 1026 1 -1.1794 19.311518 74.487347 32.202423
6509 1026 2 0.5897 19.720067 75.148988 31.573679
6510 1026 2 0.5897 19.495439 74.765813 33.145095
6511 1027 1 -1.1794 8.906538 94.328531 4.050802
6512 1027 2 0.5897 9.339069 94.355222 3.149578
6513 1027 2 0.5897 8.129682 94.958015 4.066447
6514 1028 1 -1.1794 3.120440 84.147716 16.611175
6515 1028 2 0.5897 3.754884 84.909535 16.480364
6516 1028 2 0.5897 3.594737 83.393038 17.064500
6517 1029 1 -1.1794 4.198316 86.077976 22.548733
6518 1029 2 0.5897 3.587222 85.462217 23.046132
6519 1029 2 0.5897 4.701725 86.645783 23.200020
6520 1030 1 -1.1794 9.333084 74.354606 12.331029
6521 1030 2 0.5897 8.954832 73.517166 11.936542
6522 1030 2 0.5897 8.624747 74.824380 12.857878
6523 1031 1 -1.1794 5.563304 65.381496 23.920507
6524 1031 2 0.5897 6.111086 65.213666 23.100893
6525 1031 2 0.5897 5.822421 66.260704 24.320322
6526 1032 1 -1.1794 21.662722 73.870672 21.800185
6527 1032 2 0.5897 21.774983 73.100175 22.427666
6528 1032 2 0.5897 21.215105 73.556294 20.963044
6529 1033 1 -1.1794 11.620003 73.694761 8.507063
6530 1033 2 0.5897 10.858264 74.043291 9.053213
6531 1033 2 0.5897 12.478781 74.071879 8.853880
6532 1034 1 -1.1794 10.479968 62.822077 27.635036
6533 1034 2 0.5897 9.704053 62.572013 28.214193
6534 1034 2 0.5897 11.258644 63.071871 28.210593
6535 1035 1 -1.1794 5.758000 82.486116 24.525174
6536 1035 2 0.5897 5.170872 82.078275 23.825928
6537 1035 2 0.5897 6.694419 82.547595 24.179719
6538 1036 1 -1.1794 11.348583 78.603331 3.777745
6539 1036 2 0.5897 11.469644 78.169229 2.885053
6540 1036 2 0.5897 11.000054 79.532180 3.652175
6541 1037 1 -1.1794 0.608162 76.992265 5.311877
6542 1037 2 0.5897 0.602012 77.342922 4.375394
6543 1037 2 0.5897 1.482863 77.211474 5.744134
6544 1038 1 -1.1794 14.833625 53.961780 29.979267
6545 1038 2 0.5897 15.553689 54.654163 30.025231
6546 1038 2 0.5897 13.964654 54.365053 30.266077
6547 1039 1 -1.1794 4.178390 59.695260 23.417368
6548 1039 2 0.5897 4.889999 60.024962 24.037779
6549 1039 2 0.5897 3.862607 58.796048 23.720188
6550 1040 1 -1.1794 4.800142 55.595105 33.664953
6551 1040 2 0.5897 5.020760 54.748351 33.180871
6552 1040 2 0.5897 4.646385 56.327732 33.001919
6553 1041 1 -1.1794 2.656626 98.550002 19.112991
6554 1041 2 0.5897 1.869965 98.174400 19.602978
6555 1041 2 0.5897 3.471834 98.480054 19.687919
6556 1042 1 -1.1794 0.090012 59.678289 0.884654
6557 1042 2 0.5897 0.869868 60.000383 0.347923
6558 1042 2 0.5897 -0.000555 58.687938 0.779757
6559 1043 1 -1.1794 21.004378 61.934581 33.662495
6560 1043 2 0.5897 21.763785 61.856639 33.016565
6561 1043 2 0.5897 20.167621 61.590871 33.236233
6562 1044 1 -1.1794 1.290000 65.939734 4.484915
6563 1044 2 0.5897 1.466674 66.831189 4.067669
6564 1044 2 0.5897 2.156070 65.524491 4.763298
6565 1045 1 -1.1794 0.510726 96.818835 9.780342
6566 1045 2 0.5897 0.001451 97.578914 9.376709
6567 1045 2 0.5897 0.556109 96.063526 9.126546
6568 1046 1 -1.1794 9.024755 53.069454 29.511139
6569 1046 2 0.5897 8.482747 53.799314 29.927710
6570 1046 2 0.5897 9.957422 53.100249 29.870561
6571 1047 1 -1.1794 19.890949 68.000103 28.231792
6572 1047 2 0.5897 20.638390 67.339324 28.163215
6573 1047 2 0.5897 19.222999 67.679286 28.903297
6574 1048 1 -1.1794 14.900515 87.869965 16.788354
6575 1048 2 0.5897 14.600227 88.516410 16.086973
6576 1048 2 0.5897 14.261098 87.891211 17.556920
6577 1049 1 -1.1794 20.890357 68.016239 0.850225
6578 1049 2 0.5897 20.739701 69.004037 0.889685
6579 1049 2 0.5897 20.234941 67.554956 1.448260
6580 1050 1 -1.1794 5.757787 68.690806 31.135432
6581 1050 2 0.5897 5.490443 69.589201 31.483878
6582 1050 2 0.5897 5.384264 68.565106 30.216368
6583 1051 1 -1.1794 7.563802 95.296591 22.591330
6584 1051 2 0.5897 6.643821 94.905927 22.559416
6585 1051 2 0.5897 7.542343 96.159006 23.097078
6586 1052 1 -1.1794 1.286916 89.040618 24.094775
6587 1052 2 0.5897 1.701665 89.901141 23.799000
6588 1052 2 0.5897 0.292302 89.104640 24.013266
6589 1053 1 -1.1794 17.867712 85.450520 15.964271
6590 1053 2 0.5897 17.158628 85.408780 16.668159
6591 1053 2 0.5897 18.570427 86.107397 16.237593
6592 1054 1 -1.1794 19.929731 60.049858 20.560731
6593 1054 2 0.5897 20.489821 60.788386 20.185397
6594 1054 2 0.5897 19.456705 59.578862 19.816144
6595 1055 1 -1.1794 8.636402 53.416110 6.751454
6596 1055 2 0.5897 8.300529 53.271351 5.820737
6597 1055 2 0.5897 7.902137 53.228182 7.403787
6598 1056 1 -1.1794 17.542248 84.649077 13.914192
6599 1056 2 0.5897 17.585717 84.652889 12.915145
6600 1056 2 0.5897 16.938716 83.912196 14.218752
6601 1057 1 -1.1794 15.186345 48.670225 12.561278
6602 1057 2 0.5897 15.163254 48.571405 13.556115
6603 1057 2 0.5897 15.065349 49.632870 12.319049
6604 1058 1 -1.1794 12.519410 79.440556 10.533825
6605 1058 2 0.5897 12.538559 79.670627 9.560840
6606 1058 2 0.5897 13.000231 80.147186 11.052945
6607 1059 1 -1.1794 11.956933 92.392835 18.363404
6608 1059 2 0.5897 12.672396 92.827843 18.910104
6609 1059 2 0.5897 11.194197 92.135467 18.956697
6610 1060 1 -1.1794 16.629026 82.377285 22.759313
6611 1060 2 0.5897 16.381734 83.239334 22.316912
6612 1060 2 0.5897 15.798790 81.901522 23.049756
6613 1061 1 -1.1794 19.747640 81.479014 19.744082
6614 1061 2 0.5897 19.850269 82.247797 20.375304
6615 1061 2 0.5897 19.806965 80.620008 20.252599
6616 1062 1 -1.1794 8.928451 96.256860 25.773403
6617 1062 2 0.5897 9.097241 96.849783 26.560773
6618 1062 2 0.5897 8.695466 96.816843 24.978332
6619 1063 1 -1.1794 14.934961 91.611506 12.401235
6620 1063 2 0.5897 15.598395 92.227630 11.976680
6621 1063 2 0.5897 14.738099 90.853779 11.779065
6622 1064 1 -1.1794 13.443563 66.453096 7.591514
6623 1064 2 0.5897 13.786309 66.397620 6.653725
6624 1064 2 0.5897 13.110923 65.554771 7.878505
6625 1065 1 -1.1794 3.821252 84.517801 20.309909
6626 1065 2 0.5897 4.603655 85.125658 20.174424
6627 1065 2 0.5897 3.180535 84.937461 20.952845
6628 1066 1 -1.1794 2.588707 82.565623 22.599553
6629 1066 2 0.5897 1.787824 82.468568 23.190456
6630 1066 2 0.5897 3.123024 81.720609 22.620874
6631 1067 1 -1.1794 5.653603 84.042954 21.803461
6632 1067 2 0.5897 4.940043 83.781804 22.453564
6633 1067 2 0.5897 6.484509 84.290021 22.302012
6634 1068 1 -1.1794 20.754976 81.948614 29.061052
6635 1068 2 0.5897 20.149006 82.511987 28.499437
6636 1068 2 0.5897 20.222318 81.498542 29.777788
6637 1069 1 -1.1794 21.154823 74.324827 15.862607
6638 1069 2 0.5897 20.256440 74.011758 15.554556
6639 1069 2 0.5897 21.775027 74.379728 15.080091
6640 1070 1 -1.1794 17.965612 54.407322 14.132623
6641 1070 2 0.5897 18.820488 54.112203 14.559346
6642 1070 2 0.5897 17.412822 53.605798 13.904628
6643 1071 1 -1.1794 8.392414 86.669957 5.564250
6644 1071 2 0.5897 8.445781 85.763547 5.983264
6645 1071 2 0.5897 7.525610 87.101860 5.813469
6646 1072 1 -1.1794 9.989820 57.085913 13.455763
6647 1072 2 0.5897 10.746256 57.533303 13.932886
6648 1072 2 0.5897 9.751454 56.238318 13.929856
6649 1073 1 -1.1794 10.876273 61.405493 13.317077
6650 1073 2 0.5897 11.701246 61.899634 13.591385
6651 1073 2 0.5897 10.321402 61.208617 14.125383
6652 1074 1 -1.1794 1.467411 97.843811 14.326596
6653 1074 2 0.5897 2.062804 97.691910 13.537651
6654 1074 2 0.5897 0.512958 97.846572 14.028248
6655 1075 1 -1.1794 20.443825 53.603101 29.067466
6656 1075 2 0.5897 21.414499 53.806977 28.940081
6657 1075 2 0.5897 20.160255 52.906526 28.408397
6658 1076 1 -1.1794 19.469858 77.997814 5.643355
6659 1076 2 0.5897 19.942881 78.149108 4.775392
6660 1076 2 0.5897 20.138675 77.778060 6.353560
6661 1077 1 -1.1794 10.704488 54.075699 6.389278
6662 1077 2 0.5897 10.493271 54.539775 5.529033
6663 1077 2 0.5897 10.875307 53.106487 6.211939
6664 1078 1 -1.1794 6.568858 78.079342 32.054332
6665 1078 2 0.5897 6.760649 77.535340 32.871203
6666 1078 2 0.5897 7.069147 77.699813 31.276084
6667 1079 1 -1.1794 15.162113 61.271381 2.022875
6668 1079 2 0.5897 14.460665 60.718702 2.472894
6669 1079 2 0.5897 15.371871 62.068869 2.588574
6670 1080 1 -1.1794 12.308703 50.561555 26.968349
6671 1080 2 0.5897 12.189397 51.283298 27.650150
6672 1080 2 0.5897 12.674575 49.742595 27.410438
6673 1081 1 -1.1794 11.274369 94.988552 4.714467
6674 1081 2 0.5897 11.530842 95.580817 5.478302
6675 1081 2 0.5897 11.864660 94.181408 4.705743
6676 1082 1 -1.1794 4.893244 58.304402 32.056030
6677 1082 2 0.5897 4.062846 58.801708 32.307276
6678 1082 2 0.5897 5.692387 58.878503 32.234299
6679 1083 1 -1.1794 10.681279 69.835326 33.207724
6680 1083 2 0.5897 11.193286 69.068926 32.819808
6681 1083 2 0.5897 11.313641 70.462621 33.662277
6682 1084 1 -1.1794 4.311887 75.837861 9.543089
6683 1084 2 0.5897 4.965163 76.318047 8.957724
6684 1084 2 0.5897 3.655670 75.342550 8.973838
6685 1085 1 -1.1794 15.931838 67.456048 9.199065
6686 1085 2 0.5897 16.457466 68.242100 9.524393
6687 1085 2 0.5897 14.963290 67.593956 9.406179
6688 1086 1 -1.1794 13.065607 64.009667 29.280875
6689 1086 2 0.5897 12.598187 63.941445 30.162274
6690 1086 2 0.5897 14.054354 64.032044 29.428792
6691 1087 1 -1.1794 21.534000 85.165057 10.059236
6692 1087 2 0.5897 21.774998 84.882768 10.987801
6693 1087 2 0.5897 21.775000 86.126960 9.930156
6694 1088 1 -1.1794 1.863229 49.426657 11.970718
6695 1088 2 0.5897 1.583936 48.985997 11.117598
6696 1088 2 0.5897 2.563629 50.113687 11.777252
6697 1089 1 -1.1794 0.233757 87.956759 16.512373
6698 1089 2 0.5897 0.011331 87.618668 15.597921
6699 1089 2 0.5897 1.007813 87.440838 16.879337
6700 1090 1 -1.1794 1.905195 59.542143 8.801514
6701 1090 2 0.5897 1.315062 58.774479 9.051384
6702 1090 2 0.5897 1.935451 60.198458 9.555394
6703 1091 1 -1.1794 12.467368 95.554126 24.051447
6704 1091 2 0.5897 11.772617 95.607212 23.334158
6705 1091 2 0.5897 12.194479 96.128819 24.822978
6706 1092 1 -1.1794 15.508235 74.412783 24.908438
6707 1092 2 0.5897 15.108018 75.125956 24.332929
6708 1092 2 0.5897 16.117780 73.842832 24.357429
6709 1093 1 -1.1794 16.239245 70.762070 33.338086
6710 1093 2 0.5897 16.147917 70.668162 32.346703
6711 1093 2 0.5897 15.626502 71.482704 33.662482
6712 1094 1 -1.1794 0.816890 52.817906 2.006702
6713 1094 2 0.5897 0.559000 52.387646 1.141619
6714 1094 2 0.5897 1.151270 53.743960 1.831732
6715 1095 1 -1.1794 19.301589 98.547908 23.424618
6716 1095 2 0.5897 18.896304 98.545020 22.510431
6717 1095 2 0.5897 19.004783 97.733569 23.923374
6718 1096 1 -1.1794 7.714725 50.817136 27.367377
6719 1096 2 0.5897 7.377806 51.758652 27.373130
6720 1096 2 0.5897 7.970682 50.549037 28.296145
6721 1097 1 -1.1794 12.329482 78.207961 31.588995
6722 1097 2 0.5897 11.800746 78.987090 31.925738
6723 1097 2 0.5897 12.562592 78.353890 30.627557
6724 1098 1 -1.1794 17.923305 51.466120 13.923806
6725 1098 2 0.5897 18.713889 51.670008 14.501220
6726 1098 2 0.5897 17.132633 51.262263 14.501110
6727 1099 1 -1.1794 11.611635 92.349278 23.515003
6728 1099 2 0.5897 12.256965 92.862263 24.081038
6729 1099 2 0.5897 10.968137 91.859743 24.103447
6730 1100 1 -1.1794 15.711305 72.171525 26.059134
6731 1100 2 0.5897 16.522282 71.737033 25.667300
6732 1100 2 0.5897 14.998139 72.236951 25.361199
6733 1101 1 -1.1794 9.463061 86.243721 26.254414
6734 1101 2 0.5897 10.431560 86.490545 26.287395
6735 1101 2 0.5897 9.175588 86.148664 25.301354
6736 1102 1 -1.1794 18.376501 94.523725 24.251677
6737 1102 2 0.5897 18.777352 95.395802 24.532391
6738 1102 2 0.5897 18.856178 93.774191 24.707867
6739 1103 1 -1.1794 16.463173 86.676784 7.232167
6740 1103 2 0.5897 16.122392 85.836327 7.653476
6741 1103 2 0.5897 16.214400 87.459928 7.802077
6742 1104 1 -1.1794 3.607200 49.544521 3.014808
6743 1104 2 0.5897 2.650277 49.783570 3.179593
6744 1104 2 0.5897 3.708262 48.549668 3.022178
6745 1105 1 -1.1794 3.914829 60.689582 26.798820
6746 1105 2 0.5897 4.303711 61.085588 25.966985
6747 1105 2 0.5897 4.592794 60.097630 27.234659
6748 1106 1 -1.1794 5.757295 64.690769 32.713861
6749 1106 2 0.5897 5.287739 65.355993 32.133349
6750 1106 2 0.5897 5.536339 64.870295 33.672479
6751 1107 1 -1.1794 5.828238 89.245292 18.811908
6752 1107 2 0.5897 5.582832 89.588429 17.905248
6753 1107 2 0.5897 6.574834 88.585366 18.727697
6754 1108 1 -1.1794 18.560522 86.626355 5.873338
6755 1108 2 0.5897 18.850822 85.713386 6.160065
6756 1108 2 0.5897 18.033526 86.557831 5.026237
6757 1109 1 -1.1794 9.633976 98.316737 33.050129
6758 1109 2 0.5897 8.663552 98.550655 33.109789
6759 1109 2 0.5897 9.830932 97.552332 33.664046
6760 1110 1 -1.1794 2.724949 71.346297 31.626226
6761 1110 2 0.5897 3.443587 71.292273 32.319509
6762 1110 2 0.5897 1.938066 70.802945 31.918772
6763 1111 1 -1.1794 2.557708 50.894517 27.948828
6764 1111 2 0.5897 1.612342 50.573514 28.005745
6765 1111 2 0.5897 2.796231 51.060754 26.992024
6766 1112 1 -1.1794 1.475454 86.581025 14.325530
6767 1112 2 0.5897 2.105368 86.236180 15.021439
6768 1112 2 0.5897 1.673793 87.544269 14.144358
6769 1113 1 -1.1794 17.988144 95.325776 31.820486
6770 1113 2 0.5897 17.455892 94.720717 31.228362
6771 1113 2 0.5897 18.020747 96.241004 31.418870
6772 1114 1 -1.1794 21.242579 76.164509 32.801777
6773 1114 2 0.5897 21.775027 75.772577 32.051518
6774 1114 2 0.5897 20.965824 77.095398 32.563341
6775 1115 1 -1.1794 15.650834 72.233174 4.376034
6776 1115 2 0.5897 16.238748 71.426151 4.431451
6777 1115 2 0.5897 15.777708 72.794764 5.193665
6778 1116 1 -1.1794 4.034479 92.583376 27.812476
6779 1116 2 0.5897 4.340319 92.476003 28.758485
6780 1116 2 0.5897 3.930181 93.555878 27.604239
6781 1117 1 -1.1794 17.151761 87.776674 30.866628
6782 1117 2 0.5897 16.713510 87.122196 31.482741
6783 1117 2 0.5897 17.693961 88.425493 31.400532
6784 1118 1 -1.1794 4.122654 91.469924 20.913241
6785 1118 2 0.5897 4.964286 91.425864 20.374990
6786 1118 2 0.5897 3.349309 91.658172 20.307848
6787 1119 1 -1.1794 19.326948 73.712583 5.233852
6788 1119 2 0.5897 19.454002 73.263033 4.349679
6789 1119 2 0.5897 18.629787 74.424426 5.148718
6790 1120 1 -1.1794 0.727100 87.346322 19.528132
6791 1120 2 0.5897 1.454602 86.937263 18.977303
6792 1120 2 0.5897 0.000007 87.677692 18.926860
6793 1121 1 -1.1794 3.918162 92.577738 31.029311
6794 1121 2 0.5897 4.809647 92.992357 30.846706
6795 1121 2 0.5897 3.915059 92.185660 31.949238
6796 1122 1 -1.1794 12.199302 49.993925 0.813983
6797 1122 2 0.5897 11.277017 50.369641 0.723278
6798 1122 2 0.5897 12.418543 49.878865 1.782845
6799 1123 1 -1.1794 19.794625 65.455096 27.393391
6800 1123 2 0.5897 18.822527 65.688315 27.368201
6801 1123 2 0.5897 19.950599 64.750847 28.085998
6802 1124 1 -1.1794 20.737798 49.466329 3.486174
6803 1124 2 0.5897 21.361961 49.571360 4.260377
6804 1124 2 0.5897 19.846847 49.154463 3.816243
6805 1125 1 -1.1794 7.652846 70.838110 26.126929
6806 1125 2 0.5897 6.827392 70.456632 25.710877
6807 1125 2 0.5897 8.361468 70.939987 25.428734
6808 1126 1 -1.1794 12.915802 64.163364 25.903207
6809 1126 2 0.5897 11.979853 64.498369 26.011701
6810 1126 2 0.5897 13.171684 63.623582 26.705180
6811 1127 1 -1.1794 13.437465 49.169335 30.355047
6812 1127 2 0.5897 14.251607 49.482280 29.865928
6813 1127 2 0.5897 12.891296 49.959554 30.632993
6814 1128 1 -1.1794 -0.000183 78.003460 0.556768
6815 1128 2 0.5897 0.001418 77.262918 1.228776
6816 1128 2 0.5897 0.045274 78.883173 1.030095
6817 1129 1 -1.1794 20.535600 96.964397 10.350448
6818 1129 2 0.5897 20.291774 97.769000 10.891892
6819 1129 2 0.5897 21.392062 97.137050 9.863966
6820 1130 1 -1.1794 14.637304 83.285952 17.522328
6821 1130 2 0.5897 14.201433 82.952168 18.358154
6822 1130 2 0.5897 15.597448 83.006614 17.512693
6823 1131 1 -1.1794 3.467677 66.688030 30.300889
6824 1131 2 0.5897 4.200228 66.865338 30.958103
6825 1131 2 0.5897 3.738916 67.026856 29.399986
6826 1132 1 -1.1794 7.077766 78.176140 15.427053
6827 1132 2 0.5897 7.514578 79.069670 15.323132
6828 1132 2 0.5897 6.456855 78.017370 14.659419
6829 1133 1 -1.1794 18.615205 54.914260 5.332154
6830 1133 2 0.5897 18.879746 55.867920 5.188797
6831 1133 2 0.5897 18.468602 54.752105 6.307968
6832 1134 1 -1.1794 11.306133 70.064770 24.999038
6833 1134 2 0.5897 11.766172 69.952174 24.118307
6834 1134 2 0.5897 10.622411 70.790999 24.927511
6835 1135 1 -1.1794 3.090456 55.773640 0.109461
6836 1135 2 0.5897 3.741066 55.912020 0.856158
6837 1135 2 0.5897 2.393600 55.114595 0.392396
6838 1136 1 -1.1794 20.928080 71.164157 13.157487
6839 1136 2 0.5897 21.209643 70.639357 13.960798
6840 1136 2 0.5897 20.896352 72.136493 13.388907
6841 1137 1 -1.1794 6.591964 69.209853 27.785272
6842 1137 2 0.5897 7.557127 69.146765 27.531342
6843 1137 2 0.5897 6.308979 68.361657 28.233025
6844 1138 1 -1.1794 20.406212 81.490968 4.870190
6845 1138 2 0.5897 19.957216 81.132183 4.051853
6846 1138 2 0.5897 21.014978 80.793943 5.249083
6847 1139 1 -1.1794 0.196066 81.106397 32.359678
6848 1139 2 0.5897 0.999529 80.592559 32.058983
6849 1139 2 0.5897 -0.000622 81.832849 31.701209
6850 1140 1 -1.1794 15.683222 67.553138 32.083697
6851 1140 2 0.5897 16.434382 66.914772 31.915627
6852 1140 2 0.5897 15.109046 67.614595 31.267275
6853 1141 1 -1.1794 8.030625 54.163313 10.265801
6854 1141 2 0.5897 8.046782 53.697317 11.150441
6855 1141 2 0.5897 8.088325 55.151402 10.408458
6856 1142 1 -1.1794 21.528767 64.935467 33.429355
6857 1142 2 0.5897 21.775317 63.995037 33.663460
6858 1142 2 0.5897 20.824850 64.928545 32.719107
6859 1143 1 -1.1794 15.894402 92.283022 0.660740
6860 1143 2 0.5897 15.510705 91.522075 0.137542
6861 1143 2 0.5897 16.029289 92.000113 1.610355
6862 1144 1 -1.1794 8.050384 69.938091 7.450817
6863 1144 2 0.5897 9.018333 69.701301 7.367114
6864 1144 2 0.5897 7.640842 69.408908 8.193946
6865 1145 1 -1.1794 12.411315 76.783409 25.107000
6866 1145 2 0.5897 11.532337 76.720505 25.579696
6867 1145 2 0.5897 13.150987 76.801686 25.779720
6868 1146 1 -1.1794 9.129264 97.991240 20.020914
6869 1146 2 0.5897 8.459142 98.549999 20.509511
6870 1146 2 0.5897 9.926842 98.549998 19.793631
6871 1147 1 -1.1794 1.722737 55.261230 12.537881
6872 1147 2 0.5897 1.325399 55.692875 11.728063
6873 1147 2 0.5897 2.690191 55.505252 12.604857
6874 1148 1 -1.1794 1.315279 89.654926 17.746832
6875 1148 2 0.5897 0.541342 90.115619 17.312339
6876 1148 2 0.5897 1.993901 89.416321 17.052182
6877 1149 1 -1.1794 6.066848 89.472789 4.975067
6878 1149 2 0.5897 6.850966 89.172036 5.517937
6879 1149 2 0.5897 5.338626 89.784317 5.585511
6880 1150 1 -1.1794 18.923431 54.349309 9.356428
6881 1150 2 0.5897 19.701914 54.562060 8.765919
6882 1150 2 0.5897 18.084795 54.339695 8.811821
6883 1151 1 -1.1794 12.153906 89.360308 32.672846
6884 1151 2 0.5897 11.612963 90.026860 32.159923
6885 1151 2 0.5897 12.265875 88.530465 32.126198
6886 1152 1 -1.1794 8.705777 59.532724 14.123145
6887 1152 2 0.5897 9.336230 59.030166 14.714723
6888 1152 2 0.5897 8.055667 60.043066 14.686090
6889 1153 1 -1.1794 6.035414 72.332982 2.988847
6890 1153 2 0.5897 6.660113 71.791829 3.551790
6891 1153 2 0.5897 5.436564 72.872912 3.580332
6892 1154 1 -1.1794 2.584140 87.389042 4.123869
6893 1154 2 0.5897 2.035196 87.774263 4.865667
6894 1154 2 0.5897 3.116000 86.615988 4.469576
6895 1155 1 -1.1794 6.329887 72.351383 20.072329
6896 1155 2 0.5897 5.713508 72.878298 20.657511
6897 1155 2 0.5897 6.900590 71.757084 20.638991
6898 1156 1 -1.1794 7.418389 79.106360 5.197972
6899 1156 2 0.5897 6.892225 79.718766 5.787980
6900 1156 2 0.5897 7.929148 78.457520 5.762005
6901 1157 1 -1.1794 3.285766 74.368218 13.855262
6902 1157 2 0.5897 2.630024 74.965743 13.393781
6903 1157 2 0.5897 3.854992 73.908586 13.173558
6904 1158 1 -1.1794 12.051047 94.104517 21.262901
6905 1158 2 0.5897 12.468427 93.887188 22.145263
6906 1158 2 0.5897 11.163638 94.540609 21.412328
6907 1159 1 -1.1794 3.900072 71.873131 11.379600
6908 1159 2 0.5897 3.173018 71.981277 12.057609
6909 1159 2 0.5897 3.545899 72.099165 10.472148
6910 1160 1 -1.1794 15.991400 78.959907 17.564663
6911 1160 2 0.5897 15.785092 78.730805 18.515952
6912 1160 2 0.5897 15.224545 79.465918 17.169838
6913 1161 1 -1.1794 -0.001041 95.096763 6.000653
6914 1161 2 0.5897 0.000328 96.064852 6.251258
6915 1161 2 0.5897 0.020841 94.537849 6.829590
6916 1162 1 -1.1794 13.251303 89.604952 27.144358
6917 1162 2 0.5897 12.797230 88.850420 27.618172
6918 1162 2 0.5897 12.798558 89.768780 26.267898
6919 1163 1 -1.1794 8.509875 51.634109 12.203528
6920 1163 2 0.5897 9.237492 50.985481 12.426807
6921 1163 2 0.5897 8.229862 51.506348 11.252071
6922 1164 1 -1.1794 4.908846 62.786641 27.223003
6923 1164 2 0.5897 5.442863 62.076070 27.681168
6924 1164 2 0.5897 4.561359 63.432742 27.902565
6925 1165 1 -1.1794 14.126420 58.177700 24.757089
6926 1165 2 0.5897 13.923389 58.372240 25.716741
6927 1165 2 0.5897 14.834143 57.473339 24.702280
6928 1166 1 -1.1794 8.434487 59.795904 29.160636
6929 1166 2 0.5897 8.113553 59.225442 28.404612
6930 1166 2 0.5897 8.851434 60.628582 28.796215
6931 1167 1 -1.1794 18.900821 62.139963 11.785996
6932 1167 2 0.5897 18.566153 62.121686 10.843838
6933 1167 2 0.5897 18.448505 61.421478 12.314379
6934 1168 1 -1.1794 18.704341 76.753792 25.525381
6935 1168 2 0.5897 19.376881 76.100996 25.176746
6936 1168 2 0.5897 17.991699 76.262661 26.026311
6937 1169 1 -1.1794 9.087667 77.815118 32.225316
6938 1169 2 0.5897 9.454896 77.860548 31.296296
6939 1169 2 0.5897 8.646511 78.683402 32.452172
6940 1170 1 -1.1794 16.749448 73.927687 22.248269
6941 1170 2 0.5897 16.182673 74.469944 21.628007
6942 1170 2 0.5897 17.307316 73.289380 21.717848
6943 1171 1 -1.1794 1.113895 82.992650 28.965672
6944 1171 2 0.5897 1.497231 82.380917 28.273692
6945 1171 2 0.5897 0.810144 82.456377 29.753166
6946 1172 1 -1.1794 0.809009 78.785778 8.725404
6947 1172 2 0.5897 0.000605 78.325996 8.357867
6948 1172 2 0.5897 1.430525 78.106285 9.115284
6949 1173 1 -1.1794 12.418204 77.798550 17.271422
6950 1173 2 0.5897 13.292141 78.281066 17.329842
6951 1173 2 0.5897 12.563697 76.823764 17.440608
6952 1174 1 -1.1794 14.327985 86.553739 12.388326
6953 1174 2 0.5897 13.729288 86.836139 13.137867
6954 1174 2 0.5897 14.496332 85.569868 12.448791
6955 1175 3 0 0.804529 83.486152 2.764139
6956 1176 3 0 5.194708 53.021530 2.907568
6957 1177 3 0 4.206268 58.012363 25.741789
6958 1178 3 0 16.448093 69.964527 28.819566
6959 1179 3 0 3.697812 88.427554 -0.000469
6960 1180 3 0 1.968884 96.529565 21.060622
6961 1181 3 0 15.914725 50.856904 16.634348
6962 1182 3 0 19.530869 54.977108 27.611974
6963 1183 3 0 9.080578 70.091408 9.710952
6964 1184 3 0 6.869392 77.768265 3.539330
6965 1185 3 0 3.634527 66.460374 24.814565
6966 1186 3 0 7.466602 57.718484 14.013298
6967 1187 3 0 13.329886 59.359878 4.379188
6968 1188 3 0 14.601102 96.153760 21.103099
6969 1189 3 0 19.851573 91.335078 28.303838
6970 1190 3 0 6.593831 76.010823 24.470940
6971 1191 3 0 18.058662 70.823616 13.799273
6972 1192 3 0 15.178192 55.450865 3.593687
6973 1193 3 0 10.052360 48.783301 10.529828
6974 1194 3 0 19.901410 72.285674 32.466658
6975 1195 3 0 16.753637 75.475392 8.740249
6976 1196 3 0 0.490025 58.888403 25.948666
6977 1197 3 0 20.610516 57.342594 15.448850
6978 1198 3 0 5.964491 65.056267 16.944453
6979 1199 3 0 11.717703 88.887441 10.700931
6980 1200 3 0 14.049491 50.908642 7.484184
6981 1201 3 0 3.421332 56.336803 6.598192
6982 1202 3 0 15.411376 77.399050 12.628307
6983 1203 3 0 9.131323 64.482339 20.334981
6984 1204 3 0 4.477233 90.028194 31.363195
6985 1205 3 0 13.119377 58.620659 19.891233
6986 1206 3 0 9.207031 73.626186 21.128771
6987 1207 3 0 16.934157 78.557856 4.146123
6988 1208 3 0 20.407852 61.838831 15.265871
6989 1209 3 0 21.319068 76.284428 4.417579
6990 1210 3 0 13.163337 55.520053 24.664123
6991 1211 3 0 12.107374 67.307692 15.633643
6992 1212 3 0 4.597848 91.446214 8.589063
6993 1213 3 0 9.087143 78.580956 16.782207
6994 1214 3 0 9.954503 64.384540 25.155965
6995 1215 3 0 20.070963 90.466803 21.909275
6996 1216 3 0 6.122853 83.635649 10.529903
6997 1217 3 0 1.421117 72.452179 16.018695
6998 1218 3 0 6.783804 94.340367 20.438328
6999 1219 3 0 17.858591 68.793973 27.582460
7000 1220 3 0 7.992193 93.013067 23.444021
7001 1221 3 0 19.334105 94.803962 8.928443
7002 1222 3 0 12.731831 62.486237 20.858547
7003 1223 3 0 10.283097 55.052543 10.122888
7004 1224 3 0 20.139717 96.023509 30.868727
7005 1225 3 0 4.192864 96.024179 27.074305
7006 1226 3 0 3.385517 77.744585 10.129062
7007 1227 3 0 11.658021 95.477292 10.042858
7008 1228 3 0 15.514707 68.523680 25.846040
7009 1229 3 0 2.406836 78.478086 24.641403
7010 1230 3 0 3.666915 52.312380 15.364793
7011 1231 3 0 2.891025 64.974497 32.967746
7012 1232 3 0 16.410466 63.595150 17.285666
7013 1233 3 0 11.719232 76.700848 15.412852
7014 1234 3 0 13.186597 79.827072 15.768219
7015 1235 3 0 5.641427 64.566100 26.155745
7016 1236 3 0 4.547940 61.976826 4.552990
7017 1237 3 0 16.911973 57.249819 11.323307
7018 1238 3 0 19.514605 58.169004 4.087404
7019 1239 3 0 0.164048 87.102704 3.466393
7020 1240 3 0 5.460316 86.078774 13.752206
7021 1241 3 0 15.661593 80.873289 29.887122
7022 1242 3 0 12.611917 61.054834 33.663888
7023 1243 3 0 11.231519 93.075255 15.768623
7024 1244 3 0 5.615276 56.334532 6.770743
7025 1245 3 0 15.870973 70.009508 19.045291
7026 1246 3 0 11.795912 59.413917 13.484188
7027 1247 3 0 5.810662 75.249334 20.962178
7028 1248 3 0 14.269735 50.949179 0.422080
7029 1249 3 0 20.308289 51.122764 2.103511
7030 1250 3 0 8.829721 93.691110 15.213277
7031 1251 3 0 13.304347 53.735278 18.649285
7032 1252 3 0 16.767110 95.832901 20.889872
7033 1253 3 0 1.524085 67.442629 19.619394
7034 1254 3 0 10.608131 77.354289 21.760121
7035 1255 3 0 8.823953 61.962745 12.697882
7036 1256 3 0 2.000284 74.725334 10.880160
7037 1257 3 0 3.226469 98.552126 28.963695
7038 1258 3 0 16.888054 61.398787 16.556814
7039 1259 3 0 6.759669 86.908170 22.467090
7040 1260 3 0 11.083263 94.316136 19.225619
7041 1261 3 0 17.180178 97.558347 15.269644
7042 1262 3 0 16.124006 65.981747 12.990396
7043 1263 3 0 15.825695 84.980616 18.594647
7044 1264 3 0 10.063856 90.784053 16.398672
7045 1265 3 0 10.383421 77.029619 17.650481
7046 1266 3 0 2.643291 66.508294 2.226629
7047 1267 3 0 10.732158 84.595297 25.210560
7048 1268 3 0 4.938096 48.825417 13.610733
7049 1269 3 0 14.905838 97.256162 8.753186
7050 1270 3 0 2.552360 85.074527 18.529175
7051 1271 3 0 21.782000 64.207572 26.995613
7052 1272 3 0 14.256442 48.781389 23.983313
7053 1273 3 0 15.763051 56.533845 33.662481
7054 1274 3 0 9.550309 76.570152 8.531514
7055 1275 3 0 9.191530 95.324749 9.123172
7056 1276 3 0 3.681589 66.560714 10.058082
7057 1277 3 0 19.489602 69.485738 31.366094
7058 1278 3 0 15.212111 69.788721 8.577284
7059 1279 3 0 1.357653 92.183888 19.517683
7060 1280 3 0 3.129125 80.695180 19.082776
7061 1281 3 0 21.766775 65.628917 17.445239
7062 1282 3 0 0.424372 89.783283 27.538651
7063 1283 3 0 15.520205 78.813821 24.249922
7064 1284 3 0 17.627430 57.643482 32.205499
7065 1285 3 0 8.358333 66.413818 24.589178
7066 1286 3 0 6.554490 77.530187 27.075044
7067 1287 3 0 9.223693 54.237426 13.031124
7068 1288 3 0 19.834919 59.158279 26.663136
7069 1289 3 0 20.098120 97.553114 2.554722
7070 1290 3 0 20.293350 63.842551 11.740870
7071 1291 3 0 21.621101 73.411343 4.781721
7072 1292 3 0 18.338287 55.783914 16.616601
7073 1293 3 0 15.802301 92.535973 16.279900
7074 1294 3 0 9.797070 49.257862 24.309866
7075 1295 3 0 12.462420 74.602875 11.013175
7076 1296 3 0 0.128539 93.237159 4.832421
7077 1297 3 0 18.157687 76.430411 3.763862
7078 1298 3 0 14.860996 52.883596 21.686213
7079 1299 3 0 8.316353 64.181244 7.644862
7080 1300 3 0 8.393705 72.815759 26.740324
7081 1301 3 0 4.080025 61.231432 0.357762
7082 1302 3 0 17.751676 57.725960 1.326634
7083 1303 3 0 14.129599 62.879686 11.387951
7084 1304 3 0 16.763358 61.019015 23.159439
7085 1305 3 0 20.375937 53.644813 20.521406
7086 1306 3 0 15.395393 82.457337 2.206253
7087 1307 3 0 21.250091 64.612259 1.584612
7088 1308 3 0 15.698010 55.905802 14.512048
7089 1309 3 0 9.079040 63.638804 16.305075
7090 1310 3 0 21.778371 68.729516 31.812148
7091 1311 3 0 14.946231 53.653687 25.529187
7092 1312 3 0 6.264471 57.575495 0.000766
7093 1313 3 0 1.579617 59.712630 2.503366
7094 1314 3 0 1.249389 56.576482 3.757208
7095 1315 3 0 1.442171 87.455429 9.766232
7096 1316 3 0 0.857110 51.006511 32.718522
7097 1317 3 0 20.946531 71.620784 10.277783
7098 1318 3 0 19.484677 50.840935 24.893235
7099 1319 3 0 13.603535 95.351394 6.285296
7100 1320 3 0 10.248994 48.900805 6.426961
7101 1321 3 0 3.997216 89.464711 20.012372
7102 1322 3 0 9.637321 98.318933 5.680314
7103 1323 3 0 9.746379 68.227188 28.114003
7104 1324 3 0 21.107825 89.960843 4.426388
7105 1325 3 0 19.223726 70.432582 11.974337
7106 1326 3 0 21.777177 67.989658 11.505892
7107 1327 3 0 17.580371 84.519054 4.334831
7108 1328 3 0 17.819360 72.197217 5.754258
7109 1329 3 0 8.957371 75.993627 30.244596
7110 1330 3 0 5.962127 54.399072 11.206700
7111 1331 3 0 8.200512 59.756730 0.804606
7112 1332 3 0 18.504244 62.991304 16.983241
7113 1333 3 0 3.240594 61.314544 22.257691
7114 1334 3 0 2.168436 96.451761 30.184825
7115 1335 3 0 15.112918 85.973047 1.251642
7116 1336 3 0 14.883998 75.859083 3.488904
7117 1337 3 0 18.164244 81.450422 2.596124
7118 1338 3 0 12.579323 54.116251 4.568600
7119 1339 3 0 9.019660 54.906385 8.325190
7120 1340 3 0 12.821243 69.981025 1.938387
7121 1341 3 0 21.774999 65.431487 6.296827
7122 1342 3 0 12.723296 96.325110 14.990225
7123 1343 3 0 2.699318 54.945851 33.659250
7124 1344 3 0 18.704643 78.250401 20.007051
7125 1345 3 0 4.359725 65.568994 19.950573
7126 1346 3 0 5.165937 72.141961 13.158667
7127 1347 3 0 16.924673 55.643485 31.437298
7128 1348 3 0 16.029125 89.950560 20.334210
7129 1349 3 0 1.874745 75.469530 22.952544
7130 1350 3 0 14.216933 94.923266 30.385022
7131 1351 3 0 13.739370 56.967057 29.048929
7132 1352 3 0 14.799264 98.363049 14.341947
7133 1353 3 0 3.546789 93.257055 16.615869
7134 1354 3 0 -0.000090 62.287888 11.564038
7135 1355 3 0 17.895485 78.428958 24.350340
7136 1356 3 0 17.687665 63.484030 23.239222
7137 1357 3 0 5.613551 72.251831 29.512521
7138 1358 3 0 9.729842 68.997274 23.895787
7139 1359 3 0 7.974051 95.714428 16.659093
7140 1360 3 0 3.385964 69.118808 31.984530
7141 1361 3 0 18.971414 66.774344 3.071255
7142 1362 3 0 16.428895 87.912109 2.069841
7143 1363 3 0 3.378248 92.938928 12.280422
7144 1364 3 0 -0.001553 61.045715 23.457280
7145 1365 3 0 2.891931 67.300872 17.428030
7146 1366 3 0 21.669924 90.710742 1.571148
7147 1367 3 0 15.449873 85.838678 3.815582
7148 1368 3 0 1.943087 79.180372 10.965538
7149 1369 3 0 21.340270 92.724624 13.000536
7150 1370 3 0 18.781859 96.888127 26.450916
7151 1371 3 0 3.761489 54.100319 9.825903
7152 1372 3 0 9.976790 58.226118 19.603122
7153 1373 3 0 8.390381 93.098581 25.603746
7154 1374 3 0 10.300276 96.905990 22.187788
7155 1375 4 2.0 7.790275 58.447943 19.468235
7156 1376 4 2.0 14.200434 70.218133 25.003363
7157 1377 4 2.0 7.015809 95.656984 31.421107
7158 1378 4 2.0 12.624346 97.115487 21.192682
7159 1379 4 2.0 5.663392 77.745202 6.573702
7160 1380 4 2.0 3.416790 51.947890 12.760887
7161 1381 4 2.0 4.811364 87.313211 31.056262
7162 1382 4 2.0 19.204476 72.965294 10.290638
7163 1383 4 2.0 20.182515 77.187267 27.096106
7164 1384 4 2.0 1.074420 98.568887 23.782371
7165 1385 4 2.0 5.227518 70.074561 7.677704
7166 1386 4 2.0 10.612388 67.874729 19.105242
7167 1387 4 2.0 11.013703 82.417088 25.309046
7168 1388 4 2.0 9.253357 67.317661 22.556402
7169 1389 4 2.0 6.850142 89.811931 9.310815
7170 1390 4 2.0 13.020721 63.590123 17.518815
7171 1391 4 2.0 18.576764 91.377699 30.200228
7172 1392 5 -1.0 19.504426 49.240457 20.750203
7173 1393 5 -1.0 6.636817 53.664572 4.439473
7174 1394 5 -1.0 11.373805 60.611478 5.368100
7175 1395 5 -1.0 19.107290 50.840864 8.452978
7176 1396 5 -1.0 9.817212 58.808642 30.561054
7177 1397 5 -1.0 4.421313 50.011772 5.004524
7178 1398 5 -1.0 20.438304 74.909321 2.943363
7179 1399 5 -1.0 12.417856 87.483206 29.422920
7180 1400 5 -1.0 15.527804 79.744485 31.786716
7181 1401 5 -1.0 0.588033 82.000899 10.676138
7182 1402 5 -1.0 15.157091 83.740025 24.074379
7183 1403 5 -1.0 5.596453 63.643187 30.786949
7184 1404 5 -1.0 7.027513 70.676024 32.622133
7185 1405 5 -1.0 10.458960 78.955975 33.668666
7186 1406 5 -1.0 7.298137 52.482963 20.445734
7187 1407 5 -1.0 7.488382 51.071137 7.286574
7188 1408 5 -1.0 16.002071 68.083187 3.483673
7189 1409 5 -1.0 12.543645 67.603585 31.166539
7190 1410 5 -1.0 19.575579 84.637620 33.501191
7191 1411 5 -1.0 6.129255 60.492594 0.701394
7192 1412 5 -1.0 5.942597 94.033129 26.851895
7193 1413 5 -1.0 11.309846 90.260736 6.819547
7194 1414 5 -1.0 6.298996 61.762997 25.339941
7195 1415 5 -1.0 16.994260 90.572892 7.936216
7196 1416 5 -1.0 0.663744 61.712853 2.485784
7197 1417 5 -1.0 14.975131 80.936560 18.787277
7198 1418 5 -1.0 11.614172 70.744882 27.113668
7199 1419 5 -1.0 17.718469 89.959232 22.083366
7200 1420 5 -1.0 17.025853 97.558690 9.997156
7201 1421 5 -1.0 17.198203 63.077378 15.148368
7202 1422 5 -1.0 5.834604 65.760463 14.862986
7203 1423 5 -1.0 9.158968 78.342552 3.943256
7204 1424 5 -1.0 11.279972 80.669600 7.889503
7205 1425 5 -1.0 2.574973 58.970716 20.941103
7206 1426 6 -0.683000 10.369674 52.800741 11.826615
7207 1426 9 0.145000 11.129577 52.527023 12.989420
7208 1426 8 0.040000 11.966185 53.227335 13.052319
7209 1426 8 0.040000 11.502017 51.500541 12.949057
7210 1426 8 0.040000 10.490681 52.646191 13.867600
7211 1426 7 0.418000 10.962680 52.686934 11.064431
7212 1427 6 -0.683000 11.332028 80.146773 28.212103
7213 1427 9 0.145000 10.243802 79.487211 28.832774
7214 1427 8 0.040000 9.435816 80.201717 29.008682
7215 1427 8 0.040000 10.572449 79.052160 29.779731
7216 1427 8 0.040000 9.887257 78.692369 28.173462
7217 1427 7 0.418000 11.626724 80.846026 28.820159
7218 1428 6 -0.683000 15.018835 53.329840 17.209497
7219 1428 9 0.145000 15.309382 54.234712 16.160079
7220 1428 8 0.040000 15.720139 53.686711 15.308447
7221 1428 8 0.040000 16.028691 54.979660 16.508868
7222 1428 8 0.040000 14.386959 54.735865 15.857472
7223 1428 7 0.418000 15.855678 52.900694 17.456600
7224 1429 6 -0.683000 20.950672 64.981236 4.004692
7225 1429 9 0.145000 19.934767 63.995983 3.963438
7226 1429 8 0.040000 20.190940 63.178497 4.641962
7227 1429 8 0.040000 19.833307 63.618537 2.943022
7228 1429 8 0.040000 18.990442 64.445923 4.278705
7229 1429 7 0.418000 21.775879 64.552824 3.720037
7230 1430 6 -0.683000 10.730470 70.652899 11.540539
7231 1430 9 0.145000 11.248638 69.365327 11.820090
7232 1430 8 0.040000 10.741621 68.624335 11.197058
7233 1430 8 0.040000 11.098105 69.132663 12.877073
7234 1430 8 0.040000 12.317885 69.356294 11.595993
7235 1430 7 0.418000 9.780940 70.630160 11.748885
7236 1431 6 -0.683000 13.238734 67.175194 26.840049
7237 1431 9 0.145000 11.912445 67.519271 27.196499
7238 1431 8 0.040000 11.786261 67.416490 28.277155
7239 1431 8 0.040000 11.211942 66.863975 26.673154
7240 1431 8 0.040000 11.724200 68.555728 26.906824
7241 1431 7 0.418000 13.376277 66.250972 27.109176
7242 1432 6 -0.683000 5.940160 80.206072 11.163553
7243 1432 9 0.145000 5.130045 79.742950 12.228317
7244 1432 8 0.040000 5.738250 79.157098 12.921980
7245 1432 8 0.040000 4.319089 79.128578 11.829688
7246 1432 8 0.040000 4.708217 80.602879 12.753838
7247 1432 7 0.418000 6.300211 79.421319 10.716273
7248 1433 6 -0.683000 9.194153 95.811297 29.729702
7249 1433 9 0.145000 10.272357 96.381708 29.010956
7250 1433 8 0.040000 11.194357 96.271814 29.587275
7251 1433 8 0.040000 10.069311 97.439402 28.826392
7252 1433 8 0.040000 10.377813 95.861216 28.056201
7253 1433 7 0.418000 9.125112 96.293265 30.571410
7254 1434 6 -0.683000 7.802309 57.320282 22.904400
7255 1434 9 0.145000 8.611228 58.442097 22.601627
7256 1434 8 0.040000 8.979731 58.360602 21.576020
7257 1434 8 0.040000 9.450955 58.485831 23.299447
7258 1434 8 0.040000 8.011114 59.349738 22.699814
7259 1434 7 0.418000 8.361616 56.530614 22.808836
7260 1435 6 -0.683000 2.727472 96.223695 9.438003
7261 1435 9 0.145000 2.861143 95.793204 10.780128
7262 1435 8 0.040000 3.866596 96.025507 11.139854
7263 1435 8 0.040000 2.681501 94.716923 10.838047
7264 1435 8 0.040000 2.126166 96.316697 11.396045
7265 1435 7 0.418000 3.391887 95.742379 8.916063
7266 1436 6 -0.683000 16.668273 49.415777 5.220622
7267 1436 9 0.145000 15.254465 49.342903 5.202561
7268 1436 8 0.040000 14.920314 48.559028 5.886804
7269 1436 8 0.040000 14.912928 49.125381 4.187650
7270 1436 8 0.040000 14.845049 50.303311 5.524403
7271 1436 7 0.418000 17.002707 48.549996 4.930607
7272 1437 6 -0.683000 9.809894 55.426560 1.736486
7273 1437 9 0.145000 10.670808 54.601752 0.972935
7274 1437 8 0.040000 10.206235 53.623112 0.828925
7275 1437 8 0.040000 11.625734 54.490757 1.492361
7276 1437 8 0.040000 10.839945 55.069082 0.000009
7277 1437 7 0.418000 9.678398 54.986357 2.593494
7278 1438 6 -0.683000 7.931337 94.946738 6.703030
7279 1438 9 0.145000 8.996559 95.876499 6.629979
7280 1438 8 0.040000 8.758517 96.753213 7.237442
7281 1438 8 0.040000 9.152497 96.172214 5.589670
7282 1438 8 0.040000 9.905364 95.406412 7.012967
7283 1438 7 0.418000 7.139269 95.391942 6.356687
7284 1439 6 -0.683000 1.277910 72.180868 24.711718
7285 1439 9 0.145000 0.943809 72.459789 23.364473
7286 1439 8 0.040000 0.853775 73.540152 23.226580
7287 1439 8 0.040000 0.000000 71.969749 23.113289
7288 1439 8 0.040000 1.734784 72.076514 22.715591
7289 1439 7 0.418000 0.558271 72.532345 25.263185
7290 1440 6 -0.683000 4.362598 63.016576 6.991549
7291 1440 9 0.145000 3.065395 63.579133 6.918860
7292 1440 8 0.040000 2.399543 63.051972 7.606644
7293 1440 8 0.040000 2.688893 63.497934 5.896285
7294 1440 8 0.040000 3.118668 64.632825 7.202560
7295 1440 7 0.418000 4.283568 62.082106 6.734540
7296 1441 6 -0.683000 6.202262 57.176642 10.972720
7297 1441 9 0.145000 5.139024 56.794019 11.825724
7298 1441 8 0.040000 4.741760 57.676804 12.332849
7299 1441 8 0.040000 5.502201 56.071218 12.560344
7300 1441 8 0.040000 4.349708 56.335113 11.225744
7301 1441 7 0.418000 6.886898 57.580298 11.532959
7302 1442 6 -0.683000 4.580079 94.161469 9.878168
7303 1442 9 0.145000 5.625470 94.497604 10.771846
7304 1442 8 0.040000 6.456427 93.799982 10.640940
7305 1442 8 0.040000 5.256249 94.452457 11.799292
7306 1442 8 0.040000 5.966699 95.512323 10.553908
7307 1442 7 0.418000 4.298133 93.256636 10.095691
7308 1443 6 -0.683000 -0.000005 74.769273 29.213454
7309 1443 9 0.145000 0.643244 74.700144 27.954112
7310 1443 8 0.040000 0.818252 73.654178 27.690234
7311 1443 8 0.040000 1.592510 75.239499 27.998802
7312 1443 8 0.040000 0.000000 75.160981 27.200816
7313 1443 7 0.418000 0.594137 74.353047 29.860974
7314 1444 6 -0.683000 1.770775 52.955002 28.509057
7315 1444 9 0.145000 2.482853 54.156210 28.742586
7316 1444 8 0.040000 1.916444 55.000474 28.341708
7317 1444 8 0.040000 3.462343 54.099527 28.261552
7318 1444 8 0.040000 2.615123 54.287284 29.819115
7319 1444 7 0.418000 1.668881 52.865868 27.546142
7320 1445 6 -0.683000 20.747241 87.693354 26.237442
7321 1445 9 0.145000 20.754690 88.583676 27.338241
7322 1445 8 0.040000 20.800838 89.613341 26.974973
7323 1445 8 0.040000 21.617715 88.371257 27.973909
7324 1445 8 0.040000 19.837190 88.443731 27.914608
7325 1445 7 0.418000 21.572875 87.840584 25.745321
7326 1446 6 -0.683000 11.333866 57.999641 1.860856
7327 1446 9 0.145000 11.589674 58.373332 0.519436
7328 1446 8 0.040000 12.088456 57.551317 0.000002
7329 1446 8 0.040000 12.220680 59.265274 0.502795
7330 1446 8 0.040000 10.640619 58.591844 0.024323
7331 1446 7 0.418000 12.193833 57.812046 2.274133
7332 1447 6 -0.683000 8.171044 86.082923 20.996034
7333 1447 9 0.145000 8.948714 84.905386 20.881466
7334 1447 8 0.040000 9.786567 84.951386 21.581602
7335 1447 8 0.040000 9.319938 84.811024 19.858092
7336 1447 8 0.040000 8.323554 84.042022 21.120981
7337 1447 7 0.418000 8.752118 86.831420 20.777772
7338 1448 6 -0.683000 20.079375 84.526705 13.620701
7339 1448 9 0.145000 20.878945 83.363048 13.515441
7340 1448 8 0.040000 21.775056 83.478722 14.130184
7341 1448 8 0.040000 21.158520 83.205297 12.470951
7342 1448 8 0.040000 20.304669 82.504064 13.870325
7343 1448 7 0.418000 20.615191 85.271592 13.298870
7344 1449 6 -0.683000 8.870101 73.517040 7.029894
7345 1449 9 0.145000 7.995782 72.843224 6.143311
7346 1449 8 0.040000 8.149271 71.764564 6.228388
7347 1449 8 0.040000 8.191029 73.170151 5.119102
7348 1449 8 0.040000 6.964134 73.084409 6.409999
7349 1449 7 0.418000 9.777271 73.283922 6.768685
7350 1450 6 -0.683000 11.410015 66.965888 22.823614
7351 1450 9 0.145000 11.986464 65.970997 21.997546
7352 1450 8 0.040000 13.073064 66.087357 21.989572
7353 1450 8 0.040000 11.591797 66.065045 20.982953
7354 1450 8 0.040000 11.730557 64.986388 22.395851
7355 1450 7 0.418000 11.654041 67.827847 22.445446
7356 1451 6 -0.683000 15.236664 73.825804 18.908879
7357 1451 9 0.145000 16.205228 74.845914 18.748412
7358 1451 8 0.040000 16.252383 75.451089 19.657171
7359 1451 8 0.040000 15.937634 75.472457 17.894103
7360 1451 8 0.040000 17.179631 74.385614 18.568826
7361 1451 7 0.418000 14.383248 74.264381 19.066566
7362 1452 6 -0.683000 5.410413 56.437931 15.216016
7363 1452 9 0.145000 5.349480 56.018075 16.566756
7364 1452 8 0.040000 4.830120 55.058478 16.627947
7365 1452 8 0.040000 4.820978 56.768953 17.159103
7366 1452 8 0.040000 6.366344 55.904625 16.949777
7367 1452 7 0.418000 4.494116 56.529962 14.903826
7368 1453 6 -0.683000 3.190320 51.994297 33.061004
7369 1453 9 0.145000 4.078777 51.102550 32.412991
7370 1453 8 0.040000 5.109430 51.373210 32.655483
7371 1453 8 0.040000 3.922362 51.151943 31.332667
7372 1453 8 0.040000 3.879511 50.086531 32.761687
7373 1453 7 0.418000 3.390875 52.886984 32.731732
7374 1454 6 -0.683000 11.440819 86.676103 16.735637
7375 1454 9 0.145000 10.657888 85.642488 17.304097
7376 1454 8 0.040000 9.913102 85.306999 16.578118
7377 1454 8 0.040000 10.162993 86.012713 18.205218
7378 1454 8 0.040000 11.310054 84.806240 17.566696
7379 1454 7 0.418000 10.835319 87.403672 16.513047
7380 1455 6 -0.683000 18.226671 87.850769 8.932848
7381 1455 9 0.145000 18.122149 88.986378 9.771869
7382 1455 8 0.040000 18.700317 89.809974 9.345587
7383 1455 8 0.040000 18.498148 88.740380 10.767920
7384 1455 8 0.040000 17.072224 89.279859 9.843398
7385 1455 7 0.418000 19.168740 87.613947 8.888642
7386 1456 6 -0.683000 7.237151 87.316665 1.638585
7387 1456 9 0.145000 7.689761 86.482344 2.689082
7388 1456 8 0.040000 7.356708 85.456923 2.510505
7389 1456 8 0.040000 7.293036 86.845182 3.640379
7390 1456 8 0.040000 8.781567 86.508625 2.718400
7391 1456 7 0.418000 6.265746 87.273040 1.637420
7392 1457 6 -0.683000 1.734704 84.911209 29.889094
7393 1457 9 0.145000 1.423046 85.673357 28.737361
7394 1457 8 0.040000 1.951388 85.262488 27.873448
7395 1457 8 0.040000 1.717396 86.713481 28.897069
7396 1457 8 0.040000 0.346120 85.624908 28.559953
7397 1457 7 0.418000 2.696097 84.973100 30.021102
7398 1458 6 -0.683000 5.303017 80.828644 31.983421
7399 1458 9 0.145000 6.365675 81.205938 32.839516
7400 1458 8 0.040000 5.974871 81.808633 33.663127
7401 1458 8 0.040000 7.104780 81.778353 32.273767
7402 1458 8 0.040000 6.835403 80.305006 33.241094
7403 1458 7 0.418000 4.905922 81.648227 31.642639
7404 1459 6 -0.683000 5.522836 92.422113 2.630080
7405 1459 9 0.145000 6.154263 93.663138 2.886294
7406 1459 8 0.040000 6.260149 93.803323 3.964923
7407 1459 8 0.040000 5.556125 94.472122 2.459935
7408 1459 8 0.040000 7.143452 93.660930 2.422515
7409 1459 7 0.418000 4.648028 92.453871 3.053442
7410 1460 6 -0.683000 17.042961 72.326214 29.950744
7411 1460 9 0.145000 16.610135 72.744235 28.669179
7412 1460 8 0.040000 17.147577 73.650716 28.379780
7413 1460 8 0.040000 15.534787 72.936914 28.691754
7414 1460 8 0.040000 16.821017 71.952008 27.947033
7415 1460 7 0.418000 16.842828 73.048963 30.569706
7416 1461 6 -0.683000 8.649455 68.996549 33.115346
7417 1461 9 0.145000 8.883529 69.018851 31.719208
7418 1461 8 0.040000 7.954738 68.793030 31.189437
7419 1461 8 0.040000 9.648839 68.281365 31.465395
7420 1461 8 0.040000 9.230872 70.014366 31.433041
7421 1461 7 0.418000 8.342608 68.101446 33.339326
7422 1462 6 -0.683000 10.662101 91.112141 10.883580
7423 1462 9 0.145000 10.488733 90.627635 9.564608
7424 1462 8 0.040000 11.466211 90.465123 9.103706
7425 1462 8 0.040000 9.915151 91.352406 8.981756
7426 1462 8 0.040000 9.944290 89.681200 9.602448
7427 1462 7 0.418000 11.147731 91.952012 10.817907
7428 1463 6 -0.683000 9.763511 67.669171 6.847394
7429 1463 9 0.145000 9.637790 66.266702 6.994928
7430 1463 8 0.040000 10.571325 65.782905 6.697005
7431 1463 8 0.040000 8.813978 65.906554 6.373935
7432 1463 8 0.040000 9.429003 66.036931 8.042402
7433 1463 7 0.418000 9.948303 67.842259 5.908551
7434 1464 6 -0.683000 12.808726 79.161066 22.094593
7435 1464 9 0.145000 12.679376 78.053845 22.967416
7436 1464 8 0.040000 11.724818 78.114929 23.495992
7437 1464 8 0.040000 13.505063 78.054603 23.683130
7438 1464 8 0.040000 12.709953 77.133059 22.380213
7439 1464 7 0.418000 12.778148 79.962912 22.643812
7440 1465 6 -0.683000 12.721789 89.919266 29.554000
7441 1465 9 0.145000 13.813865 89.693943 30.426404
7442 1465 8 0.040000 13.890708 88.626427 30.647331
7443 1465 8 0.040000 13.665762 90.258369 31.350252
7444 1465 8 0.040000 14.732489 90.030168 29.939914
7445 1465 7 0.418000 11.921520 89.611404 30.012610
7446 1466 6 -0.683000 1.735107 86.499714 0.486024
7447 1466 9 0.145000 1.027027 87.718334 0.620468
7448 1466 8 0.040000 1.498706 88.485160 0.000951
7449 1466 8 0.040000 1.029801 88.028648 1.668182
7450 1466 8 0.040000 -0.003451 87.568848 0.289773
7451 1466 7 0.418000 2.645202 86.663415 0.786793
7452 1467 6 -0.683000 9.568735 58.926087 33.659762
7453 1467 9 0.145000 8.536962 58.049982 33.244583
7454 1467 8 0.040000 8.697638 57.062277 33.683817
7455 1467 8 0.040000 8.534412 57.979562 32.154151
7456 1467 8 0.040000 7.576869 58.445560 33.584184
7457 1467 7 0.418000 10.407750 58.549208 33.344251
7458 1468 6 -0.683000 4.118711 62.276033 29.898241
7459 1468 9 0.145000 5.176687 61.385108 30.200614
7460 1468 8 0.040000 4.954631 60.399504 29.783985
7461 1468 8 0.040000 5.297129 61.315622 31.284437
7462 1468 8 0.040000 6.099693 61.766122 29.757356
7463 1468 7 0.418000 3.313693 61.911902 30.304303
7464 1469 6 -0.683000 4.927087 80.661057 5.484482
7465 1469 9 0.145000 5.537358 81.705552 6.220069
7466 1469 8 0.040000 4.770487 82.397818 6.576413
7467 1469 8 0.040000 6.251201 82.232596 5.582371
7468 1469 8 0.040000 6.064061 81.276755 7.075818
7469 1469 7 0.418000 4.467892 81.071873 4.732216
7470 1470 6 -0.683000 17.138342 80.804361 11.823506
7471 1470 9 0.145000 17.497541 79.573098 12.423053
7472 1470 8 0.040000 18.402068 79.708227 13.021280
7473 1470 8 0.040000 17.670438 78.825016 11.645566
7474 1470 8 0.040000 16.681805 79.241458 13.069721
7475 1470 7 0.418000 17.880829 81.073185 11.256073
7476 1471 6 -0.683000 12.656347 57.855167 17.823174
7477 1471 9 0.145000 11.925313 56.968194 16.996519
7478 1471 8 0.040000 11.740877 57.439723 16.028043
7479 1471 8 0.040000 10.977075 56.717751 17.478317
7480 1471 8 0.040000 12.509065 56.056389 16.850111
7481 1471 7 0.418000 12.113623 58.654202 17.935097
7482 1472 6 -0.683000 3.845202 89.166978 15.418787
7483 1472 9 0.145000 4.461916 88.101657 14.719327
7484 1472 8 0.040000 4.118882 87.148453 15.129246
7485 1472 8 0.040000 5.547468 88.182009 14.814863
7486 1472 8 0.040000 4.185754 88.162468 13.664042
7487 1472 7 0.418000 4.108471 89.086742 16.351409
7488 1473 6 -0.683000 14.459924 85.795407 28.005556
7489 1473 9 0.145000 15.851293 85.933577 27.783086
7490 1473 8 0.040000 16.341885 86.233057 28.712568
7491 1473 8 0.040000 16.024488 86.684818 27.008718
7492 1473 8 0.040000 16.255416 84.973645 27.453232
7493 1473 7 0.418000 14.129708 86.662345 28.296947
7494 1474 6 -0.683000 5.590853 72.289740 16.310958
7495 1474 9 0.145000 5.173289 71.168961 15.553341
7496 1474 8 0.040000 4.241442 71.405833 15.033862
7497 1474 8 0.040000 5.025531 70.313824 16.217354
7498 1474 8 0.040000 5.946009 70.928337 14.819451
7499 1474 7 0.418000 4.885667 72.479325 16.953066
7500 1475 6 -0.683000 0.643261 70.166391 15.479657
7501 1475 9 0.145000 0.920727 69.175889 16.452492
7502 1475 8 0.040000 -0.000480 68.646106 16.707462
7503 1475 8 0.040000 1.341225 69.647350 17.344071
7504 1475 8 0.040000 1.644157 68.467540 16.042027
7505 1475 7 0.418000 -0.000903 70.779933 15.872277
7506 1476 6 -0.683000 4.291527 80.960380 16.885418
7507 1476 9 0.145000 4.409955 80.085640 15.778487
7508 1476 8 0.040000 4.087735 80.600462 14.869951
7509 1476 8 0.040000 3.793369 79.199190 15.945924
7510 1476 8 0.040000 5.455071 79.785226 15.673260
7511 1476 7 0.418000 3.354108 81.209650 16.953562
7512 1477 6 -0.683000 11.509113 58.855586 11.375729
7513 1477 9 0.145000 12.177093 59.998360 10.873375
7514 1477 8 0.040000 11.825162 60.888481 11.400759
7515 1477 8 0.040000 11.981023 60.094777 9.802737
7516 1477 8 0.040000 13.251193 59.882115 11.035814
7517 1477 7 0.418000 10.558805 58.987556 11.217513
7518 1478 10 -0.28140000 8.612236 84.574197 32.055369
7519 1478 11 0.22380000 9.581113 85.665247 31.622505
7520 1478 12 -0.25930000 8.944609 86.973444 31.557803
7521 1478 13 -0.03810000 7.872031 87.336621 30.758099
7522 1478 14 -0.04010000 7.606628 88.651147 31.023114
7523 1478 15 -0.22290000 8.524291 89.055632 31.976416
7524 1478 16 0.14660000 9.371785 88.048896 32.235969
7525 1478 17 -0.05690000 8.593581 90.360166 32.620806
7526 1478 18 -0.50700000 10.644948 85.779917 32.552237
7527 1478 19 0.11960000 7.771965 84.479750 31.360564
7528 1478 20 0.11960000 8.211287 84.785768 33.051939
7529 1478 21 0.11960000 9.124447 83.607703 32.112438
7530 1478 22 0.15350000 9.999897 85.437921 30.636694
7531 1478 23 0.22630000 7.431042 86.607436 30.099025
7532 1478 24 0.22900000 6.881760 89.355817 30.652890
7533 1478 25 0.26750000 10.243434 88.102597 32.880721
7534 1478 26 0.13150000 7.801163 91.012908 32.246274
7535 1478 27 0.13150000 9.568077 90.806670 32.404297
7536 1478 28 0.13150000 8.477379 90.226173 33.700167
7537 1478 29 0.40570000 10.585319 85.038213 33.179332
7538 1479 10 -0.28140000 2.557996 62.259993 15.684955
7539 1479 11 0.22380000 3.533333 61.461738 14.831731
7540 1479 12 -0.25930000 4.789347 61.206741 15.523188
7541 1479 13 -0.03810000 5.680374 62.154063 16.003294
7542 1479 14 -0.04010000 6.714202 61.470263 16.579721
7543 1479 15 -0.22290000 6.427478 60.124346 16.435523
7544 1479 16 0.14660000 5.295060 59.981959 15.730905
7545 1479 17 -0.05690000 7.206943 59.007284 16.951717
7546 1479 18 -0.50700000 2.986232 60.194560 14.508877
7547 1479 19 0.11960000 2.967244 63.236593 15.961540
7548 1479 20 0.11960000 2.314063 61.717413 16.604073
7549 1479 21 0.11960000 1.618197 62.418827 15.145255
7550 1479 22 0.15350000 3.755437 61.995099 13.901636
7551 1479 23 0.22630000 5.462384 63.201045 15.873410
7552 1479 24 0.22900000 7.623025 61.768387 17.073909
7553 1479 25 0.26750000 4.870475 59.041374 15.394173
7554 1479 26 0.13150000 8.085396 59.371875 17.489925
7555 1479 27 0.13150000 7.525449 58.384209 16.111351
7556 1479 28 0.13150000 6.578492 58.423443 17.630433
7557 1479 29 0.40570000 2.054589 60.182343 14.789626
7558 1480 10 -0.28140000 4.813750 76.578915 18.911237
7559 1480 11 0.22380000 4.575974 77.980886 18.368629
7560 1480 12 -0.25930000 5.018244 79.012969 19.295940
7561 1480 13 -0.03810000 4.557660 79.222675 20.586574
7562 1480 14 -0.04010000 5.249026 80.290974 21.085972
7563 1480 15 -0.22290000 6.112251 80.705445 20.087195
7564 1480 16 0.14660000 5.908788 79.966886 18.986167
7565 1480 17 -0.05690000 7.100453 81.771875 20.176803
7566 1480 18 -0.50700000 5.304794 78.177523 17.168858
7567 1480 19 0.11960000 4.274017 76.410358 19.848257
7568 1480 20 0.11960000 5.879947 76.410478 19.094343
7569 1480 21 0.11960000 4.488668 75.826699 18.184450
7570 1480 22 0.15350000 3.512110 78.137495 18.162357
7571 1480 23 0.22630000 3.792257 78.579344 20.987628
7572 1480 24 0.22900000 5.236601 80.814653 22.026539
7573 1480 25 0.26750000 6.383963 80.119482 18.022174
7574 1480 26 0.13150000 7.079566 82.228508 21.169438
7575 1480 27 0.13150000 6.869419 82.528120 19.421422
7576 1480 28 0.13150000 8.091931 81.349626 19.989306
7577 1480 29 0.40570000 5.678366 77.322240 16.893425
7578 1481 10 -0.28140000 2.046614 79.475216 3.651128
7579 1481 11 0.22380000 0.765880 80.164102 4.100170
7580 1481 12 -0.25930000 0.927426 80.851666 5.373694
7581 1481 13 -0.03810000 1.277498 80.280528 6.587407
7582 1481 14 -0.04010000 1.314228 81.292110 7.506103
7583 1481 15 -0.22290000 0.984920 82.453213 6.829424
7584 1481 16 0.14660000 0.683892 82.157960 5.556107
7585 1481 17 -0.05690000 0.956856 83.802704 7.377089
7586 1481 18 -0.50700000 0.376294 81.148119 3.157182
7587 1481 19 0.11960000 2.376467 78.722536 4.373899
7588 1481 20 0.11960000 2.853406 80.204044 3.522393
7589 1481 21 0.11960000 1.898308 78.984136 2.683362
7590 1481 22 0.15350000 -0.045729 79.436404 4.203263
7591 1481 23 0.22630000 1.458173 79.219895 6.641966
7592 1481 24 0.22900000 1.530310 81.336144 8.559872
7593 1481 25 0.26750000 0.311761 82.856324 4.813028
7594 1481 26 0.13150000 1.237872 83.791452 8.433108
7595 1481 27 0.13150000 -0.055620 84.202451 7.272312
7596 1481 28 0.13150000 1.661919 84.424310 6.817652
7597 1481 29 0.40570000 0.941090 81.058789 2.369810
7598 1482 10 -0.28140000 13.998783 65.451540 32.088477
7599 1482 11 0.22380000 13.131264 64.342025 32.665428
7600 1482 12 -0.25930000 11.710954 64.590603 32.461384
7601 1482 13 -0.03810000 10.981333 65.672242 32.929956
7602 1482 14 -0.04010000 9.694715 65.498287 32.502166
7603 1482 15 -0.22290000 9.672823 64.315253 31.784914
7604 1482 16 0.14660000 10.884892 63.742623 31.830880
7605 1482 17 -0.05690000 8.533691 63.746167 31.077548
7606 1482 18 -0.50700000 13.419816 63.107595 32.031225
7607 1482 19 0.11960000 13.780306 66.418759 32.551601
7608 1482 20 0.11960000 13.840969 65.544512 31.009067
7609 1482 21 0.11960000 15.059852 65.226591 32.240980
7610 1482 22 0.15350000 13.310149 64.234317 33.740268
7611 1482 23 0.22630000 11.475048 66.433336 33.510940
7612 1482 24 0.22900000 8.786378 66.064437 32.618170
7613 1482 25 0.26750000 11.142934 62.768538 31.427232
7614 1482 26 0.13150000 7.657720 64.390744 31.184639
7615 1482 27 0.13150000 8.316290 62.760691 31.498805
7616 1482 28 0.13150000 8.789483 63.649750 30.018420
7617 1482 29 0.40570000 14.206284 63.227332 31.470814
7618 1483 5 -1.0 3.766103 60.583267 8.260094
7619 1484 5 -1.0 18.147504 74.278397 25.089040
7620 1485 5 -1.0 9.538281 95.362658 23.559184
7621 1486 5 -1.0 14.108589 68.513018 7.164860
7622 1487 5 -1.0 16.328132 75.569589 33.555378

Bonds

1 1 1 2
2 1 1 3
4 1 4 5
6 1 4 6
8 1 7 8
10 1 7 9
12 1 10 11
14 1 10 12
16 1 13 14
18 1 13 15
19 1 16 17
3 1 16 18
5 1 19 20
7 1 19 21
9 1 22 23
11 1 22 24
13 1 25 26
15 1 25 27
17 1 28 29
20 1 28 30
21 1 31 32
22 1 31 33
23 1 34 35
24 1 34 36
25 1 37 38
26 1 37 39
27 1 40 41
28 1 40 42
29 1 43 44
30 1 43 45
31 1 46 47
32 1 46 48
33 1 49 50
34 1 49 51
35 1 52 53
36 1 52 54
37 1 55 56
38 1 55 57
39 1 58 59
40 1 58 60
41 1 61 62
42 1 61 63
43 1 64 65
44 1 64 66
45 1 67 68
46 1 67 69
47 1 70 71
48 1 70 72
49 1 73 74
50 1 73 75
51 1 76 77
52 1 76 78
53 1 79 80
54 1 79 81
55 1 82 83
56 1 82 84
57 1 85 86
58 1 85 87
59 1 88 89
60 1 88 90
61 1 91 92
62 1 91 93
63 1 94 95
64 1 94 96
65 1 97 98
66 1 97 99
67 1 100 101
68 1 100 102
69 1 103 104
70 1 103 105
71 1 106 107
72 1 106 108
73 1 109 110
74 1 109 111
75 1 112 113
76 1 112 114
77 1 115 116
78 1 115 117
79 1 118 119
80 1 118 120
81 1 121 122
82 1 121 123
83 1 124 125
84 1 124 126
85 1 127 128
86 1 127 129
87 1 130 131
88 1 130 132
89 1 133 134
90 1 133 135
91 1 136 137
92 1 136 138
93 1 147 148
94 1 147 149
96 1 150 151
98 1 150 152
100 1 153 154
102 1 153 155
104 1 156 157
106 1 156 158
108 1 159 160
110 1 159 161
111 1 162 163
95 1 162 164
97 1 165 166
99 1 165 167
101 1 168 169
103 1 168 170
105 1 171 172
107 1 171 173
109 1 174 175
112 1 174 176
113 1 177 178
114 1 177 179
115 1 180 181
116 1 180 182
117 1 183 184
118 1 183 185
119 1 186 187
120 1 186 188
121 1 189 190
122 1 189 191
123 1 192 193
124 1 192 194
125 1 195 196
126 1 195 197
127 1 198 199
128 1 198 200
129 1 201 202
130 1 201 203
131 1 204 205
132 1 204 206
133 1 207 208
134 1 207 209
135 1 210 211
136 1 210 212
137 1 213 214
138 1 213 215
139 1 216 217
140 1 216 218
141 1 219 220
142 1 219 221
143 1 222 223
144 1 222 224
145 1 225 226
146 1 225 227
147 1 228 229
148 1 228 230
149 1 231 232
150 1 231 233
151 1 234 235
152 1 234 236
153 1 237 238
154 1 237 239
155 1 240 241
156 1 240 242
157 1 243 244
158 1 243 245
159 1 246 247
160 1 246 248
161 1 249 250
162 1 249 251
163 1 252 253
164 1 252 254
165 1 255 256
166 1 255 257
167 1 258 259
168 1 258 260
169 1 261 262
170 1 261 263
171 1 264 265
172 1 264 266
173 1 267 268
174 1 267 269
175 1 270 271
176 1 270 272
177 1 273 274
178 1 273 275
179 1 276 277
180 1 276 278
181 1 279 280
182 1 279 281
183 1 282 283
184 1 282 284
185 1 293 294
186 1 293 295
188 1 296 297
190 1 296 298
192 1 299 300
194 1 299 301
196 1 302 303
198 1 302 304
200 1 305 306
202 1 305 307
203 1 308 309
187 1 308 310
189 1 311 312
191 1 311 313
193 1 314 315
195 1 314 316
197 1 317 318
199 1 317 319
201 1 320 321
204 1 320 322
205 1 323 324
206 1 323 325
207 1 326 327
208 1 326 328
209 1 329 330
210 1 329 331
211 1 332 333
212 1 332 334
213 1 335 336
214 1 335 337
215 1 338 339
216 1 338 340
217 1 341 342
218 1 341 343
219 1 344 345
220 1 344 346
221 1 347 348
222 1 347 349
223 1 350 351
224 1 350 352
225 1 353 354
226 1 353 355
227 1 356 357
228 1 356 358
229 1 359 360
230 1 359 361
231 1 362 363
232 1 362 364
233 1 365 366
234 1 365 367
235 1 368 369
236 1 368 370
237 1 371 372
238 1 371 373
239 1 374 375
240 1 374 376
241 1 377 378
242 1 377 379
243 1 380 381
244 1 380 382
245 1 383 384
246 1 383 385
247 1 386 387
248 1 386 388
249 1 389 390
250 1 389 391
251 1 392 393
252 1 392 394
253 1 395 396
254 1 395 397
255 1 398 399
256 1 398 400
257 1 401 402
258 1 401 403
259 1 404 405
260 1 404 406
261 1 407 408
262 1 407 409
263 1 410 411
264 1 410 412
265 1 413 414
266 1 413 415
267 1 416 417
268 1 416 418
269 1 419 420
270 1 419 421
271 1 422 423
272 1 422 424
273 1 425 426
274 1 425 427
275 1 428 429
276 1 428 430
277 1 439 440
278 1 439 441
280 1 442 443
282 1 442 444
284 1 445 446
286 1 445 447
288 1 448 449
290 1 448 450
292 1 451 452
294 1 451 453
295 1 454 455
279 1 454 456
281 1 457 458
283 1 457 459
285 1 460 461
287 1 460 462
289 1 463 464
291 1 463 465
293 1 466 467
296 1 466 468
297 1 469 470
298 1 469 471
299 1 472 473
300 1 472 474
301 1 475 476
302 1 475 477
303 1 478 479
304 1 478 480
305 1 481 482
306 1 481 483
307 1 484 485
308 1 484 486
309 1 487 488
310 1 487 489
311 1 490 491
312 1 490 492
313 1 493 494
314 1 493 495
315 1 496 497
316 1 496 498
317 1 499 500
318 1 499 501
319 1 502 503
320 1 502 504
321 1 505 506
322 1 505 507
323 1 508 509
324 1 508 510
325 1 511 512
326 1 511 513
327 1 514 515
328 1 514 516
329 1 517 518
330 1 517 519
331 1 520 521
332 1 520 522
333 1 523 524
334 1 523 525
335 1 526 527
336 1 526 528
337 1 529 530
338 1 529 531
339 1 532 533
340 1 532 534
341 1 535 536
342 1 535 537
343 1 538 539
344 1 538 540
345 1 541 542
346 1 541 543
347 1 544 545
348 1 544 546
349 1 547 548
350 1 547 549
351 1 550 551
352 1 550 552
353 1 553 554
354 1 553 555
355 1 556 557
356 1 556 558
357 1 559 560
358 1 559 561
359 1 562 563
360 1 562 564
361 1 565 566
362 1 565 567
363 1 568 569
364 1 568 570
365 1 571 572
366 1 571 573
367 1 574 575
368 1 574 576
369 1 585 586
370 1 585 587
372 1 588 589
374 1 588 590
376 1 591 592
378 1 591 593
380 1 594 595
382 1 594 596
384 1 597 598
386 1 597 599
387 1 600 601
371 1 600 602
373 1 603 604
375 1 603 605
377 1 606 607
379 1 606 608
381 1 609 610
383 1 609 611
385 1 612 613
388 1 612 614
389 1 615 616
390 1 615 617
391 1 618 619
392 1 618 620
393 1 621 622
394 1 621 623
395 1 624 625
396 1 624 626
397 1 627 628
398 1 627 629
399 1 630 631
400 1 630 632
401 1 633 634
402 1 633 635
403 1 636 637
404 1 636 638
405 1 639 640
406 1 639 641
407 1 642 643
408 1 642 644
409 1 645 646
410 1 645 647
411 1 648 649
412 1 648 650
413 1 651 652
414 1 651 653
415 1 654 655
416 1 654 656
417 1 657 658
418 1 657 659
419 1 660 661
420 1 660 662
421 1 663 664
422 1 663 665
423 1 666 667
424 1 666 668
425 1 669 670
426 1 669 671
427 1 672 673
428 1 672 674
429 1 675 676
430 1 675 677
431 1 678 679
432 1 678 680
433 1 681 682
434 1 681 683
435 1 684 685
436 1 684 686
437 1 687 688
438 1 687 689
439 1 690 691
440 1 690 692
441 1 693 694
442 1 693 695
443 1 696 697
444 1 696 698
445 1 699 700
446 1 699 701
447 1 702 703
448 1 702 704
449 1 705 706
450 1 705 707
451 1 708 709
452 1 708 710
453 1 711 712
454 1 711 713
455 1 714 715
456 1 714 716
457 1 717 718
458 1 717 719
459 1 720 721
460 1 720 722
461 1 731 732
462 1 731 733
464 1 734 735
466 1 734 736
468 1 737 738
470 1 737 739
472 1 740 741
474 1 740 742
476 1 743 744
478 1 743 745
479 1 746 747
463 1 746 748
465 1 749 750
467 1 749 751
469 1 752 753
471 1 752 754
473 1 755 756
475 1 755 757
477 1 758 759
480 1 758 760
481 1 761 762
482 1 761 763
483 1 764 765
484 1 764 766
485 1 767 768
486 1 767 769
487 1 770 771
488 1 770 772
489 1 773 774
490 1 773 775
491 1 776 777
492 1 776 778
493 1 779 780
494 1 779 781
495 1 782 783
496 1 782 784
497 1 785 786
498 1 785 787
499 1 788 789
500 1 788 790
501 1 791 792
502 1 791 793
503 1 794 795
504 1 794 796
505 1 797 798
506 1 797 799
507 1 800 801
508 1 800 802
509 1 803 804
510 1 803 805
511 1 806 807
512 1 806 808
513 1 809 810
514 1 809 811
515 1 812 813
516 1 812 814
517 1 815 816
518 1 815 817
519 1 818 819
520 1 818 820
521 1 821 822
522 1 821 823
523 1 824 825
524 1 824 826
525 1 827 828
526 1 827 829
527 1 830 831
528 1 830 832
529 1 833 834
530 1 833 835
531 1 836 837
532 1 836 838
533 1 839 840
534 1 839 841
535 1 842 843
536 1 842 844
537 1 845 846
538 1 845 847
539 1 848 849
540 1 848 850
541 1 851 852
542 1 851 853
543 1 854 855
544 1 854 856
545 1 857 858
546 1 857 859
547 1 860 861
548 1 860 862
549 1 863 864
550 1 863 865
551 1 866 867
552 1 866 868
553 1 877 878
554 1 877 879
556 1 880 881
558 1 880 882
560 1 883 884
562 1 883 885
564 1 886 887
566 1 886 888
568 1 889 890
570 1 889 891
571 1 892 893
555 1 892 894
557 1 895 896
559 1 895 897
561 1 898 899
563 1 898 900
565 1 901 902
567 1 901 903
569 1 904 905
572 1 904 906
573 1 907 908
574 1 907 909
575 1 910 911
576 1 910 912
577 1 913 914
578 1 913 915
579 1 916 917
580 1 916 918
581 1 919 920
582 1 919 921
583 1 922 923
584 1 922 924
585 1 925 926
586 1 925 927
587 1 928 929
588 1 928 930
589 1 931 932
590 1 931 933
591 1 934 935
592 1 934 936
593 1 937 938
594 1 937 939
595 1 940 941
596 1 940 942
597 1 943 944
598 1 943 945
599 1 946 947
600 1 946 948
601 1 949 950
602 1 949 951
603 1 952 953
604 1 952 954
605 1 955 956
606 1 955 957
607 1 958 959
608 1 958 960
609 1 961 962
610 1 961 963
611 1 964 965
612 1 964 966
613 1 967 968
614 1 967 969
615 1 970 971
616 1 970 972
617 1 973 974
618 1 973 975
619 1 976 977
620 1 976 978
621 1 979 980
622 1 979 981
623 1 982 983
624 1 982 984
625 1 985 986
626 1 985 987
627 1 988 989
628 1 988 990
629 1 991 992
630 1 991 993
631 1 994 995
632 1 994 996
633 1 997 998
634 1 997 999
635 1 1000 1001
636 1 1000 1002
637 1 1003 1004
638 1 1003 1005
639 1 1006 1007
640 1 1006 1008
641 1 1009 1010
642 1 1009 1011
643 1 1012 1013
644 1 1012 1014
645 1 1023 1024
646 1 1023 1025
648 1 1026 1027
650 1 1026 1028
652 1 1029 1030
654 1 1029 1031
656 1 1032 1033
658 1 1032 1034
660 1 1035 1036
662 1 1035 1037
663 1 1038 1039
647 1 1038 1040
649 1 1041 1042
651 1 1041 1043
653 1 1044 1045
655 1 1044 1046
657 1 1047 1048
659 1 1047 1049
661 1 1050 1051
664 1 1050 1052
665 1 1053 1054
666 1 1053 1055
667 1 1056 1057
668 1 1056 1058
669 1 1059 1060
670 1 1059 1061
671 1 1062 1063
672 1 1062 1064
673 1 1065 1066
674 1 1065 1067
675 1 1068 1069
676 1 1068 1070
677 1 1071 1072
678 1 1071 1073
679 1 1074 1075
680 1 1074 1076
681 1 1077 1078
682 1 1077 1079
683 1 1080 1081
684 1 1080 1082
685 1 1083 1084
686 1 1083 1085
687 1 1086 1087
688 1 1086 1088
689 1 1089 1090
690 1 1089 1091
691 1 1092 1093
692 1 1092 1094
693 1 1095 1096
694 1 1095 1097
695 1 1098 1099
696 1 1098 1100
697 1 1101 1102
698 1 1101 1103
699 1 1104 1105
700 1 1104 1106
701 1 1107 1108
702 1 1107 1109
703 1 1110 1111
704 1 1110 1112
705 1 1113 1114
706 1 1113 1115
707 1 1116 1117
708 1 1116 1118
709 1 1119 1120
710 1 1119 1121
711 1 1122 1123
712 1 1122 1124
713 1 1125 1126
714 1 1125 1127
715 1 1128 1129
716 1 1128 1130
717 1 1131 1132
718 1 1131 1133
719 1 1134 1135
720 1 1134 1136
721 1 1137 1138
722 1 1137 1139
723 1 1140 1141
724 1 1140 1142
725 1 1143 1144
726 1 1143 1145
727 1 1146 1147
728 1 1146 1148
729 1 1149 1150
730 1 1149 1151
731 1 1152 1153
732 1 1152 1154
733 1 1155 1156
734 1 1155 1157
735 1 1158 1159
736 1 1158 1160
737 1 1169 1170
738 1 1169 1171
740 1 1172 1173
742 1 1172 1174
744 1 1175 1176
746 1 1175 1177
748 1 1178 1179
750 1 1178 1180
752 1 1181 1182
754 1 1181 1183
755 1 1184 1185
739 1 1184 1186
741 1 1187 1188
743 1 1187 1189
745 1 1190 1191
747 1 1190 1192
749 1 1193 1194
751 1 1193 1195
753 1 1196 1197
756 1 1196 1198
757 1 1199 1200
758 1 1199 1201
759 1 1202 1203
760 1 1202 1204
761 1 1205 1206
762 1 1205 1207
763 1 1208 1209
764 1 1208 1210
765 1 1211 1212
766 1 1211 1213
767 1 1214 1215
768 1 1214 1216
769 1 1217 1218
770 1 1217 1219
771 1 1220 1221
772 1 1220 1222
773 1 1223 1224
774 1 1223 1225
775 1 1226 1227
776 1 1226 1228
777 1 1229 1230
778 1 1229 1231
779 1 1232 1233
780 1 1232 1234
781 1 1235 1236
782 1 1235 1237
783 1 1238 1239
784 1 1238 1240
785 1 1241 1242
786 1 1241 1243
787 1 1244 1245
788 1 1244 1246
789 1 1247 1248
790 1 1247 1249
791 1 1250 1251
792 1 1250 1252
793 1 1253 1254
794 1 1253 1255
795 1 1256 1257
796 1 1256 1258
797 1 1259 1260
798 1 1259 1261
799 1 1262 1263
800 1 1262 1264
801 1 1265 1266
802 1 1265 1267
803 1 1268 1269
804 1 1268 1270
805 1 1271 1272
806 1 1271 1273
807 1 1274 1275
808 1 1274 1276
809 1 1277 1278
810 1 1277 1279
811 1 1280 1281
812 1 1280 1282
813 1 1283 1284
814 1 1283 1285
815 1 1286 1287
816 1 1286 1288
817 1 1289 1290
818 1 1289 1291
819 1 1292 1293
820 1 1292 1294
821 1 1295 1296
822 1 1295 1297
823 1 1298 1299
824 1 1298 1300
825 1 1301 1302
826 1 1301 1303
827 1 1304 1305
828 1 1304 1306
829 1 1315 1316
830 1 1315 1317
832 1 1318 1319
834 1 1318 1320
836 1 1321 1322
838 1 1321 1323
840 1 1324 1325
842 1 1324 1326
844 1 1327 1328
846 1 1327 1329
847 1 1330 1331
831 1 1330 1332
833 1 1333 1334
835 1 1333 1335
837 1 1336 1337
839 1 1336 1338
841 1 1339 1340
843 1 1339 1341
845 1 1342 1343
848 1 1342 1344
849 1 1345 1346
850 1 1345 1347
851 1 1348 1349
852 1 1348 1350
853 1 1351 1352
854 1 1351 1353
855 1 1354 1355
856 1 1354 1356
857 1 1357 1358
858 1 1357 1359
859 1 1360 1361
860 1 1360 1362
861 1 1363 1364
862 1 1363 1365
863 1 1366 1367
864 1 1366 1368
865 1 1369 1370
866 1 1369 1371
867 1 1372 1373
868 1 1372 1374
869 1 1375 1376
870 1 1375 1377
871 1 1378 1379
872 1 1378 1380
873 1 1381 1382
874 1 1381 1383
875 1 1384 1385
876 1 1384 1386
877 1 1387 1388
878 1 1387 1389
879 1 1390 1391
880 1 1390 1392
881 1 1393 1394
882 1 1393 1395
883 1 1396 1397
884 1 1396 1398
885 1 1399 1400
886 1 1399 1401
887 1 1402 1403
888 1 1402 1404
889 1 1405 1406
890 1 1405 1407
891 1 1408 1409
892 1 1408 1410
893 1 1411 1412
894 1 1411 1413
895 1 1414 1415
896 1 1414 1416
897 1 1417 1418
898 1 1417 1419
899 1 1420 1421
900 1 1420 1422
901 1 1423 1424
902 1 1423 1425
903 1 1426 1427
904 1 1426 1428
905 1 1429 1430
906 1 1429 1431
907 1 1432 1433
908 1 1432 1434
909 1 1435 1436
910 1 1435 1437
911 1 1438 1439
912 1 1438 1440
913 1 1441 1442
914 1 1441 1443
915 1 1444 1445
916 1 1444 1446
917 1 1447 1448
918 1 1447 1449
919 1 1450 1451
920 1 1450 1452
921 1 1461 1462
922 1 1461 1463
924 1 1464 1465
926 1 1464 1466
928 1 1467 1468
930 1 1467 1469
932 1 1470 1471
934 1 1470 1472
936 1 1473 1474
938 1 1473 1475
939 1 1476 1477
923 1 1476 1478
925 1 1479 1480
927 1 1479 1481
929 1 1482 1483
931 1 1482 1484
933 1 1485 1486
935 1 1485 1487
937 1 1488 1489
940 1 1488 1490
941 1 1491 1492
942 1 1491 1493
943 1 1494 1495
944 1 1494 1496
945 1 1497 1498
946 1 1497 1499
947 1 1500 1501
948 1 1500 1502
949 1 1503 1504
950 1 1503 1505
951 1 1506 1507
952 1 1506 1508
953 1 1509 1510
954 1 1509 1511
955 1 1512 1513
956 1 1512 1514
957 1 1515 1516
958 1 1515 1517
959 1 1518 1519
960 1 1518 1520
961 1 1521 1522
962 1 1521 1523
963 1 1524 1525
964 1 1524 1526
965 1 1527 1528
966 1 1527 1529
967 1 1530 1531
968 1 1530 1532
969 1 1533 1534
970 1 1533 1535
971 1 1536 1537
972 1 1536 1538
973 1 1539 1540
974 1 1539 1541
975 1 1542 1543
976 1 1542 1544
977 1 1545 1546
978 1 1545 1547
979 1 1548 1549
980 1 1548 1550
981 1 1551 1552
982 1 1551 1553
983 1 1554 1555
984 1 1554 1556
985 1 1557 1558
986 1 1557 1559
987 1 1560 1561
988 1 1560 1562
989 1 1563 1564
990 1 1563 1565
991 1 1566 1567
992 1 1566 1568
993 1 1569 1570
994 1 1569 1571
995 1 1572 1573
996 1 1572 1574
997 1 1575 1576
998 1 1575 1577
999 1 1578 1579
1000 1 1578 1580
1001 1 1581 1582
1002 1 1581 1583
1003 1 1584 1585
1004 1 1584 1586
1005 1 1587 1588
1006 1 1587 1589
1007 1 1590 1591
1008 1 1590 1592
1009 1 1593 1594
1010 1 1593 1595
1011 1 1596 1597
1012 1 1596 1598
1013 1 1607 1608
1014 1 1607 1609
1016 1 1610 1611
1018 1 1610 1612
1020 1 1613 1614
1022 1 1613 1615
1024 1 1616 1617
1026 1 1616 1618
1028 1 1619 1620
1030 1 1619 1621
1031 1 1622 1623
1015 1 1622 1624
1017 1 1625 1626
1019 1 1625 1627
1021 1 1628 1629
1023 1 1628 1630
1025 1 1631 1632
1027 1 1631 1633
1029 1 1634 1635
1032 1 1634 1636
1033 1 1637 1638
1034 1 1637 1639
1035 1 1640 1641
1036 1 1640 1642
1037 1 1643 1644
1038 1 1643 1645
1039 1 1646 1647
1040 1 1646 1648
1041 1 1649 1650
1042 1 1649 1651
1043 1 1652 1653
1044 1 1652 1654
1045 1 1655 1656
1046 1 1655 1657
1047 1 1658 1659
1048 1 1658 1660
1049 1 1661 1662
1050 1 1661 1663
1051 1 1664 1665
1052 1 1664 1666
1053 1 1667 1668
1054 1 1667 1669
1055 1 1670 1671
1056 1 1670 1672
1057 1 1673 1674
1058 1 1673 1675
1059 1 1676 1677
1060 1 1676 1678
1061 1 1679 1680
1062 1 1679 1681
1063 1 1682 1683
1064 1 1682 1684
1065 1 1685 1686
1066 1 1685 1687
1067 1 1688 1689
1068 1 1688 1690
1069 1 1691 1692
1070 1 1691 1693
1071 1 1694 1695
1072 1 1694 1696
1073 1 1697 1698
1074 1 1697 1699
1075 1 1700 1701
1076 1 1700 1702
1077 1 1703 1704
1078 1 1703 1705
1079 1 1706 1707
1080 1 1706 1708
1081 1 1709 1710
1082 1 1709 1711
1083 1 1712 1713
1084 1 1712 1714
1085 1 1715 1716
1086 1 1715 1717
1087 1 1718 1719
1088 1 1718 1720
1089 1 1721 1722
1090 1 1721 1723
1091 1 1724 1725
1092 1 1724 1726
1093 1 1727 1728
1094 1 1727 1729
1095 1 1730 1731
1096 1 1730 1732
1097 1 1733 1734
1098 1 1733 1735
1099 1 1736 1737
1100 1 1736 1738
1101 1 1739 1740
1102 1 1739 1741
1103 1 1742 1743
1104 1 1742 1744
1105 1 1753 1754
1106 1 1753 1755
1108 1 1756 1757
1110 1 1756 1758
1112 1 1759 1760
1114 1 1759 1761
1116 1 1762 1763
1118 1 1762 1764
1120 1 1765 1766
1122 1 1765 1767
1123 1 1768 1769
1107 1 1768 1770
1109 1 1771 1772
1111 1 1771 1773
1113 1 1774 1775
1115 1 1774 1776
1117 1 1777 1778
1119 1 1777 1779
1121 1 1780 1781
1124 1 1780 1782
1125 1 1783 1784
1126 1 1783 1785
1127 1 1786 1787
1128 1 1786 1788
1129 1 1789 1790
1130 1 1789 1791
1131 1 1792 1793
1132 1 1792 1794
1133 1 1795 1796
1134 1 1795 1797
1135 1 1798 1799
1136 1 1798 1800
1137 1 1801 1802
1138 1 1801 1803
1139 1 1804 1805
1140 1 1804 1806
1141 1 1807 1808
1142 1 1807 1809
1143 1 1810 1811
1144 1 1810 1812
1145 1 1813 1814
1146 1 1813 1815
1147 1 1816 1817
1148 1 1816 1818
1149 1 1819 1820
1150 1 1819 1821
1151 1 1822 1823
1152 1 1822 1824
1153 1 1825 1826
1154 1 1825 1827
1155 1 1828 1829
1156 1 1828 1830
1157 1 1831 1832
1158 1 1831 1833
1159 1 1834 1835
1160 1 1834 1836
1161 1 1837 1838
1162 1 1837 1839
1163 1 1840 1841
1164 1 1840 1842
1165 1 1843 1844
1166 1 1843 1845
1167 1 1846 1847
1168 1 1846 1848
1169 1 1849 1850
1170 1 1849 1851
1171 1 1852 1853
1172 1 1852 1854
1173 1 1855 1856
1174 1 1855 1857
1175 1 1858 1859
1176 1 1858 1860
1177 1 1861 1862
1178 1 1861 1863
1179 1 1864 1865
1180 1 1864 1866
1181 1 1867 1868
1182 1 1867 1869
1183 1 1870 1871
1184 1 1870 1872
1185 1 1873 1874
1186 1 1873 1875
1187 1 1876 1877
1188 1 1876 1878
1189 1 1879 1880
1190 1 1879 1881
1191 1 1882 1883
1192 1 1882 1884
1193 1 1885 1886
1194 1 1885 1887
1195 1 1888 1889
1196 1 1888 1890
1197 1 1899 1900
1198 1 1899 1901
1200 1 1902 1903
1202 1 1902 1904
1204 1 1905 1906
1206 1 1905 1907
1208 1 1908 1909
1210 1 1908 1910
1212 1 1911 1912
1214 1 1911 1913
1215 1 1914 1915
1199 1 1914 1916
1201 1 1917 1918
1203 1 1917 1919
1205 1 1920 1921
1207 1 1920 1922
1209 1 1923 1924
1211 1 1923 1925
1213 1 1926 1927
1216 1 1926 1928
1217 1 1929 1930
1218 1 1929 1931
1219 1 1932 1933
1220 1 1932 1934
1221 1 1935 1936
1222 1 1935 1937
1223 1 1938 1939
1224 1 1938 1940
1225 1 1941 1942
1226 1 1941 1943
1227 1 1944 1945
1228 1 1944 1946
1229 1 1947 1948
1230 1 1947 1949
1231 1 1950 1951
1232 1 1950 1952
1233 1 1953 1954
1234 1 1953 1955
1235 1 1956 1957
1236 1 1956 1958
1237 1 1959 1960
1238 1 1959 1961
1239 1 1962 1963
1240 1 1962 1964
1241 1 1965 1966
1242 1 1965 1967
1243 1 1968 1969
1244 1 1968 1970
1245 1 1971 1972
1246 1 1971 1973
1247 1 1974 1975
1248 1 1974 1976
1249 1 1977 1978
1250 1 1977 1979
1251 1 1980 1981
1252 1 1980 1982
1253 1 1983 1984
1254 1 1983 1985
1255 1 1986 1987
1256 1 1986 1988
1257 1 1989 1990
1258 1 1989 1991
1259 1 1992 1993
1260 1 1992 1994
1261 1 1995 1996
1262 1 1995 1997
1263 1 1998 1999
1264 1 1998 2000
1265 1 2001 2002
1266 1 2001 2003
1267 1 2004 2005
1268 1 2004 2006
1269 1 2007 2008
1270 1 2007 2009
1271 1 2010 2011
1272 1 2010 2012
1273 1 2013 2014
1274 1 2013 2015
1275 1 2016 2017
1276 1 2016 2018
1277 1 2019 2020
1278 1 2019 2021
1279 1 2022 2023
1280 1 2022 2024
1281 1 2025 2026
1282 1 2025 2027
1283 1 2028 2029
1284 1 2028 2030
1285 1 2031 2032
1286 1 2031 2033
1287 1 2034 2035
1288 1 2034 2036
1289 1 2045 2046
1290 1 2045 2047
1292 1 2048 2049
1294 1 2048 2050
1296 1 2051 2052
1298 1 2051 2053
1300 1 2054 2055
1302 1 2054 2056
1304 1 2057 2058
1306 1 2057 2059
1307 1 2060 2061
1291 1 2060 2062
1293 1 2063 2064
1295 1 2063 2065
1297 1 2066 2067
1299 1 2066 2068
1301 1 2069 2070
1303 1 2069 2071
1305 1 2072 2073
1308 1 2072 2074
1309 1 2075 2076
1310 1 2075 2077
1311 1 2078 2079
1312 1 2078 2080
1313 1 2081 2082
1314 1 2081 2083
1315 1 2084 2085
1316 1 2084 2086
1317 1 2087 2088
1318 1 2087 2089
1319 1 2090 2091
1320 1 2090 2092
1321 1 2093 2094
1322 1 2093 2095
1323 1 2096 2097
1324 1 2096 2098
1325 1 2099 2100
1326 1 2099 2101
1327 1 2102 2103
1328 1 2102 2104
1329 1 2105 2106
1330 1 2105 2107
1331 1 2108 2109
1332 1 2108 2110
1333 1 2111 2112
1334 1 2111 2113
1335 1 2114 2115
1336 1 2114 2116
1337 1 2117 2118
1338 1 2117 2119
1339 1 2120 2121
1340 1 2120 2122
1341 1 2123 2124
1342 1 2123 2125
1343 1 2126 2127
1344 1 2126 2128
1345 1 2129 2130
1346 1 2129 2131
1347 1 2132 2133
1348 1 2132 2134
1349 1 2135 2136
1350 1 2135 2137
1351 1 2138 2139
1352 1 2138 2140
1353 1 2141 2142
1354 1 2141 2143
1355 1 2144 2145
1356 1 2144 2146
1357 1 2147 2148
1358 1 2147 2149
1359 1 2150 2151
1360 1 2150 2152
1361 1 2153 2154
1362 1 2153 2155
1363 1 2156 2157
1364 1 2156 2158
1365 1 2159 2160
1366 1 2159 2161
1367 1 2162 2163
1368 1 2162 2164
1369 1 2165 2166
1370 1 2165 2167
1371 1 2168 2169
1372 1 2168 2170
1373 1 2171 2172
1374 1 2171 2173
1375 1 2174 2175
1376 1 2174 2176
1377 1 2177 2178
1378 1 2177 2179
1379 1 2180 2181
1380 1 2180 2182
1381 1 2191 2192
1382 1 2191 2193
1384 1 2194 2195
1386 1 2194 2196
1388 1 2197 2198
1390 1 2197 2199
1392 1 2200 2201
1394 1 2200 2202
1396 1 2203 2204
1398 1 2203 2205
1399 1 2206 2207
1383 1 2206 2208
1385 1 2209 2210
1387 1 2209 2211
1389 1 2212 2213
1391 1 2212 2214
1393 1 2215 2216
1395 1 2215 2217
1397 1 2218 2219
1400 1 2218 2220
1401 1 2221 2222
1402 1 2221 2223
1403 1 2224 2225
1404 1 2224 2226
1405 1 2227 2228
1406 1 2227 2229
1407 1 2230 2231
1408 1 2230 2232
1409 1 2233 2234
1410 1 2233 2235
1411 1 2236 2237
1412 1 2236 2238
1413 1 2239 2240
1414 1 2239 2241
1415 1 2242 2243
1416 1 2242 2244
1417 1 2245 2246
1418 1 2245 2247
1419 1 2248 2249
1420 1 2248 2250
1421 1 2251 2252
1422 1 2251 2253
1423 1 2254 2255
1424 1 2254 2256
1425 1 2257 2258
1426 1 2257 2259
1427 1 2260 2261
1428 1 2260 2262
1429 1 2263 2264
1430 1 2263 2265
1431 1 2266 2267
1432 1 2266 2268
1433 1 2269 2270
1434 1 2269 2271
1435 1 2272 2273
1436 1 2272 2274
1437 1 2275 2276
1438 1 2275 2277
1439 1 2278 2279
1440 1 2278 2280
1441 1 2281 2282
1442 1 2281 2283
1443 1 2284 2285
1444 1 2284 2286
1445 1 2287 2288
1446 1 2287 2289
1447 1 2290 2291
1448 1 2290 2292
1449 1 2293 2294
1450 1 2293 2295
1451 1 2296 2297
1452 1 2296 2298
1453 1 2299 2300
1454 1 2299 2301
1455 1 2302 2303
1456 1 2302 2304
1457 1 2305 2306
1458 1 2305 2307
1459 1 2308 2309
1460 1 2308 2310
1461 1 2311 2312
1462 1 2311 2313
1463 1 2314 2315
1464 1 2314 2316
1465 1 2317 2318
1466 1 2317 2319
1467 1 2320 2321
1468 1 2320 2322
1469 1 2323 2324
1470 1 2323 2325
1471 1 2326 2327
1472 1 2326 2328
1473 1 2337 2338
1474 1 2337 2339
1476 1 2340 2341
1478 1 2340 2342
1480 1 2343 2344
1482 1 2343 2345
1484 1 2346 2347
1486 1 2346 2348
1488 1 2349 2350
1490 1 2349 2351
1491 1 2352 2353
1475 1 2352 2354
1477 1 2355 2356
1479 1 2355 2357
1481 1 2358 2359
1483 1 2358 2360
1485 1 2361 2362
1487 1 2361 2363
1489 1 2364 2365
1492 1 2364 2366
1493 1 2367 2368
1494 1 2367 2369
1495 1 2370 2371
1496 1 2370 2372
1497 1 2373 2374
1498 1 2373 2375
1499 1 2376 2377
1500 1 2376 2378
1501 1 2379 2380
1502 1 2379 2381
1503 1 2382 2383
1504 1 2382 2384
1505 1 2385 2386
1506 1 2385 2387
1507 1 2388 2389
1508 1 2388 2390
1509 1 2391 2392
1510 1 2391 2393
1511 1 2394 2395
1512 1 2394 2396
1513 1 2397 2398
1514 1 2397 2399
1515 1 2400 2401
1516 1 2400 2402
1517 1 2403 2404
1518 1 2403 2405
1519 1 2406 2407
1520 1 2406 2408
1521 1 2409 2410
1522 1 2409 2411
1523 1 2412 2413
1524 1 2412 2414
1525 1 2415 2416
1526 1 2415 2417
1527 1 2418 2419
1528 1 2418 2420
1529 1 2421 2422
1530 1 2421 2423
1531 1 2424 2425
1532 1 2424 2426
1533 1 2427 2428
1534 1 2427 2429
1535 1 2430 2431
1536 1 2430 2432
1537 1 2433 2434
1538 1 2433 2435
1539 1 2436 2437
1540 1 2436 2438
1541 1 2439 2440
1542 1 2439 2441
1543 1 2442 2443
1544 1 2442 2444
1545 1 2445 2446
1546 1 2445 2447
1547 1 2448 2449
1548 1 2448 2450
1549 1 2451 2452
1550 1 2451 2453
1551 1 2454 2455
1552 1 2454 2456
1553 1 2457 2458
1554 1 2457 2459
1555 1 2460 2461
1556 1 2460 2462
1557 1 2463 2464
1558 1 2463 2465
1559 1 2466 2467
1560 1 2466 2468
1561 1 2469 2470
1562 1 2469 2471
1563 1 2472 2473
1564 1 2472 2474
1565 1 2483 2484
1566 1 2483 2485
1568 1 2486 2487
1570 1 2486 2488
1572 1 2489 2490
1574 1 2489 2491
1576 1 2492 2493
1578 1 2492 2494
1580 1 2495 2496
1582 1 2495 2497
1583 1 2498 2499
1567 1 2498 2500
1569 1 2501 2502
1571 1 2501 2503
1573 1 2504 2505
1575 1 2504 2506
1577 1 2507 2508
1579 1 2507 2509
1581 1 2510 2511
1584 1 2510 2512
1585 1 2513 2514
1586 1 2513 2515
1587 1 2516 2517
1588 1 2516 2518
1589 1 2519 2520
1590 1 2519 2521
1591 1 2522 2523
1592 1 2522 2524
1593 1 2525 2526
1594 1 2525 2527
1595 1 2528 2529
1596 1 2528 2530
1597 1 2531 2532
1598 1 2531 2533
1599 1 2534 2535
1600 1 2534 2536
1601 1 2537 2538
1602 1 2537 2539
1603 1 2540 2541
1604 1 2540 2542
1605 1 2543 2544
1606 1 2543 2545
1607 1 2546 2547
1608 1 2546 2548
1609 1 2549 2550
1610 1 2549 2551
1611 1 2552 2553
1612 1 2552 2554
1613 1 2555 2556
1614 1 2555 2557
1615 1 2558 2559
1616 1 2558 2560
1617 1 2561 2562
1618 1 2561 2563
1619 1 2564 2565
1620 1 2564 2566
1621 1 2567 2568
1622 1 2567 2569
1623 1 2570 2571
1624 1 2570 2572
1625 1 2573 2574
1626 1 2573 2575
1627 1 2576 2577
1628 1 2576 2578
1629 1 2579 2580
1630 1 2579 2581
1631 1 2582 2583
1632 1 2582 2584
1633 1 2585 2586
1634 1 2585 2587
1635 1 2588 2589
1636 1 2588 2590
1637 1 2591 2592
1638 1 2591 2593
1639 1 2594 2595
1640 1 2594 2596
1641 1 2597 2598
1642 1 2597 2599
1643 1 2600 2601
1644 1 2600 2602
1645 1 2603 2604
1646 1 2603 2605
1647 1 2606 2607
1648 1 2606 2608
1649 1 2609 2610
1650 1 2609 2611
1651 1 2612 2613
1652 1 2612 2614
1653 1 2615 2616
1654 1 2615 2617
1655 1 2618 2619
1656 1 2618 2620
1657 1 2629 2630
1658 1 2629 2631
1660 1 2632 2633
1662 1 2632 2634
1664 1 2635 2636
1666 1 2635 2637
1668 1 2638 2639
1670 1 2638 2640
1672 1 2641 2642
1674 1 2641 2643
1675 1 2644 2645
1659 1 2644 2646
1661 1 2647 2648
1663 1 2647 2649
1665 1 2650 2651
1667 1 2650 2652
1669 1 2653 2654
1671 1 2653 2655
1673 1 2656 2657
1676 1 2656 2658
1677 1 2659 2660
1678 1 2659 2661
1679 1 2662 2663
1680 1 2662 2664
1681 1 2665 2666
1682 1 2665 2667
1683 1 2668 2669
1684 1 2668 2670
1685 1 2671 2672
1686 1 2671 2673
1687 1 2674 2675
1688 1 2674 2676
1689 1 2677 2678
1690 1 2677 2679
1691 1 2680 2681
1692 1 2680 2682
1693 1 2683 2684
1694 1 2683 2685
1695 1 2686 2687
1696 1 2686 2688
1697 1 2689 2690
1698 1 2689 2691
1699 1 2692 2693
1700 1 2692 2694
1701 1 2695 2696
1702 1 2695 2697
1703 1 2698 2699
1704 1 2698 2700
1705 1 2701 2702
1706 1 2701 2703
1707 1 2704 2705
1708 1 2704 2706
1709 1 2707 2708
1710 1 2707 2709
1711 1 2710 2711
1712 1 2710 2712
1713 1 2713 2714
1714 1 2713 2715
1715 1 2716 2717
1716 1 2716 2718
1717 1 2719 2720
1718 1 2719 2721
1719 1 2722 2723
1720 1 2722 2724
1721 1 2725 2726
1722 1 2725 2727
1723 1 2728 2729
1724 1 2728 2730
1725 1 2731 2732
1726 1 2731 2733
1727 1 2734 2735
1728 1 2734 2736
1729 1 2737 2738
1730 1 2737 2739
1731 1 2740 2741
1732 1 2740 2742
1733 1 2743 2744
1734 1 2743 2745
1735 1 2746 2747
1736 1 2746 2748
1737 1 2749 2750
1738 1 2749 2751
1739 1 2752 2753
1740 1 2752 2754
1741 1 2755 2756
1742 1 2755 2757
1743 1 2758 2759
1744 1 2758 2760
1745 1 2761 2762
1746 1 2761 2763
1747 1 2764 2765
1748 1 2764 2766
1749 1 2775 2776
1750 1 2775 2777
1752 1 2778 2779
1754 1 2778 2780
1756 1 2781 2782
1758 1 2781 2783
1760 1 2784 2785
1762 1 2784 2786
1764 1 2787 2788
1766 1 2787 2789
1767 1 2790 2791
1751 1 2790 2792
1753 1 2793 2794
1755 1 2793 2795
1757 1 2796 2797
1759 1 2796 2798
1761 1 2799 2800
1763 1 2799 2801
1765 1 2802 2803
1768 1 2802 2804
1769 1 2805 2806
1770 1 2805 2807
1771 1 2808 2809
1772 1 2808 2810
1773 1 2811 2812
1774 1 2811 2813
1775 1 2814 2815
1776 1 2814 2816
1777 1 2817 2818
1778 1 2817 2819
1779 1 2820 2821
1780 1 2820 2822
1781 1 2823 2824
1782 1 2823 2825
1783 1 2826 2827
1784 1 2826 2828
1785 1 2829 2830
1786 1 2829 2831
1787 1 2832 2833
1788 1 2832 2834
1789 1 2835 2836
1790 1 2835 2837
1791 1 2838 2839
1792 1 2838 2840
1793 1 2841 2842
1794 1 2841 2843
1795 1 2844 2845
1796 1 2844 2846
1797 1 2847 2848
1798 1 2847 2849
1799 1 2850 2851
1800 1 2850 2852
1801 1 2853 2854
1802 1 2853 2855
1803 1 2856 2857
1804 1 2856 2858
1805 1 2859 2860
1806 1 2859 2861
1807 1 2862 2863
1808 1 2862 2864
1809 1 2865 2866
1810 1 2865 2867
1811 1 2868 2869
1812 1 2868 2870
1813 1 2871 2872
1814 1 2871 2873
1815 1 2874 2875
1816 1 2874 2876
1817 1 2877 2878
1818 1 2877 2879
1819 1 2880 2881
1820 1 2880 2882
1821 1 2883 2884
1822 1 2883 2885
1823 1 2886 2887
1824 1 2886 2888
1825 1 2889 2890
1826 1 2889 2891
1827 1 2892 2893
1828 1 2892 2894
1829 1 2895 2896
1830 1 2895 2897
1831 1 2898 2899
1832 1 2898 2900
1833 1 2901 2902
1834 1 2901 2903
1835 1 2904 2905
1836 1 2904 2906
1837 1 2907 2908
1838 1 2907 2909
1839 1 2910 2911
1840 1 2910 2912
1841 1 2921 2922
1842 1 2921 2923
1844 1 2924 2925
1846 1 2924 2926
1848 1 2927 2928
1850 1 2927 2929
1852 1 2930 2931
1854 1 2930 2932
1856 1 2933 2934
1858 1 2933 2935
1859 1 2936 2937
1843 1 2936 2938
1845 1 2939 2940
1847 1 2939 2941
1849 1 2942 2943
1851 1 2942 2944
1853 1 2945 2946
1855 1 2945 2947
1857 1 2948 2949
1860 1 2948 2950
1861 1 2951 2952
1862 1 2951 2953
1863 1 2954 2955
1864 1 2954 2956
1865 1 2957 2958
1866 1 2957 2959
1867 1 2960 2961
1868 1 2960 2962
1869 1 2963 2964
1870 1 2963 2965
1871 1 2966 2967
1872 1 2966 2968
1873 1 2969 2970
1874 1 2969 2971
1875 1 2972 2973
1876 1 2972 2974
1877 1 2975 2976
1878 1 2975 2977
1879 1 2978 2979
1880 1 2978 2980
1881 1 2981 2982
1882 1 2981 2983
1883 1 2984 2985
1884 1 2984 2986
1885 1 2987 2988
1886 1 2987 2989
1887 1 2990 2991
1888 1 2990 2992
1889 1 2993 2994
1890 1 2993 2995
1891 1 2996 2997
1892 1 2996 2998
1893 1 2999 3000
1894 1 2999 3001
1895 1 3002 3003
1896 1 3002 3004
1897 1 3005 3006
1898 1 3005 3007
1899 1 3008 3009
1900 1 3008 3010
1901 1 3011 3012
1902 1 3011 3013
1903 1 3014 3015
1904 1 3014 3016
1905 1 3017 3018
1906 1 3017 3019
1907 1 3020 3021
1908 1 3020 3022
1909 1 3023 3024
1910 1 3023 3025
1911 1 3026 3027
1912 1 3026 3028
1913 1 3029 3030
1914 1 3029 3031
1915 1 3032 3033
1916 1 3032 3034
1917 1 3035 3036
1918 1 3035 3037
1919 1 3038 3039
1920 1 3038 3040
1921 1 3041 3042
1922 1 3041 3043
1923 1 3044 3045
1924 1 3044 3046
1925 1 3047 3048
1926 1 3047 3049
1927 1 3050 3051
1928 1 3050 3052
1929 1 3053 3054
1930 1 3053 3055
1931 1 3056 3057
1932 1 3056 3058
1933 1 3067 3068
1934 1 3067 3069
1936 1 3070 3071
1938 1 3070 3072
1940 1 3073 3074
1942 1 3073 3075
1944 1 3076 3077
1946 1 3076 3078
1948 1 3079 3080
1950 1 3079 3081
1951 1 3082 3083
1935 1 3082 3084
1937 1 3085 3086
1939 1 3085 3087
1941 1 3088 3089
1943 1 3088 3090
1945 1 3091 3092
1947 1 3091 3093
1949 1 3094 3095
1952 1 3094 3096
1953 1 3097 3098
1954 1 3097 3099
1955 1 3100 3101
1956 1 3100 3102
1957 1 3103 3104
1958 1 3103 3105
1959 1 3106 3107
1960 1 3106 3108
1961 1 3109 3110
1962 1 3109 3111
1963 1 3112 3113
1964 1 3112 3114
1965 1 3115 3116
1966 1 3115 3117
1967 1 3118 3119
1968 1 3118 3120
1969 1 3121 3122
1970 1 3121 3123
1971 1 3124 3125
1972 1 3124 3126
1973 1 3127 3128
1974 1 3127 3129
1975 1 3130 3131
1976 1 3130 3132
1977 1 3133 3134
1978 1 3133 3135
1979 1 3136 3137
1980 1 3136 3138
1981 1 3139 3140
1982 1 3139 3141
1983 1 3142 3143
1984 1 3142 3144
1985 1 3145 3146
1986 1 3145 3147
1987 1 3148 3149
1988 1 3148 3150
1989 1 3151 3152
1990 1 3151 3153
1991 1 3154 3155
1992 1 3154 3156
1993 1 3157 3158
1994 1 3157 3159
1995 1 3160 3161
1996 1 3160 3162
1997 1 3163 3164
1998 1 3163 3165
1999 1 3166 3167
2000 1 3166 3168
2001 1 3169 3170
2002 1 3169 3171
2003 1 3172 3173
2004 1 3172 3174
2005 1 3175 3176
2006 1 3175 3177
2007 1 3178 3179
2008 1 3178 3180
2009 1 3181 3182
2010 1 3181 3183
2011 1 3184 3185
2012 1 3184 3186
2013 1 3187 3188
2014 1 3187 3189
2015 1 3190 3191
2016 1 3190 3192
2017 1 3193 3194
2018 1 3193 3195
2019 1 3196 3197
2020 1 3196 3198
2021 1 3199 3200
2022 1 3199 3201
2023 1 3202 3203
2024 1 3202 3204
2025 1 3213 3214
2026 1 3213 3215
2028 1 3216 3217
2030 1 3216 3218
2032 1 3219 3220
2034 1 3219 3221
2036 1 3222 3223
2038 1 3222 3224
2040 1 3225 3226
2042 1 3225 3227
2043 1 3228 3229
2027 1 3228 3230
2029 1 3231 3232
2031 1 3231 3233
2033 1 3234 3235
2035 1 3234 3236
2037 1 3237 3238
2039 1 3237 3239
2041 1 3240 3241
2044 1 3240 3242
2045 1 3243 3244
2046 1 3243 3245
2047 1 3246 3247
2048 1 3246 3248
2049 1 3249 3250
2050 1 3249 3251
2051 1 3252 3253
2052 1 3252 3254
2053 1 3255 3256
2054 1 3255 3257
2055 1 3258 3259
2056 1 3258 3260
2057 1 3261 3262
2058 1 3261 3263
2059 1 3264 3265
2060 1 3264 3266
2061 1 3267 3268
2062 1 3267 3269
2063 1 3270 3271
2064 1 3270 3272
2065 1 3273 3274
2066 1 3273 3275
2067 1 3276 3277
2068 1 3276 3278
2069 1 3279 3280
2070 1 3279 3281
2071 1 3282 3283
2072 1 3282 3284
2073 1 3285 3286
2074 1 3285 3287
2075 1 3288 3289
2076 1 3288 3290
2077 1 3291 3292
2078 1 3291 3293
2079 1 3294 3295
2080 1 3294 3296
2081 1 3297 3298
2082 1 3297 3299
2083 1 3300 3301
2084 1 3300 3302
2085 1 3303 3304
2086 1 3303 3305
2087 1 3306 3307
2088 1 3306 3308
2089 1 3309 3310
2090 1 3309 3311
2091 1 3312 3313
2092 1 3312 3314
2093 1 3315 3316
2094 1 3315 3317
2095 1 3318 3319
2096 1 3318 3320
2097 1 3321 3322
2098 1 3321 3323
2099 1 3324 3325
2100 1 3324 3326
2101 1 3327 3328
2102 1 3327 3329
2103 1 3330 3331
2104 1 3330 3332
2105 1 3333 3334
2106 1 3333 3335
2107 1 3336 3337
2108 1 3336 3338
2109 1 3339 3340
2110 1 3339 3341
2111 1 3342 3343
2112 1 3342 3344
2113 1 3345 3346
2114 1 3345 3347
2115 1 3348 3349
2116 1 3348 3350
2117 1 3359 3360
2118 1 3359 3361
2120 1 3362 3363
2122 1 3362 3364
2124 1 3365 3366
2126 1 3365 3367
2128 1 3368 3369
2130 1 3368 3370
2132 1 3371 3372
2134 1 3371 3373
2135 1 3374 3375
2119 1 3374 3376
2121 1 3377 3378
2123 1 3377 3379
2125 1 3380 3381
2127 1 3380 3382
2129 1 3383 3384
2131 1 3383 3385
2133 1 3386 3387
2136 1 3386 3388
2137 1 3389 3390
2138 1 3389 3391
2139 1 3392 3393
2140 1 3392 3394
2141 1 3395 3396
2142 1 3395 3397
2143 1 3398 3399
2144 1 3398 3400
2145 1 3401 3402
2146 1 3401 3403
2147 1 3404 3405
2148 1 3404 3406
2149 1 3407 3408
2150 1 3407 3409
2151 1 3410 3411
2152 1 3410 3412
2153 1 3413 3414
2154 1 3413 3415
2155 1 3416 3417
2156 1 3416 3418
2157 1 3419 3420
2158 1 3419 3421
2159 1 3422 3423
2160 1 3422 3424
2161 1 3425 3426
2162 1 3425 3427
2163 1 3428 3429
2164 1 3428 3430
2165 1 3431 3432
2166 1 3431 3433
2167 1 3434 3435
2168 1 3434 3436
2169 1 3437 3438
2170 1 3437 3439
2171 1 3440 3441
2172 1 3440 3442
2173 1 3443 3444
2174 1 3443 3445
2175 1 3446 3447
2176 1 3446 3448
2177 1 3449 3450
2178 1 3449 3451
2179 1 3452 3453
2180 1 3452 3454
2181 1 3455 3456
2182 1 3455 3457
2183 1 3458 3459
2184 1 3458 3460
2185 1 3461 3462
2186 1 3461 3463
2187 1 3464 3465
2188 1 3464 3466
2189 1 3467 3468
2190 1 3467 3469
2191 1 3470 3471
2192 1 3470 3472
2193 1 3473 3474
2194 1 3473 3475
2195 1 3476 3477
2196 1 3476 3478
2197 1 3479 3480
2198 1 3479 3481
2199 1 3482 3483
2200 1 3482 3484
2201 1 3485 3486
2202 1 3485 3487
2203 1 3488 3489
2204 1 3488 3490
2205 1 3491 3492
2206 1 3491 3493
2207 1 3494 3495
2208 1 3494 3496
2209 1 3505 3506
2210 1 3505 3507
2211 1 3508 3509
2212 1 3508 3510
2213 1 3511 3512
2214 1 3511 3513
2215 1 3514 3515
2216 1 3514 3516
2217 1 3517 3518
2218 1 3517 3519
2219 1 3520 3521
2220 1 3520 3522
2221 1 3523 3524
2222 1 3523 3525
2223 1 3526 3527
2224 1 3526 3528
2225 1 3529 3530
2226 1 3529 3531
2227 1 3532 3533
2228 1 3532 3534
2229 1 3535 3536
2230 1 3535 3537
2231 1 3538 3539
2232 1 3538 3540
2233 1 3541 3542
2234 1 3541 3543
2235 1 3544 3545
2236 1 3544 3546
2237 1 3547 3548
2238 1 3547 3549
2239 1 3550 3551
2240 1 3550 3552
2241 1 3553 3554
2242 1 3553 3555
2243 1 3556 3557
2244 1 3556 3558
2245 1 3559 3560
2246 1 3559 3561
2247 1 3562 3563
2248 1 3562 3564
2249 1 3565 3566
2250 1 3565 3567
2251 1 3568 3569
2252 1 3568 3570
2253 1 3571 3572
2254 1 3571 3573
2255 1 3574 3575
2256 1 3574 3576
2257 1 3577 3578
2258 1 3577 3579
2259 1 3580 3581
2260 1 3580 3582
2261 1 3583 3584
2262 1 3583 3585
2263 1 3586 3587
2264 1 3586 3588
2265 1 3589 3590
2266 1 3589 3591
2267 1 3592 3593
2268 1 3592 3594
2269 1 3595 3596
2270 1 3595 3597
2271 1 3598 3599
2272 1 3598 3600
2273 1 3601 3602
2274 1 3601 3603
2275 1 3604 3605
2276 1 3604 3606
2277 1 3607 3608
2278 1 3607 3609
2279 1 3610 3611
2280 1 3610 3612
2281 1 3613 3614
2282 1 3613 3615
2283 1 3616 3617
2284 1 3616 3618
2285 1 3619 3620
2286 1 3619 3621
2287 1 3622 3623
2288 1 3622 3624
2289 1 3625 3626
2290 1 3625 3627
2291 1 3628 3629
2292 1 3628 3630
2293 1 3631 3632
2294 1 3631 3633
2295 1 3634 3635
2296 1 3634 3636
2297 1 3637 3638
2298 1 3637 3639
2299 1 3640 3641
2300 1 3640 3642
2301 1 3643 3644
2302 1 3643 3645
2303 1 3646 3647
2304 1 3646 3648
2305 1 3649 3650
2306 1 3649 3651
2307 1 3652 3653
2308 1 3652 3654
2309 1 3655 3656
2310 1 3655 3657
2311 1 3658 3659
2312 1 3658 3660
2313 1 3661 3662
2314 1 3661 3663
2315 1 3664 3665
2316 1 3664 3666
2317 1 3667 3668
2318 1 3667 3669
2319 1 3670 3671
2320 1 3670 3672
2321 1 3673 3674
2322 1 3673 3675
2323 1 3676 3677
2324 1 3676 3678
2325 1 3679 3680
2326 1 3679 3681
2327 1 3682 3683
2328 1 3682 3684
2329 1 3685 3686
2330 1 3685 3687
2331 1 3688 3689
2332 1 3688 3690
2333 1 3691 3692
2334 1 3691 3693
2335 1 3694 3695
2336 1 3694 3696
2337 1 3697 3698
2338 1 3697 3699
2339 1 3700 3701
2340 1 3700 3702
2341 1 3703 3704
2342 1 3703 3705
2343 1 3706 3707
2344 1 3706 3708
2345 1 3709 3710
2346 1 3709 3711
2347 1 3712 3713
2348 1 3712 3714
2349 1 3715 3716
2350 1 3715 3717
2351 1 3718 3719
2352 1 3718 3720
2353 1 3721 3722
2354 1 3721 3723
2355 1 3724 3725
2356 1 3724 3726
2357 1 3727 3728
2358 1 3727 3729
2359 1 3730 3731
2360 1 3730 3732
2361 1 3733 3734
2362 1 3733 3735
2363 1 3736 3737
2364 1 3736 3738
2365 1 3739 3740
2366 1 3739 3741
2367 1 3742 3743
2368 1 3742 3744
2369 1 3745 3746
2370 1 3745 3747
2371 1 3748 3749
2372 1 3748 3750
2373 1 3751 3752
2374 1 3751 3753
2375 1 3754 3755
2376 1 3754 3756
2377 1 3757 3758
2378 1 3757 3759
2379 1 3760 3761
2380 1 3760 3762
2381 1 3763 3764
2382 1 3763 3765
2383 1 3766 3767
2384 1 3766 3768
2385 1 3769 3770
2386 1 3769 3771
2387 1 3772 3773
2388 1 3772 3774
2389 1 3775 3776
2390 1 3775 3777
2391 1 3778 3779
2392 1 3778 3780
2393 1 3781 3782
2394 1 3781 3783
2395 1 3784 3785
2396 1 3784 3786
2397 1 3787 3788
2398 1 3787 3789
2399 1 3790 3791
2400 1 3790 3792
2401 1 3793 3794
2402 1 3793 3795
2403 1 3796 3797
2404 1 3796 3798
2405 1 3799 3800
2406 1 3799 3801
2407 1 3802 3803
2408 1 3802 3804
2409 1 3805 3806
2410 1 3805 3807
2411 1 3808 3809
2412 1 3808 3810
2413 1 3811 3812
2414 1 3811 3813
2415 1 3814 3815
2416 1 3814 3816
2417 1 3817 3818
2418 1 3817 3819
2419 1 3820 3821
2420 1 3820 3822
2421 1 3823 3824
2422 1 3823 3825
2423 1 3826 3827
2424 1 3826 3828
2425 1 3829 3830
2426 1 3829 3831
2427 1 3832 3833
2428 1 3832 3834
2429 1 3835 3836
2430 1 3835 3837
2431 1 3838 3839
2432 1 3838 3840
2433 1 3841 3842
2434 1 3841 3843
2435 1 3844 3845
2436 1 3844 3846
2437 1 3847 3848
2438 1 3847 3849
2439 1 3850 3851
2440 1 3850 3852
2441 1 3853 3854
2442 1 3853 3855
2443 1 3856 3857
2444 1 3856 3858
2445 1 3859 3860
2446 1 3859 3861
2447 1 3862 3863
2448 1 3862 3864
2449 1 3865 3866
2450 1 3865 3867
2451 1 3868 3869
2452 1 3868 3870
2453 1 3871 3872
2454 1 3871 3873
2455 1 3874 3875
2456 1 3874 3876
2457 1 3877 3878
2458 1 3877 3879
2459 1 3880 3881
2460 1 3880 3882
2461 1 3883 3884
2462 1 3883 3885
2463 1 3886 3887
2464 1 3886 3888
2465 1 3889 3890
2466 1 3889 3891
2467 1 3892 3893
2468 1 3892 3894
2469 1 3895 3896
2470 1 3895 3897
2471 1 3898 3899
2472 1 3898 3900
2473 1 3901 3902
2474 1 3901 3903
2475 1 3904 3905
2476 1 3904 3906
2477 1 3907 3908
2478 1 3907 3909
2479 1 3910 3911
2480 1 3910 3912
2481 1 3913 3914
2482 1 3913 3915
2483 1 3916 3917
2484 1 3916 3918
2485 1 3919 3920
2486 1 3919 3921
2487 1 3922 3923
2488 1 3922 3924
2489 1 3925 3926
2490 1 3925 3927
2491 1 3928 3929
2492 1 3928 3930
2493 1 3931 3932
2494 1 3931 3933
2495 1 3934 3935
2496 1 3934 3936
2497 1 3937 3938
2498 1 3937 3939
2499 1 3940 3941
2500 1 3940 3942
2501 1 3943 3944
2502 1 3943 3945
2503 1 3946 3947
2504 1 3946 3948
2505 1 3949 3950
2506 1 3949 3951
2507 1 3952 3953
2508 1 3952 3954
2509 1 3955 3956
2510 1 3955 3957
2511 1 3958 3959
2512 1 3958 3960
2513 1 3961 3962
2514 1 3961 3963
2515 1 3964 3965
2516 1 3964 3966
2517 1 3967 3968
2518 1 3967 3969
2519 1 3970 3971
2520 1 3970 3972
2521 1 3973 3974
2522 1 3973 3975
2523 1 3976 3977
2524 1 3976 3978
2525 1 3979 3980
2526 1 3979 3981
2527 1 3982 3983
2528 1 3982 3984
2529 1 3985 3986
2530 1 3985 3987
2531 1 3988 3989
2532 1 3988 3990
2533 1 3991 3992
2534 1 3991 3993
2535 1 3994 3995
2536 1 3994 3996
2537 1 3997 3998
2538 1 3997 3999
2539 1 4000 4001
2540 1 4000 4002
2541 1 4003 4004
2542 1 4003 4005
2543 1 4006 4007
2544 1 4006 4008
2545 1 4009 4010
2546 1 4009 4011
2547 1 4012 4013
2548 1 4012 4014
2549 1 4015 4016
2550 1 4015 4017
2551 1 4018 4019
2552 1 4018 4020
2553 1 4021 4022
2554 1 4021 4023
2555 1 4024 4025
2556 1 4024 4026
2557 1 4027 4028
2558 1 4027 4029
2559 1 4030 4031
2560 1 4030 4032
2561 1 4033 4034
2562 1 4033 4035
2563 1 4036 4037
2564 1 4036 4038
2565 1 4039 4040
2566 1 4039 4041
2567 1 4042 4043
2568 1 4042 4044
2569 1 4045 4046
2570 1 4045 4047
2571 1 4048 4049
2572 1 4048 4050
2573 1 4051 4052
2574 1 4051 4053
2575 1 4054 4055
2576 1 4054 4056
2577 1 4057 4058
2578 1 4057 4059
2579 1 4060 4061
2580 1 4060 4062
2581 1 4063 4064
2582 1 4063 4065
2583 1 4066 4067
2584 1 4066 4068
2585 1 4069 4070
2586 1 4069 4071
2587 1 4072 4073
2588 1 4072 4074
2589 1 4075 4076
2590 1 4075 4077
2591 1 4078 4079
2592 1 4078 4080
2593 1 4081 4082
2594 1 4081 4083
2595 1 4084 4085
2596 1 4084 4086
2597 1 4087 4088
2598 1 4087 4089
2599 1 4090 4091
2600 1 4090 4092
2601 1 4093 4094
2602 1 4093 4095
2603 1 4096 4097
2604 1 4096 4098
2605 1 4099 4100
2606 1 4099 4101
2607 1 4102 4103
2608 1 4102 4104
2609 1 4105 4106
2610 1 4105 4107
2611 1 4108 4109
2612 1 4108 4110
2613 1 4111 4112
2614 1 4111 4113
2615 1 4114 4115
2616 1 4114 4116
2617 1 4117 4118
2618 1 4117 4119
2619 1 4120 4121
2620 1 4120 4122
2621 1 4123 4124
2622 1 4123 4125
2623 1 4126 4127
2624 1 4126 4128
2625 1 4129 4130
2626 1 4129 4131
2627 1 4132 4133
2628 1 4132 4134
2629 1 4135 4136
2630 1 4135 4137
2631 1 4138 4139
2632 1 4138 4140
2633 1 4141 4142
2634 1 4141 4143
2635 1 4144 4145
2636 1 4144 4146
2637 1 4147 4148
2638 1 4147 4149
2639 1 4150 4151
2640 1 4150 4152
2641 1 4153 4154
2642 1 4153 4155
2643 1 4156 4157
2644 1 4156 4158
2645 1 4159 4160
2646 1 4159 4161
2647 1 4162 4163
2648 1 4162 4164
2649 1 4165 4166
2650 1 4165 4167
2651 1 4168 4169
2652 1 4168 4170
2653 1 4171 4172
2654 1 4171 4173
2655 1 4174 4175
2656 1 4174 4176
2657 1 4177 4178
2658 1 4177 4179
2659 1 4180 4181
2660 1 4180 4182
2661 1 4183 4184
2662 1 4183 4185
2663 1 4186 4187
2664 1 4186 4188
2665 1 4189 4190
2666 1 4189 4191
2667 1 4192 4193
2668 1 4192 4194
2669 1 4195 4196
2670 1 4195 4197
2671 1 4198 4199
2672 1 4198 4200
2673 1 4201 4202
2674 1 4201 4203
2675 1 4204 4205
2676 1 4204 4206
2677 1 4207 4208
2678 1 4207 4209
2679 1 4210 4211
2680 1 4210 4212
2681 1 4213 4214
2682 1 4213 4215
2683 1 4216 4217
2684 1 4216 4218
2685 1 4219 4220
2686 1 4219 4221
2687 1 4222 4223
2688 1 4222 4224
2689 1 4225 4226
2690 1 4225 4227
2691 1 4228 4229
2692 1 4228 4230
2693 1 4231 4232
2694 1 4231 4233
2695 1 4234 4235
2696 1 4234 4236
2697 1 4237 4238
2698 1 4237 4239
2699 1 4240 4241
2700 1 4240 4242
2701 1 4243 4244
2702 1 4243 4245
2703 1 4246 4247
2704 1 4246 4248
2705 1 4249 4250
2706 1 4249 4251
2707 1 4252 4253
2708 1 4252 4254
2709 1 4255 4256
2710 1 4255 4257
2711 1 4258 4259
2712 1 4258 4260
2713 1 4261 4262
2714 1 4261 4263
2715 1 4264 4265
2716 1 4264 4266
2717 1 4267 4268
2718 1 4267 4269
2719 1 4270 4271
2720 1 4270 4272
2721 1 4273 4274
2722 1 4273 4275
2723 1 4276 4277
2724 1 4276 4278
2725 1 4279 4280
2726 1 4279 4281
2727 1 4282 4283
2728 1 4282 4284
2729 1 4285 4286
2730 1 4285 4287
2731 1 4288 4289
2732 1 4288 4290
2733 1 4291 4292
2734 1 4291 4293
2735 1 4294 4295
2736 1 4294 4296
2737 1 4297 4298
2738 1 4297 4299
2739 1 4300 4301
2740 1 4300 4302
2741 1 4303 4304
2742 1 4303 4305
2743 1 4306 4307
2744 1 4306 4308
2745 1 4309 4310
2746 1 4309 4311
2747 1 4312 4313
2748 1 4312 4314
2749 1 4315 4316
2750 1 4315 4317
2751 1 4318 4319
2752 1 4318 4320
2753 1 4321 4322
2754 1 4321 4323
2755 1 4324 4325
2756 1 4324 4326
2757 1 4327 4328
2758 1 4327 4329
2759 1 4330 4331
2760 1 4330 4332
2761 1 4333 4334
2762 1 4333 4335
2763 1 4336 4337
2764 1 4336 4338
2765 1 4339 4340
2766 1 4339 4341
2767 1 4342 4343
2768 1 4342 4344
2769 1 4345 4346
2770 1 4345 4347
2771 1 4348 4349
2772 1 4348 4350
2773 1 4351 4352
2774 1 4351 4353
2775 1 4354 4355
2776 1 4354 4356
2777 1 4357 4358
2778 1 4357 4359
2779 1 4360 4361
2780 1 4360 4362
2781 1 4363 4364
2782 1 4363 4365
2783 1 4366 4367
2784 1 4366 4368
2785 1 4369 4370
2786 1 4369 4371
2787 1 4372 4373
2788 1 4372 4374
2789 1 4375 4376
2790 1 4375 4377
2791 1 4378 4379
2792 1 4378 4380
2793 1 4381 4382
2794 1 4381 4383
2795 1 4384 4385
2796 1 4384 4386
2797 1 4387 4388
2798 1 4387 4389
2799 1 4390 4391
2800 1 4390 4392
2801 1 4393 4394
2802 1 4393 4395
2803 1 4396 4397
2804 1 4396 4398
2805 1 4399 4400
2806 1 4399 4401
2807 1 4402 4403
2808 1 4402 4404
2809 1 4405 4406
2810 1 4405 4407
2811 1 4408 4409
2812 1 4408 4410
2813 1 4411 4412
2814 1 4411 4413
2815 1 4414 4415
2816 1 4414 4416
2817 1 4417 4418
2818 1 4417 4419
2819 1 4420 4421
2820 1 4420 4422
2821 1 4423 4424
2822 1 4423 4425
2823 1 4426 4427
2824 1 4426 4428
2825 1 4429 4430
2826 1 4429 4431
2827 1 4432 4433
2828 1 4432 4434
2829 1 4435 4436
2830 1 4435 4437
2831 1 4438 4439
2832 1 4438 4440
2833 1 4441 4442
2834 1 4441 4443
2835 1 4444 4445
2836 1 4444 4446
2837 1 4447 4448
2838 1 4447 4449
2839 1 4450 4451
2840 1 4450 4452
2841 1 4453 4454
2842 1 4453 4455
2843 1 4456 4457
2844 1 4456 4458
2845 1 4459 4460
2846 1 4459 4461
2847 1 4462 4463
2848 1 4462 4464
2849 1 4465 4466
2850 1 4465 4467
2851 1 4468 4469
2852 1 4468 4470
2853 1 4471 4472
2854 1 4471 4473
2855 1 4474 4475
2856 1 4474 4476
2857 1 4477 4478
2858 1 4477 4479
2859 1 4480 4481
2860 1 4480 4482
2861 1 4483 4484
2862 1 4483 4485
2863 1 4486 4487
2864 1 4486 4488
2865 1 4489 4490
2866 1 4489 4491
2867 1 4492 4493
2868 1 4492 4494
2869 1 4495 4496
2870 1 4495 4497
2871 1 4498 4499
2872 1 4498 4500
2873 1 4501 4502
2874 1 4501 4503
2875 1 4504 4505
2876 1 4504 4506
2877 1 4507 4508
2878 1 4507 4509
2879 1 4510 4511
2880 1 4510 4512
2881 1 4513 4514
2882 1 4513 4515
2883 1 4516 4517
2884 1 4516 4518
2885 1 4519 4520
2886 1 4519 4521
2887 1 4522 4523
2888 1 4522 4524
2889 1 4525 4526
2890 1 4525 4527
2891 1 4528 4529
2892 1 4528 4530
2893 1 4531 4532
2894 1 4531 4533
2895 1 4534 4535
2896 1 4534 4536
2897 1 4537 4538
2898 1 4537 4539
2899 1 4540 4541
2900 1 4540 4542
2901 1 4543 4544
2902 1 4543 4545
2903 1 4546 4547
2904 1 4546 4548
2905 1 4549 4550
2906 1 4549 4551
2907 1 4552 4553
2908 1 4552 4554
2909 1 4555 4556
2910 1 4555 4557
2911 1 4558 4559
2912 1 4558 4560
2913 1 4561 4562
2914 1 4561 4563
2915 1 4564 4565
2916 1 4564 4566
2917 1 4567 4568
2918 1 4567 4569
2919 1 4570 4571
2920 1 4570 4572
2921 1 4573 4574
2922 1 4573 4575
2923 1 4576 4577
2924 1 4576 4578
2925 1 4579 4580
2926 1 4579 4581
2927 1 4582 4583
2928 1 4582 4584
2929 1 4585 4586
2930 1 4585 4587
2931 1 4588 4589
2932 1 4588 4590
2933 1 4591 4592
2934 1 4591 4593
2935 1 4594 4595
2936 1 4594 4596
2937 1 4597 4598
2938 1 4597 4599
2939 1 4600 4601
2940 1 4600 4602
2941 1 4603 4604
2942 1 4603 4605
2943 1 4606 4607
2944 1 4606 4608
2945 1 4609 4610
2946 1 4609 4611
2947 1 4612 4613
2948 1 4612 4614
2949 1 4615 4616
2950 1 4615 4617
2951 1 4618 4619
2952 1 4618 4620
2953 1 4621 4622
2954 1 4621 4623
2955 1 4624 4625
2956 1 4624 4626
2957 1 4627 4628
2958 1 4627 4629
2959 1 4630 4631
2960 1 4630 4632
2961 1 4633 4634
2962 1 4633 4635
2963 1 4636 4637
2964 1 4636 4638
2965 1 4639 4640
2966 1 4639 4641
2967 1 4642 4643
2968 1 4642 4644
2969 1 4645 4646
2970 1 4645 4647
2971 1 4648 4649
2972 1 4648 4650
2973 1 4651 4652
2974 1 4651 4653
2975 1 4654 4655
2976 1 4654 4656
2977 1 4657 4658
2978 1 4657 4659
2979 1 4660 4661
2980 1 4660 4662
2981 1 4663 4664
2982 1 4663 4665
2983 1 4666 4667
2984 1 4666 4668
2985 1 4669 4670
2986 1 4669 4671
2987 1 4672 4673
2988 1 4672 4674
2989 1 4675 4676
2990 1 4675 4677
2991 1 4678 4679
2992 1 4678 4680
2993 1 4681 4682
2994 1 4681 4683
2995 1 4684 4685
2996 1 4684 4686
2997 1 4687 4688
2998 1 4687 4689
2999 1 4690 4691
3000 1 4690 4692
3001 1 4693 4694
3002 1 4693 4695
3003 1 4696 4697
3004 1 4696 4698
3005 1 4699 4700
3006 1 4699 4701
3007 1 4702 4703
3008 1 4702 4704
3009 1 4705 4706
3010 1 4705 4707
3011 1 4708 4709
3012 1 4708 4710
3013 1 4711 4712
3014 1 4711 4713
3015 1 4714 4715
3016 1 4714 4716
3017 1 4717 4718
3018 1 4717 4719
3019 1 4720 4721
3020 1 4720 4722
3021 1 4723 4724
3022 1 4723 4725
3023 1 4726 4727
3024 1 4726 4728
3025 1 4729 4730
3026 1 4729 4731
3027 1 4732 4733
3028 1 4732 4734
3029 1 4735 4736
3030 1 4735 4737
3031 1 4738 4739
3032 1 4738 4740
3033 1 4741 4742
3034 1 4741 4743
3035 1 4744 4745
3036 1 4744 4746
3037 1 4747 4748
3038 1 4747 4749
3039 1 4750 4751
3040 1 4750 4752
3041 1 4753 4754
3042 1 4753 4755
3043 1 4756 4757
3044 1 4756 4758
3045 1 4759 4760
3046 1 4759 4761
3047 1 4762 4763
3048 1 4762 4764
3049 1 4765 4766
3050 1 4765 4767
3051 1 4768 4769
3052 1 4768 4770
3053 1 4771 4772
3054 1 4771 4773
3055 1 4774 4775
3056 1 4774 4776
3057 1 4777 4778
3058 1 4777 4779
3059 1 4780 4781
3060 1 4780 4782
3061 1 4783 4784
3062 1 4783 4785
3063 1 4786 4787
3064 1 4786 4788
3065 1 4789 4790
3066 1 4789 4791
3067 1 4792 4793
3068 1 4792 4794
3069 1 4795 4796
3070 1 4795 4797
3071 1 4798 4799
3072 1 4798 4800
3073 1 4801 4802
3074 1 4801 4803
3075 1 4804 4805
3076 1 4804 4806
3077 1 4807 4808
3078 1 4807 4809
3079 1 4810 4811
3080 1 4810 4812
3081 1 4813 4814
3082 1 4813 4815
3083 1 4816 4817
3084 1 4816 4818
3085 1 4819 4820
3086 1 4819 4821
3087 1 4822 4823
3088 1 4822 4824
3089 1 4825 4826
3090 1 4825 4827
3091 1 4828 4829
3092 1 4828 4830
3093 1 4831 4832
3094 1 4831 4833
3095 1 4834 4835
3096 1 4834 4836
3097 1 4837 4838
3098 1 4837 4839
3099 1 4840 4841
3100 1 4840 4842
3101 1 4843 4844
3102 1 4843 4845
3103 1 4846 4847
3104 1 4846 4848
3105 1 4849 4850
3106 1 4849 4851
3107 1 4852 4853
3108 1 4852 4854
3109 1 4855 4856
3110 1 4855 4857
3111 1 4858 4859
3112 1 4858 4860
3113 1 4861 4862
3114 1 4861 4863
3115 1 4864 4865
3116 1 4864 4866
3117 1 4867 4868
3118 1 4867 4869
3119 1 4870 4871
3120 1 4870 4872
3121 1 4873 4874
3122 1 4873 4875
3123 1 4876 4877
3124 1 4876 4878
3125 1 4879 4880
3126 1 4879 4881
3127 1 4882 4883
3128 1 4882 4884
3129 1 4885 4886
3130 1 4885 4887
3131 1 4888 4889
3132 1 4888 4890
3133 1 4891 4892
3134 1 4891 4893
3135 1 4894 4895
3136 1 4894 4896
3137 1 4897 4898
3138 1 4897 4899
3139 1 4900 4901
3140 1 4900 4902
3141 1 4903 4904
3142 1 4903 4905
3143 1 4906 4907
3144 1 4906 4908
3145 1 4909 4910
3146 1 4909 4911
3147 1 4912 4913
3148 1 4912 4914
3149 1 4915 4916
3150 1 4915 4917
3151 1 4918 4919
3152 1 4918 4920
3153 1 4921 4922
3154 1 4921 4923
3155 1 4924 4925
3156 1 4924 4926
3157 1 4927 4928
3158 1 4927 4929
3159 1 4930 4931
3160 1 4930 4932
3161 1 4933 4934
3162 1 4933 4935
3163 1 4936 4937
3164 1 4936 4938
3165 1 4939 4940
3166 1 4939 4941
3167 1 4942 4943
3168 1 4942 4944
3169 1 4945 4946
3170 1 4945 4947
3171 1 4948 4949
3172 1 4948 4950
3173 1 4951 4952
3174 1 4951 4953
3175 1 4954 4955
3176 1 4954 4956
3177 1 4957 4958
3178 1 4957 4959
3179 1 4960 4961
3180 1 4960 4962
3181 1 4963 4964
3182 1 4963 4965
3183 1 4966 4967
3184 1 4966 4968
3185 1 4969 4970
3186 1 4969 4971
3187 1 4972 4973
3188 1 4972 4974
3189 1 4975 4976
3190 1 4975 4977
3191 1 4978 4979
3192 1 4978 4980
3193 1 4981 4982
3194 1 4981 4983
3195 1 4984 4985
3196 1 4984 4986
3197 1 4987 4988
3198 1 4987 4989
3199 1 4990 4991
3200 1 4990 4992
3201 1 4993 4994
3202 1 4993 4995
3203 1 4996 4997
3204 1 4996 4998
3205 1 4999 5000
3206 1 4999 5001
3207 1 5002 5003
3208 1 5002 5004
3209 1 5005 5006
3210 1 5005 5007
3211 1 5008 5009
3212 1 5008 5010
3213 1 5011 5012
3214 1 5011 5013
3215 1 5014 5015
3216 1 5014 5016
3217 1 5017 5018
3218 1 5017 5019
3219 1 5020 5021
3220 1 5020 5022
3221 1 5023 5024
3222 1 5023 5025
3223 1 5026 5027
3224 1 5026 5028
3225 1 5029 5030
3226 1 5029 5031
3227 1 5032 5033
3228 1 5032 5034
3229 1 5035 5036
3230 1 5035 5037
3231 1 5038 5039
3232 1 5038 5040
3233 1 5041 5042
3234 1 5041 5043
3235 1 5044 5045
3236 1 5044 5046
3237 1 5047 5048
3238 1 5047 5049
3239 1 5050 5051
3240 1 5050 5052
3241 1 5053 5054
3242 1 5053 5055
3243 1 5056 5057
3244 1 5056 5058
3245 1 5059 5060
3246 1 5059 5061
3247 1 5062 5063
3248 1 5062 5064
3249 1 5065 5066
3250 1 5065 5067
3251 1 5068 5069
3252 1 5068 5070
3253 1 5071 5072
3254 1 5071 5073
3255 1 5074 5075
3256 1 5074 5076
3257 1 5077 5078
3258 1 5077 5079
3259 1 5080 5081
3260 1 5080 5082
3261 1 5083 5084
3262 1 5083 5085
3263 1 5086 5087
3264 1 5086 5088
3265 1 5089 5090
3266 1 5089 5091
3267 1 5092 5093
3268 1 5092 5094
3269 1 5095 5096
3270 1 5095 5097
3271 1 5098 5099
3272 1 5098 5100
3273 1 5101 5102
3274 1 5101 5103
3275 1 5104 5105
3276 1 5104 5106
3277 1 5107 5108
3278 1 5107 5109
3279 1 5110 5111
3280 1 5110 5112
3281 1 5113 5114
3282 1 5113 5115
3283 1 5116 5117
3284 1 5116 5118
3285 1 5119 5120
3286 1 5119 5121
3287 1 5122 5123
3288 1 5122 5124
3289 1 5125 5126
3290 1 5125 5127
3291 1 5128 5129
3292 1 5128 5130
3293 1 5131 5132
3294 1 5131 5133
3295 1 5134 5135
3296 1 5134 5136
3297 1 5137 5138
3298 1 5137 5139
3299 1 5140 5141
3300 1 5140 5142
3301 1 5143 5144
3302 1 5143 5145
3303 1 5146 5147
3304 1 5146 5148
3305 1 5149 5150
3306 1 5149 5151
3307 1 5152 5153
3308 1 5152 5154
3309 1 5155 5156
3310 1 5155 5157
3311 1 5158 5159
3312 1 5158 5160
3313 1 5161 5162
3314 1 5161 5163
3315 1 5164 5165
3316 1 5164 5166
3317 1 5167 5168
3318 1 5167 5169
3319 1 5170 5171
3320 1 5170 5172
3321 1 5173 5174
3322 1 5173 5175
3323 1 5176 5177
3324 1 5176 5178
3325 1 5179 5180
3326 1 5179 5181
3327 1 5182 5183
3328 1 5182 5184
3329 1 5185 5186
3330 1 5185 5187
3331 1 5188 5189
3332 1 5188 5190
3333 1 5191 5192
3334 1 5191 5193
3335 1 5194 5195
3336 1 5194 5196
3337 1 5197 5198
3338 1 5197 5199
3339 1 5200 5201
3340 1 5200 5202
3341 1 5203 5204
3342 1 5203 5205
3343 1 5206 5207
3344 1 5206 5208
3345 1 5209 5210
3346 1 5209 5211
3347 1 5212 5213
3348 1 5212 5214
3349 1 5215 5216
3350 1 5215 5217
3351 1 5218 5219
3352 1 5218 5220
3353 1 5221 5222
3354 1 5221 5223
3355 1 5224 5225
3356 1 5224 5226
3357 1 5227 5228
3358 1 5227 5229
3359 1 5230 5231
3360 1 5230 5232
3361 1 5233 5234
3362 1 5233 5235
3363 1 5236 5237
3364 1 5236 5238
3365 1 5239 5240
3366 1 5239 5241
3367 1 5242 5243
3368 1 5242 5244
3369 1 5245 5246
3370 1 5245 5247
3371 1 5248 5249
3372 1 5248 5250
3373 1 5251 5252
3374 1 5251 5253
3375 1 5254 5255
3376 1 5254 5256
3377 1 5257 5258
3378 1 5257 5259
3379 1 5260 5261
3380 1 5260 5262
3381 1 5263 5264
3382 1 5263 5265
3383 1 5266 5267
3384 1 5266 5268
3385 1 5269 5270
3386 1 5269 5271
3387 1 5272 5273
3388 1 5272 5274
3389 1 5275 5276
3390 1 5275 5277
3391 1 5278 5279
3392 1 5278 5280
3393 1 5281 5282
3394 1 5281 5283
3395 1 5284 5285
3396 1 5284 5286
3397 1 5287 5288
3398 1 5287 5289
3399 1 5290 5291
3400 1 5290 5292
3401 1 5293 5294
3402 1 5293 5295
3403 1 5296 5297
3404 1 5296 5298
3405 1 5299 5300
3406 1 5299 5301
3407 1 5302 5303
3408 1 5302 5304
3409 1 5305 5306
3410 1 5305 5307
3411 1 5308 5309
3412 1 5308 5310
3413 1 5311 5312
3414 1 5311 5313
3415 1 5314 5315
3416 1 5314 5316
3417 1 5317 5318
3418 1 5317 5319
3419 1 5320 5321
3420 1 5320 5322
3421 1 5323 5324
3422 1 5323 5325
3423 1 5326 5327
3424 1 5326 5328
3425 1 5329 5330
3426 1 5329 5331
3427 1 5332 5333
3428 1 5332 5334
3429 1 5335 5336
3430 1 5335 5337
3431 1 5338 5339
3432 1 5338 5340
3433 1 5341 5342
3434 1 5341 5343
3435 1 5344 5345
3436 1 5344 5346
3437 1 5347 5348
3438 1 5347 5349
3439 1 5350 5351
3440 1 5350 5352
3441 1 5353 5354
3442 1 5353 5355
3443 1 5356 5357
3444 1 5356 5358
3445 1 5359 5360
3446 1 5359 5361
3447 1 5362 5363
3448 1 5362 5364
3449 1 5365 5366
3450 1 5365 5367
3451 1 5368 5369
3452 1 5368 5370
3453 1 5371 5372
3454 1 5371 5373
3455 1 5374 5375
3456 1 5374 5376
3457 1 5377 5378
3458 1 5377 5379
3459 1 5380 5381
3460 1 5380 5382
3461 1 5383 5384
3462 1 5383 5385
3463 1 5386 5387
3464 1 5386 5388
3465 1 5389 5390
3466 1 5389 5391
3467 1 5392 5393
3468 1 5392 5394
3469 1 5395 5396
3470 1 5395 5397
3471 1 5398 5399
3472 1 5398 5400
3473 1 5401 5402
3474 1 5401 5403
3475 1 5404 5405
3476 1 5404 5406
3477 1 5407 5408
3478 1 5407 5409
3479 1 5410 5411
3480 1 5410 5412
3481 1 5413 5414
3482 1 5413 5415
3483 1 5416 5417
3484 1 5416 5418
3485 1 5419 5420
3486 1 5419 5421
3487 1 5422 5423
3488 1 5422 5424
3489 1 5425 5426
3490 1 5425 5427
3491 1 5428 5429
3492 1 5428 5430
3493 1 5431 5432
3494 1 5431 5433
3495 1 5434 5435
3496 1 5434 5436
3497 1 5437 5438
3498 1 5437 5439
3499 1 5440 5441
3500 1 5440 5442
3501 1 5443 5444
3502 1 5443 5445
3503 1 5446 5447
3504 1 5446 5448
3505 1 5449 5450
3506 1 5449 5451
3507 1 5452 5453
3508 1 5452 5454
3509 1 5455 5456
3510 1 5455 5457
3511 1 5458 5459
3512 1 5458 5460
3513 1 5461 5462
3514 1 5461 5463
3515 1 5464 5465
3516 1 5464 5466
3517 1 5467 5468
3518 1 5467 5469
3519 1 5470 5471
3520 1 5470 5472
3521 1 5473 5474
3522 1 5473 5475
3523 1 5476 5477
3524 1 5476 5478
3525 1 5479 5480
3526 1 5479 5481
3527 1 5482 5483
3528 1 5482 5484
3529 1 5485 5486
3530 1 5485 5487
3531 1 5488 5489
3532 1 5488 5490
3533 1 5491 5492
3534 1 5491 5493
3535 1 5494 5495
3536 1 5494 5496
3537 1 5497 5498
3538 1 5497 5499
3539 1 5500 5501
3540 1 5500 5502
3541 1 5503 5504
3542 1 5503 5505
3543 1 5506 5507
3544 1 5506 5508
3545 1 5509 5510
3546 1 5509 5511
3547 1 5512 5513
3548 1 5512 5514
3549 1 5515 5516
3550 1 5515 5517
3551 1 5518 5519
3552 1 5518 5520
3553 1 5521 5522
3554 1 5521 5523
3555 1 5524 5525
3556 1 5524 5526
3557 1 5527 5528
3558 1 5527 5529
3559 1 5530 5531
3560 1 5530 5532
3561 1 5533 5534
3562 1 5533 5535
3563 1 5536 5537
3564 1 5536 5538
3565 1 5539 5540
3566 1 5539 5541
3567 1 5542 5543
3568 1 5542 5544
3569 1 5545 5546
3570 1 5545 5547
3571 1 5548 5549
3572 1 5548 5550
3573 1 5551 5552
3574 1 5551 5553
3575 1 5554 5555
3576 1 5554 5556
3577 1 5557 5558
3578 1 5557 5559
3579 1 5560 5561
3580 1 5560 5562
3581 1 5563 5564
3582 1 5563 5565
3583 1 5566 5567
3584 1 5566 5568
3585 1 5569 5570
3586 1 5569 5571
3587 1 5572 5573
3588 1 5572 5574
3589 1 5575 5576
3590 1 5575 5577
3591 1 5578 5579
3592 1 5578 5580
3593 1 5581 5582
3594 1 5581 5583
3595 1 5584 5585
3596 1 5584 5586
3597 1 5587 5588
3598 1 5587 5589
3599 1 5590 5591
3600 1 5590 5592
3601 1 5593 5594
3602 1 5593 5595
3603 1 5596 5597
3604 1 5596 5598
3605 1 5599 5600
3606 1 5599 5601
3607 1 5602 5603
3608 1 5602 5604
3609 1 5605 5606
3610 1 5605 5607
3611 1 5608 5609
3612 1 5608 5610
3613 1 5611 5612
3614 1 5611 5613
3615 1 5614 5615
3616 1 5614 5616
3617 1 5617 5618
3618 1 5617 5619
3619 1 5620 5621
3620 1 5620 5622
3621 1 5623 5624
3622 1 5623 5625
3623 1 5626 5627
3624 1 5626 5628
3625 1 5629 5630
3626 1 5629 5631
3627 1 5632 5633
3628 1 5632 5634
3629 1 5635 5636
3630 1 5635 5637
3631 1 5638 5639
3632 1 5638 5640
3633 1 5641 5642
3634 1 5641 5643
3635 1 5644 5645
3636 1 5644 5646
3637 1 5647 5648
3638 1 5647 5649
3639 1 5650 5651
3640 1 5650 5652
3641 1 5653 5654
3642 1 5653 5655
3643 1 5656 5657
3644 1 5656 5658
3645 1 5659 5660
3646 1 5659 5661
3647 1 5662 5663
3648 1 5662 5664
3649 1 5665 5666
3650 1 5665 5667
3651 1 5668 5669
3652 1 5668 5670
3653 1 5671 5672
3654 1 5671 5673
3655 1 5674 5675
3656 1 5674 5676
3657 1 5677 5678
3658 1 5677 5679
3659 1 5680 5681
3660 1 5680 5682
3661 1 5683 5684
3662 1 5683 5685
3663 1 5686 5687
3664 1 5686 5688
3665 1 5689 5690
3666 1 5689 5691
3667 1 5692 5693
3668 1 5692 5694
3669 1 5695 5696
3670 1 5695 5697
3671 1 5698 5699
3672 1 5698 5700
3673 1 5701 5702
3674 1 5701 5703
3675 1 5704 5705
3676 1 5704 5706
3677 1 5707 5708
3678 1 5707 5709
3679 1 5710 5711
3680 1 5710 5712
3681 1 5713 5714
3682 1 5713 5715
3683 1 5716 5717
3684 1 5716 5718
3685 1 5719 5720
3686 1 5719 5721
3687 1 5722 5723
3688 1 5722 5724
3689 1 5725 5726
3690 1 5725 5727
3691 1 5728 5729
3692 1 5728 5730
3693 1 5731 5732
3694 1 5731 5733
3695 1 5734 5735
3696 1 5734 5736
3697 1 5737 5738
3698 1 5737 5739
3699 1 5740 5741
3700 1 5740 5742
3701 1 5743 5744
3702 1 5743 5745
3703 1 5746 5747
3704 1 5746 5748
3705 1 5749 5750
3706 1 5749 5751
3707 1 5752 5753
3708 1 5752 5754
3709 1 5755 5756
3710 1 5755 5757
3711 1 5758 5759
3712 1 5758 5760
3713 1 5761 5762
3714 1 5761 5763
3715 1 5764 5765
3716 1 5764 5766
3717 1 5767 5768
3718 1 5767 5769
3719 1 5770 5771
3720 1 5770 5772
3721 1 5773 5774
3722 1 5773 5775
3723 1 5776 5777
3724 1 5776 5778
3725 1 5779 5780
3726 1 5779 5781
3727 1 5782 5783
3728 1 5782 5784
3729 1 5785 5786
3730 1 5785 5787
3731 1 5788 5789
3732 1 5788 5790
3733 1 5791 5792
3734 1 5791 5793
3735 1 5794 5795
3736 1 5794 5796
3737 1 5797 5798
3738 1 5797 5799
3739 1 5800 5801
3740 1 5800 5802
3741 1 5803 5804
3742 1 5803 5805
3743 1 5806 5807
3744 1 5806 5808
3745 1 5809 5810
3746 1 5809 5811
3747 1 5812 5813
3748 1 5812 5814
3749 1 5815 5816
3750 1 5815 5817
3751 1 5818 5819
3752 1 5818 5820
3753 1 5821 5822
3754 1 5821 5823
3755 1 5824 5825
3756 1 5824 5826
3757 1 5827 5828
3758 1 5827 5829
3759 1 5830 5831
3760 1 5830 5832
3761 1 5833 5834
3762 1 5833 5835
3763 1 5836 5837
3764 1 5836 5838
3765 1 5839 5840
3766 1 5839 5841
3767 1 5842 5843
3768 1 5842 5844
3769 1 5845 5846
3770 1 5845 5847
3771 1 5848 5849
3772 1 5848 5850
3773 1 5851 5852
3774 1 5851 5853
3775 1 5854 5855
3776 1 5854 5856
3777 1 5857 5858
3778 1 5857 5859
3779 1 5860 5861
3780 1 5860 5862
3781 1 5863 5864
3782 1 5863 5865
3783 1 5866 5867
3784 1 5866 5868
3785 1 5869 5870
3786 1 5869 5871
3787 1 5872 5873
3788 1 5872 5874
3789 1 5875 5876
3790 1 5875 5877
3791 1 5878 5879
3792 1 5878 5880
3793 1 5881 5882
3794 1 5881 5883
3795 1 5884 5885
3796 1 5884 5886
3797 1 5887 5888
3798 1 5887 5889
3799 1 5890 5891
3800 1 5890 5892
3801 1 5893 5894
3802 1 5893 5895
3803 1 5896 5897
3804 1 5896 5898
3805 1 5899 5900
3806 1 5899 5901
3807 1 5902 5903
3808 1 5902 5904
3809 1 5905 5906
3810 1 5905 5907
3811 1 5908 5909
3812 1 5908 5910
3813 1 5911 5912
3814 1 5911 5913
3815 1 5914 5915
3816 1 5914 5916
3817 1 5917 5918
3818 1 5917 5919
3819 1 5920 5921
3820 1 5920 5922
3821 1 5923 5924
3822 1 5923 5925
3823 1 5926 5927
3824 1 5926 5928
3825 1 5929 5930
3826 1 5929 5931
3827 1 5932 5933
3828 1 5932 5934
3829 1 5935 5936
3830 1 5935 5937
3831 1 5938 5939
3832 1 5938 5940
3833 1 5941 5942
3834 1 5941 5943
3835 1 5944 5945
3836 1 5944 5946
3837 1 5947 5948
3838 1 5947 5949
3839 1 5950 5951
3840 1 5950 5952
3841 1 5953 5954
3842 1 5953 5955
3843 1 5956 5957
3844 1 5956 5958
3845 1 5959 5960
3846 1 5959 5961
3847 1 5962 5963
3848 1 5962 5964
3849 1 5965 5966
3850 1 5965 5967
3851 1 5968 5969
3852 1 5968 5970
3853 1 5971 5972
3854 1 5971 5973
3855 1 5974 5975
3856 1 5974 5976
3857 1 5977 5978
3858 1 5977 5979
3859 1 5980 5981
3860 1 5980 5982
3861 1 5983 5984
3862 1 5983 5985
3863 1 5986 5987
3864 1 5986 5988
3865 1 5989 5990
3866 1 5989 5991
3867 1 5992 5993
3868 1 5992 5994
3869 1 5995 5996
3870 1 5995 5997
3871 1 5998 5999
3872 1 5998 6000
3873 1 6001 6002
3874 1 6001 6003
3875 1 6004 6005
3876 1 6004 6006
3877 1 6007 6008
3878 1 6007 6009
3879 1 6010 6011
3880 1 6010 6012
3881 1 6013 6014
3882 1 6013 6015
3883 1 6016 6017
3884 1 6016 6018
3885 1 6019 6020
3886 1 6019 6021
3887 1 6022 6023
3888 1 6022 6024
3889 1 6025 6026
3890 1 6025 6027
3891 1 6028 6029
3892 1 6028 6030
3893 1 6031 6032
3894 1 6031 6033
3895 1 6034 6035
3896 1 6034 6036
3897 1 6037 6038
3898 1 6037 6039
3899 1 6040 6041
3900 1 6040 6042
3901 1 6043 6044
3902 1 6043 6045
3903 1 6046 6047
3904 1 6046 6048
3905 1 6049 6050
3906 1 6049 6051
3907 1 6052 6053
3908 1 6052 6054
3909 1 6055 6056
3910 1 6055 6057
3911 1 6058 6059
3912 1 6058 6060
3913 1 6061 6062
3914 1 6061 6063
3915 1 6064 6065
3916 1 6064 6066
3917 1 6067 6068
3918 1 6067 6069
3919 1 6070 6071
3920 1 6070 6072
3921 1 6073 6074
3922 1 6073 6075
3923 1 6076 6077
3924 1 6076 6078
3925 1 6079 6080
3926 1 6079 6081
3927 1 6082 6083
3928 1 6082 6084
3929 1 6085 6086
3930 1 6085 6087
3931 1 6088 6089
3932 1 6088 6090
3933 1 6091 6092
3934 1 6091 6093
3935 1 6094 6095
3936 1 6094 6096
3937 1 6097 6098
3938 1 6097 6099
3939 1 6100 6101
3940 1 6100 6102
3941 1 6103 6104
3942 1 6103 6105
3943 1 6106 6107
3944 1 6106 6108
3945 1 6109 6110
3946 1 6109 6111
3947 1 6112 6113
3948 1 6112 6114
3949 1 6115 6116
3950 1 6115 6117
3951 1 6118 6119
3952 1 6118 6120
3953 1 6121 6122
3954 1 6121 6123
3955 1 6124 6125
3956 1 6124 6126
3957 1 6127 6128
3958 1 6127 6129
3959 1 6130 6131
3960 1 6130 6132
3961 1 6133 6134
3962 1 6133 6135
3963 1 6136 6137
3964 1 6136 6138
3965 1 6139 6140
3966 1 6139 6141
3967 1 6142 6143
3968 1 6142 6144
3969 1 6145 6146
3970 1 6145 6147
3971 1 6148 6149
3972 1 6148 6150
3973 1 6151 6152
3974 1 6151 6153
3975 1 6154 6155
3976 1 6154 6156
3977 1 6157 6158
3978 1 6157 6159
3979 1 6160 6161
3980 1 6160 6162
3981 1 6163 6164
3982 1 6163 6165
3983 1 6166 6167
3984 1 6166 6168
3985 1 6169 6170
3986 1 6169 6171
3987 1 6172 6173
3988 1 6172 6174
3989 1 6175 6176
3990 1 6175 6177
3991 1 6178 6179
3992 1 6178 6180
3993 1 6181 6182
3994 1 6181 6183
3995 1 6184 6185
3996 1 6184 6186
3997 1 6187 6188
3998 1 6187 6189
3999 1 6190 6191
4000 1 6190 6192
4001 1 6193 6194
4002 1 6193 6195
4003 1 6196 6197
4004 1 6196 6198
4005 1 6199 6200
4006 1 6199 6201
4007 1 6202 6203
4008 1 6202 6204
4009 1 6205 6206
4010 1 6205 6207
4011 1 6208 6209
4012 1 6208 6210
4013 1 6211 6212
4014 1 6211 6213
4015 1 6214 6215
4016 1 6214 6216
4017 1 6217 6218
4018 1 6217 6219
4019 1 6220 6221
4020 1 6220 6222
4021 1 6223 6224
4022 1 6223 6225
4023 1 6226 6227
4024 1 6226 6228
4025 1 6229 6230
4026 1 6229 6231
4027 1 6232 6233
4028 1 6232 6234
4029 1 6235 6236
4030 1 6235 6237
4031 1 6238 6239
4032 1 6238 6240
4033 1 6241 6242
4034 1 6241 6243
4035 1 6244 6245
4036 1 6244 6246
4037 1 6247 6248
4038 1 6247 6249
4039 1 6250 6251
4040 1 6250 6252
4041 1 6253 6254
4042 1 6253 6255
4043 1 6256 6257
4044 1 6256 6258
4045 1 6259 6260
4046 1 6259 6261
4047 1 6262 6263
4048 1 6262 6264
4049 1 6265 6266
4050 1 6265 6267
4051 1 6268 6269
4052 1 6268 6270
4053 1 6271 6272
4054 1 6271 6273
4055 1 6274 6275
4056 1 6274 6276
4057 1 6277 6278
4058 1 6277 6279
4059 1 6280 6281
4060 1 6280 6282
4061 1 6283 6284
4062 1 6283 6285
4063 1 6286 6287
4064 1 6286 6288
4065 1 6289 6290
4066 1 6289 6291
4067 1 6292 6293
4068 1 6292 6294
4069 1 6295 6296
4070 1 6295 6297
4071 1 6298 6299
4072 1 6298 6300
4073 1 6301 6302
4074 1 6301 6303
4075 1 6304 6305
4076 1 6304 6306
4077 1 6307 6308
4078 1 6307 6309
4079 1 6310 6311
4080 1 6310 6312
4081 1 6313 6314
4082 1 6313 6315
4083 1 6316 6317
4084 1 6316 6318
4085 1 6319 6320
4086 1 6319 6321
4087 1 6322 6323
4088 1 6322 6324
4089 1 6325 6326
4090 1 6325 6327
4091 1 6328 6329
4092 1 6328 6330
4093 1 6331 6332
4094 1 6331 6333
4095 1 6334 6335
4096 1 6334 6336
4097 1 6337 6338
4098 1 6337 6339
4099 1 6340 6341
4100 1 6340 6342
4101 1 6343 6344
4102 1 6343 6345
4103 1 6346 6347
4104 1 6346 6348
4105 1 6349 6350
4106 1 6349 6351
4107 1 6352 6353
4108 1 6352 6354
4109 1 6355 6356
4110 1 6355 6357
4111 1 6358 6359
4112 1 6358 6360
4113 1 6361 6362
4114 1 6361 6363
4115 1 6364 6365
4116 1 6364 6366
4117 1 6367 6368
4118 1 6367 6369
4119 1 6370 6371
4120 1 6370 6372
4121 1 6373 6374
4122 1 6373 6375
4123 1 6376 6377
4124 1 6376 6378
4125 1 6379 6380
4126 1 6379 6381
4127 1 6382 6383
4128 1 6382 6384
4129 1 6385 6386
4130 1 6385 6387
4131 1 6388 6389
4132 1 6388 6390
4133 1 6391 6392
4134 1 6391 6393
4135 1 6394 6395
4136 1 6394 6396
4137 1 6397 6398
4138 1 6397 6399
4139 1 6400 6401
4140 1 6400 6402
4141 1 6403 6404
4142 1 6403 6405
4143 1 6406 6407
4144 1 6406 6408
4145 1 6409 6410
4146 1 6409 6411
4147 1 6412 6413
4148 1 6412 6414
4149 1 6415 6416
4150 1 6415 6417
4151 1 6418 6419
4152 1 6418 6420
4153 1 6421 6422
4154 1 6421 6423
4155 1 6424 6425
4156 1 6424 6426
4157 1 6427 6428
4158 1 6427 6429
4159 1 6430 6431
4160 1 6430 6432
4161 1 6433 6434
4162 1 6433 6435
4163 1 6436 6437
4164 1 6436 6438
4165 1 6439 6440
4166 1 6439 6441
4167 1 6442 6443
4168 1 6442 6444
4169 1 6445 6446
4170 1 6445 6447
4171 1 6448 6449
4172 1 6448 6450
4173 1 6451 6452
4174 1 6451 6453
4175 1 6454 6455
4176 1 6454 6456
4177 1 6457 6458
4178 1 6457 6459
4179 1 6460 6461
4180 1 6460 6462
4181 1 6463 6464
4182 1 6463 6465
4183 1 6466 6467
4184 1 6466 6468
4185 1 6469 6470
4186 1 6469 6471
4187 1 6472 6473
4188 1 6472 6474
4189 1 6475 6476
4190 1 6475 6477
4191 1 6478 6479
4192 1 6478 6480
4193 1 6481 6482
4194 1 6481 6483
4195 1 6484 6485
4196 1 6484 6486
4197 1 6487 6488
4198 1 6487 6489
4199 1 6490 6491
4200 1 6490 6492
4201 1 6493 6494
4202 1 6493 6495
4203 1 6496 6497
4204 1 6496 6498
4205 1 6499 6500
4206 1 6499 6501
4207 1 6502 6503
4208 1 6502 6504
4209 1 6505 6506
4210 1 6505 6507
4211 1 6508 6509
4212 1 6508 6510
4213 1 6511 6512
4214 1 6511 6513
4215 1 6514 6515
4216 1 6514 6516
4217 1 6517 6518
4218 1 6517 6519
4219 1 6520 6521
4220 1 6520 6522
4221 1 6523 6524
4222 1 6523 6525
4223 1 6526 6527
4224 1 6526 6528
4225 1 6529 6530
4226 1 6529 6531
4227 1 6532 6533
4228 1 6532 6534
4229 1 6535 6536
4230 1 6535 6537
4231 1 6538 6539
4232 1 6538 6540
4233 1 6541 6542
4234 1 6541 6543
4235 1 6544 6545
4236 1 6544 6546
4237 1 6547 6548
4238 1 6547 6549
4239 1 6550 6551
4240 1 6550 6552
4241 1 6553 6554
4242 1 6553 6555
4243 1 6556 6557
4244 1 6556 6558
4245 1 6559 6560
4246 1 6559 6561
4247 1 6562 6563
4248 1 6562 6564
4249 1 6565 6566
4250 1 6565 6567
4251 1 6568 6569
4252 1 6568 6570
4253 1 6571 6572
4254 1 6571 6573
4255 1 6574 6575
4256 1 6574 6576
4257 1 6577 6578
4258 1 6577 6579
4259 1 6580 6581
4260 1 6580 6582
4261 1 6583 6584
4262 1 6583 6585
4263 1 6586 6587
4264 1 6586 6588
4265 1 6589 6590
4266 1 6589 6591
4267 1 6592 6593
4268 1 6592 6594
4269 1 6595 6596
4270 1 6595 6597
4271 1 6598 6599
4272 1 6598 6600
4273 1 6601 6602
4274 1 6601 6603
4275 1 6604 6605
4276 1 6604 6606
4277 1 6607 6608
4278 1 6607 6609
4279 1 6610 6611
4280 1 6610 6612
4281 1 6613 6614
4282 1 6613 6615
4283 1 6616 6617
4284 1 6616 6618
4285 1 6619 6620
4286 1 6619 6621
4287 1 6622 6623
4288 1 6622 6624
4289 1 6625 6626
4290 1 6625 6627
4291 1 6628 6629
4292 1 6628 6630
4293 1 6631 6632
4294 1 6631 6633
4295 1 6634 6635
4296 1 6634 6636
4297 1 6637 6638
4298 1 6637 6639
4299 1 6640 6641
4300 1 6640 6642
4301 1 6643 6644
4302 1 6643 6645
4303 1 6646 6647
4304 1 6646 6648
4305 1 6649 6650
4306 1 6649 6651
4307 1 6652 6653
4308 1 6652 6654
4309 1 6655 6656
4310 1 6655 6657
4311 1 6658 6659
4312 1 6658 6660
4313 1 6661 6662
4314 1 6661 6663
4315 1 6664 6665
4316 1 6664 6666
4317 1 6667 6668
4318 1 6667 6669
4319 1 6670 6671
4320 1 6670 6672
4321 1 6673 6674
4322 1 6673 6675
4323 1 6676 6677
4324 1 6676 6678
4325 1 6679 6680
4326 1 6679 6681
4327 1 6682 6683
4328 1 6682 6684
4329 1 6685 6686
4330 1 6685 6687
4331 1 6688 6689
4332 1 6688 6690
4333 1 6691 6692
4334 1 6691 6693
4335 1 6694 6695
4336 1 6694 6696
4337 1 6697 6698
4338 1 6697 6699
4339 1 6700 6701
4340 1 6700 6702
4341 1 6703 6704
4342 1 6703 6705
4343 1 6706 6707
4344 1 6706 6708
4345 1 6709 6710
4346 1 6709 6711
4347 1 6712 6713
4348 1 6712 6714
4349 1 6715 6716
4350 1 6715 6717
4351 1 6718 6719
4352 1 6718 6720
4353 1 6721 6722
4354 1 6721 6723
4355 1 6724 6725
4356 1 6724 6726
4357 1 6727 6728
4358 1 6727 6729
4359 1 6730 6731
4360 1 6730 6732
4361 1 6733 6734
4362 1 6733 6735
4363 1 6736 6737
4364 1 6736 6738
4365 1 6739 6740
4366 1 6739 6741
4367 1 6742 6743
4368 1 6742 6744
4369 1 6745 6746
4370 1 6745 6747
4371 1 6748 6749
4372 1 6748 6750
4373 1 6751 6752
4374 1 6751 6753
4375 1 6754 6755
4376 1 6754 6756
4377 1 6757 6758
4378 1 6757 6759
4379 1 6760 6761
4380 1 6760 6762
4381 1 6763 6764
4382 1 6763 6765
4383 1 6766 6767
4384 1 6766 6768
4385 1 6769 6770
4386 1 6769 6771
4387 1 6772 6773
4388 1 6772 6774
4389 1 6775 6776
4390 1 6775 6777
4391 1 6778 6779
4392 1 6778 6780
4393 1 6781 6782
4394 1 6781 6783
4395 1 6784 6785
4396 1 6784 6786
4397 1 6787 6788
4398 1 6787 6789
4399 1 6790 6791
4400 1 6790 6792
4401 1 6793 6794
4402 1 6793 6795
4403 1 6796 6797
4404 1 6796 6798
4405 1 6799 6800
4406 1 6799 6801
4407 1 6802 6803
4408 1 6802 6804
4409 1 6805 6806
4410 1 6805 6807
4411 1 6808 6809
4412 1 6808 6810
4413 1 6811 6812
4414 1 6811 6813
4415 1 6814 6815
4416 1 6814 6816
4417 1 6817 6818
4418 1 6817 6819
4419 1 6820 6821
4420 1 6820 6822
4421 1 6823 6824
4422 1 6823 6825
4423 1 6826 6827
4424 1 6826 6828
4425 1 6829 6830
4426 1 6829 6831
4427 1 6832 6833
4428 1 6832 6834
4429 1 6835 6836
4430 1 6835 6837
4431 1 6838 6839
4432 1 6838 6840
4433 1 6841 6842
4434 1 6841 6843
4435 1 6844 6845
4436 1 6844 6846
4437 1 6847 6848
4438 1 6847 6849
4439 1 6850 6851
4440 1 6850 6852
4441 1 6853 6854
4442 1 6853 6855
4443 1 6856 6857
4444 1 6856 6858
4445 1 6859 6860
4446 1 6859 6861
4447 1 6862 6863
4448 1 6862 6864
4449 1 6865 6866
4450 1 6865 6867
4451 1 6868 6869
4452 1 6868 6870
4453 1 6871 6872
4454 1 6871 6873
4455 1 6874 6875
4456 1 6874 6876
4457 1 6877 6878
4458 1 6877 6879
4459 1 6880 6881
4460 1 6880 6882
4461 1 6883 6884
4462 1 6883 6885
4463 1 6886 6887
4464 1 6886 6888
4465 1 6889 6890
4466 1 6889 6891
4467 1 6892 6893
4468 1 6892 6894
4469 1 6895 6896
4470 1 6895 6897
4471 1 6898 6899
4472 1 6898 6900
4473 1 6901 6902
4474 1 6901 6903
4475 1 6904 6905
4476 1 6904 6906
4477 1 6907 6908
4478 1 6907 6909
4479 1 6910 6911
4480 1 6910 6912
4481 1 6913 6914
4482 1 6913 6915
4483 1 6916 6917
4484 1 6916 6918
4485 1 6919 6920
4486 1 6919 6921
4487 1 6922 6923
4488 1 6922 6924
4489 1 6925 6926
4490 1 6925 6927
4491 1 6928 6929
4492 1 6928 6930
4493 1 6931 6932
4494 1 6931 6933
4495 1 6934 6935
4496 1 6934 6936
4497 1 6937 6938
4498 1 6937 6939
4499 1 6940 6941
4500 1 6940 6942
4501 1 6943 6944
4502 1 6943 6945
4503 1 6946 6947
4504 1 6946 6948
4505 1 6949 6950
4506 1 6949 6951
4507 1 6952 6953
4508 1 6952 6954
4509 2 7206 7211
4510 3 7207 7208
4511 3 7207 7209
4512 3 7207 7210
4513 4 7206 7207
4514 2 7212 7217
4515 3 7213 7214
4516 3 7213 7215
4517 3 7213 7216
4518 4 7212 7213
4519 2 7218 7223
4520 3 7219 7220
4521 3 7219 7221
4522 3 7219 7222
4523 4 7218 7219
4524 2 7224 7229
4525 3 7225 7226
4526 3 7225 7227
4527 3 7225 7228
4528 4 7224 7225
4529 2 7230 7235
4530 3 7231 7232
4531 3 7231 7233
4532 3 7231 7234
4533 4 7230 7231
4534 2 7236 7241
4535 3 7237 7238
4536 3 7237 7239
4537 3 7237 7240
4538 4 7236 7237
4539 2 7242 7247
4540 3 7243 7244
4541 3 7243 7245
4542 3 7243 7246
4543 4 7242 7243
4544 2 7248 7253
4545 3 7249 7250
4546 3 7249 7251
4547 3 7249 7252
4548 4 7248 7249
4549 2 7254 7259
4550 3 7255 7256
4551 3 7255 7257
4552 3 7255 7258
4553 4 7254 7255
4554 2 7260 7265
4555 3 7261 7262
4556 3 7261 7263
4557 3 7261 7264
4558 4 7260 7261
4559 2 7266 7271
4560 3 7267 7268
4561 3 7267 7269
4562 3 7267 7270
4563 4 7266 7267
4564 2 7272 7277
4565 3 7273 7274
4566 3 7273 7275
4567 3 7273 7276
4568 4 7272 7273
4569 2 7278 7283
4570 3 7279 7280
4571 3 7279 7281
4572 3 7279 7282
4573 4 7278 7279
4574 2 7284 7289
4575 3 7285 7286
4576 3 7285 7287
4577 3 7285 7288
4578 4 7284 7285
4579 2 7290 7295
4580 3 7291 7292
4581 3 7291 7293
4582 3 7291 7294
4583 4 7290 7291
4584 2 7296 7301
4585 3 7297 7298
4586 3 7297 7299
4587 3 7297 7300
4588 4 7296 7297
4589 2 7302 7307
4590 3 7303 7304
4591 3 7303 7305
4592 3 7303 7306
4593 4 7302 7303
4594 2 7308 7313
4595 3 7309 7310
4596 3 7309 7311
4597 3 7309 7312
4598 4 7308 7309
4599 2 7314 7319
4600 3 7315 7316
4601 3 7315 7317
4602 3 7315 7318
4603 4 7314 7315
4604 2 7320 7325
4605 3 7321 7322
4606 3 7321 7323
4607 3 7321 7324
4608 4 7320 7321
4609 2 7326 7331
4610 3 7327 7328
4611 3 7327 7329
4612 3 7327 7330
4613 4 7326 7327
4614 2 7332 7337
4615 3 7333 7334
4616 3 7333 7335
4617 3 7333 7336
4618 4 7332 7333
4619 2 7338 7343
4620 3 7339 7340
4621 3 7339 7341
4622 3 7339 7342
4623 4 7338 7339
4624 2 7344 7349
4625 3 7345 7346
4626 3 7345 7347
4627 3 7345 7348
4628 4 7344 7345
4629 2 7350 7355
4630 3 7351 7352
4631 3 7351 7353
4632 3 7351 7354
4633 4 7350 7351
4634 2 7356 7361
4635 3 7357 7358
4636 3 7357 7359
4637 3 7357 7360
4638 4 7356 7357
4639 2 7362 7367
4640 3 7363 7364
4641 3 7363 7365
4642 3 7363 7366
4643 4 7362 7363
4644 2 7368 7373
4645 3 7369 7370
4646 3 7369 7371
4647 3 7369 7372
4648 4 7368 7369
4649 2 7374 7379
4650 3 7375 7376
4651 3 7375 7377
4652 3 7375 7378
4653 4 7374 7375
4654 2 7380 7385
4655 3 7381 7382
4656 3 7381 7383
4657 3 7381 7384
4658 4 7380 7381
4659 2 7386 7391
4660 3 7387 7388
4661 3 7387 7389
4662 3 7387 7390
4663 4 7386 7387
4664 2 7392 7397
4665 3 7393 7394
4666 3 7393 7395
4667 3 7393 7396
4668 4 7392 7393
4669 2 7398 7403
4670 3 7399 7400
4671 3 7399 7401
4672 3 7399 7402
4673 4 7398 7399
4674 2 7404 7409
4675 3 7405 7406
4676 3 7405 7407
4677 3 7405 7408
4678 4 7404 7405
4679 2 7410 7415
4680 3 7411 7412
4681 3 7411 7413
4682 3 7411 7414
4683 4 7410 7411
4684 2 7416 7421
4685 3 7417 7418
4686 3 7417 7419
4687 3 7417 7420
4688 4 7416 7417
4689 2 7422 7427
4690 3 7423 7424
4691 3 7423 7425
4692 3 7423 7426
4693 4 7422 7423
4694 2 7428 7433
4695 3 7429 7430
4696 3 7429 7431
4697 3 7429 7432
4698 4 7428 7429
4699 2 7434 7439
4700 3 7435 7436
4701 3 7435 7437
4702 3 7435 7438
4703 4 7434 7435
4704 2 7440 7445
4705 3 7441 7442
4706 3 7441 7443
4707 3 7441 7444
4708 4 7440 7441
4709 2 7446 7451
4710 3 7447 7448
4711 3 7447 7449
4712 3 7447 7450
4713 4 7446 7447
4714 2 7452 7457
4715 3 7453 7454
4716 3 7453 7455
4717 3 7453 7456
4718 4 7452 7453
4719 2 7458 7463
4720 3 7459 7460
4721 3 7459 7461
4722 3 7459 7462
4723 4 7458 7459
4724 2 7464 7469
4725 3 7465 7466
4726 3 7465 7467
4727 3 7465 7468
4728 4 7464 7465
4729 2 7470 7475
4730 3 7471 7472
4731 3 7471 7473
4732 3 7471 7474
4733 4 7470 7471
4734 2 7476 7481
4735 3 7477 7478
4736 3 7477 7479
4737 3 7477 7480
4738 4 7476 7477
4739 2 7482 7487
4740 3 7483 7484
4741 3 7483 7485
4742 3 7483 7486
4743 4 7482 7483
4744 2 7488 7493
4745 3 7489 7490
4746 3 7489 7491
4747 3 7489 7492
4748 4 7488 7489
4749 2 7494 7499
4750 3 7495 7496
4751 3 7495 7497
4752 3 7495 7498
4753 4 7494 7495
4754 2 7500 7505
4755 3 7501 7502
4756 3 7501 7503
4757 3 7501 7504
4758 4 7500 7501
4759 2 7506 7511
4760 3 7507 7508
4761 3 7507 7509
4762 3 7507 7510
4763 4 7506 7507
4764 2 7512 7517
4765 3 7513 7514
4766 3 7513 7515
4767 3 7513 7516
4768 4 7512 7513
4769 5 7518 7519
4770 6 7519 7520
4771 7 7520 7521
4772 8 7521 7522
4773 9 7522 7523
4774 10 7520 7524
4775 11 7523 7525
4776 12 7519 7526
4777 13 7518 7527
4778 14 7518 7528
4779 15 7518 7529
4780 16 7519 7530
4781 17 7521 7531
4782 18 7522 7532
4783 19 7524 7533
4784 20 7525 7534
4785 21 7525 7535
4786 22 7525 7536
4787 23 7526 7537
4788 24 7523 7524
4789 5 7538 7539
4790 6 7539 7540
4791 7 7540 7541
4792 8 7541 7542
4793 9 7542 7543
4794 10 7540 7544
4795 11 7543 7545
4796 12 7539 7546
4797 13 7538 7547
4798 14 7538 7548
4799 15 7538 7549
4800 16 7539 7550
4801 17 7541 7551
4802 18 7542 7552
4803 19 7544 7553
4804 20 7545 7554
4805 21 7545 7555
4806 22 7545 7556
4807 23 7546 7557
4808 24 7543 7544
4809 5 7558 7559
4810 6 7559 7560
4811 7 7560 7561
4812 8 7561 7562
4813 9 7562 7563
4814 10 7560 7564
4815 11 7563 7565
4816 12 7559 7566
4817 13 7558 7567
4818 14 7558 7568
4819 15 7558 7569
4820 16 7559 7570
4821 17 7561 7571
4822 18 7562 7572
4823 19 7564 7573
4824 20 7565 7574
4825 21 7565 7575
4826 22 7565 7576
4827 23 7566 7577
4828 24 7563 7564
4829 5 7578 7579
4830 6 7579 7580
4831 7 7580 7581
4832 8 7581 7582
4833 9 7582 7583
4834 10 7580 7584
4835 11 7583 7585
4836 12 7579 7586
4837 13 7578 7587
4838 14 7578 7588
4839 15 7578 7589
4840 16 7579 7590
4841 17 7581 7591
4842 18 7582 7592
4843 19 7584 7593
4844 20 7585 7594
4845 21 7585 7595
4846 22 7585 7596
4847 23 7586 7597
4848 24 7583 7584
4849 5 7598 7599
4850 6 7599 7600
4851 7 7600 7601
4852 8 7601 7602
4853 9 7602 7603
4854 10 7600 7604
4855 11 7603 7605
4856 12 7599 7606
4857 13 7598 7607
4858 14 7598 7608
4859 15 7598 7609
4860 16 7599 7610
4861 17 7601 7611
4862 18 7602 7612
4863 19 7604 7613
4864 20 7605 7614
4865 21 7605 7615
4866 22 7605 7616
4867 23 7606 7617
4868 24 7603 7604

Angles

1 1 2 1 3
2 1 5 4 6
4 1 8 7 9
6 1 11 10 12
8 1 14 13 15
10 1 17 16 18
12 1 20 19 21
14 1 23 22 24
16 1 26 25 27
18 1 29 28 30
19 1 32 31 33
3 1 35 34 36
5 1 38 37 39
7 1 41 40 42
9 1 44 43 45
11 1 47 46 48
13 1 50 49 51
15 1 53 52 54
17 1 56 55 57
20 1 59 58 60
21 1 62 61 63
22 1 65 64 66
23 1 68 67 69
24 1 71 70 72
25 1 74 73 75
26 1 77 76 78
27 1 80 79 81
28 1 83 82 84
29 1 86 85 87
30 1 89 88 90
31 1 92 91 93
32 1 95 94 96
33 1 98 97 99
34 1 101 100 102
35 1 104 103 105
36 1 107 106 108
37 1 110 109 111
38 1 113 112 114
39 1 116 115 117
40 1 119 118 120
41 1 122 121 123
42 1 125 124 126
43 1 128 127 129
44 1 131 130 132
45 1 134 133 135
46 1 137 136 138
47 1 148 147 149
48 1 151 150 152
50 1 154 153 155
52 1 157 156 158
54 1 160 159 161
56 1 163 162 164
58 1 166 165 167
60 1 169 168 170
62 1 172 171 173
64 1 175 174 176
65 1 178 177 179
49 1 181 180 182
51 1 184 183 185
53 1 187 186 188
55 1 190 189 191
57 1 193 192 194
59 1 196 195 197
61 1 199 198 200
63 1 202 201 203
66 1 205 204 206
67 1 208 207 209
68 1 211 210 212
69 1 214 213 215
70 1 217 216 218
71 1 220 219 221
72 1 223 222 224
73 1 226 225 227
74 1 229 228 230
75 1 232 231 233
76 1 235 234 236
77 1 238 237 239
78 1 241 240 242
79 1 244 243 245
80 1 247 246 248
81 1 250 249 251
82 1 253 252 254
83 1 256 255 257
84 1 259 258 260
85 1 262 261 263
86 1 265 264 266
87 1 268 267 269
88 1 271 270 272
89 1 274 273 275
90 1 277 276 278
91 1 280 279 281
92 1 283 282 284
93 1 294 293 295
94 1 297 296 298
96 1 300 299 301
98 1 303 302 304
100 1 306 305 307
102 1 309 308 310
104 1 312 311 313
106 1 315 314 316
108 1 318 317 319
110 1 321 320 322
111 1 324 323 325
95 1 327 326 328
97 1 330 329 331
99 1 333 332 334
101 1 336 335 337
103 1 339 338 340
105 1 342 341 343
107 1 345 344 346
109 1 348 347 349
112 1 351 350 352
113 1 354 353 355
114 1 357 356 358
115 1 360 359 361
116 1 363 362 364
117 1 366 365 367
118 1 369 368 370
119 1 372 371 373
120 1 375 374 376
121 1 378 377 379
122 1 381 380 382
123 1 384 383 385
124 1 387 386 388
125 1 390 389 391
126 1 393 392 394
127 1 396 395 397
128 1 399 398 400
129 1 402 401 403
130 1 405 404 406
131 1 408 407 409
132 1 411 410 412
133 1 414 413 415
134 1 417 416 418
135 1 420 419 421
136 1 423 422 424
137 1 426 425 427
138 1 429 428 430
139 1 440 439 441
140 1 443 442 444
142 1 446 445 447
144 1 449 448 450
146 1 452 451 453
148 1 455 454 456
150 1 458 457 459
152 1 461 460 462
154 1 464 463 465
156 1 467 466 468
157 1 470 469 471
141 1 473 472 474
143 1 476 475 477
145 1 479 478 480
147 1 482 481 483
149 1 485 484 486
151 1 488 487 489
153 1 491 490 492
155 1 494 493 495
158 1 497 496 498
159 1 500 499 501
160 1 503 502 504
161 1 506 505 507
162 1 509 508 510
163 1 512 511 513
164 1 515 514 516
165 1 518 517 519
166 1 521 520 522
167 1 524 523 525
168 1 527 526 528
169 1 530 529 531
170 1 533 532 534
171 1 536 535 537
172 1 539 538 540
173 1 542 541 543
174 1 545 544 546
175 1 548 547 549
176 1 551 550 552
177 1 554 553 555
178 1 557 556 558
179 1 560 559 561
180 1 563 562 564
181 1 566 565 567
182 1 569 568 570
183 1 572 571 573
184 1 575 574 576
185 1 586 585 587
186 1 589 588 590
188 1 592 591 593
190 1 595 594 596
192 1 598 597 599
194 1 601 600 602
196 1 604 603 605
198 1 607 606 608
200 1 610 609 611
202 1 613 612 614
203 1 616 615 617
187 1 619 618 620
189 1 622 621 623
191 1 625 624 626
193 1 628 627 629
195 1 631 630 632
197 1 634 633 635
199 1 637 636 638
201 1 640 639 641
204 1 643 642 644
205 1 646 645 647
206 1 649 648 650
207 1 652 651 653
208 1 655 654 656
209 1 658 657 659
210 1 661 660 662
211 1 664 663 665
212 1 667 666 668
213 1 670 669 671
214 1 673 672 674
215 1 676 675 677
216 1 679 678 680
217 1 682 681 683
218 1 685 684 686
219 1 688 687 689
220 1 691 690 692
221 1 694 693 695
222 1 697 696 698
223 1 700 699 701
224 1 703 702 704
225 1 706 705 707
226 1 709 708 710
227 1 712 711 713
228 1 715 714 716
229 1 718 717 719
230 1 721 720 722
231 1 732 731 733
232 1 735 734 736
234 1 738 737 739
236 1 741 740 742
238 1 744 743 745
240 1 747 746 748
242 1 750 749 751
244 1 753 752 754
246 1 756 755 757
248 1 759 758 760
249 1 762 761 763
233 1 765 764 766
235 1 768 767 769
237 1 771 770 772
239 1 774 773 775
241 1 777 776 778
243 1 780 779 781
245 1 783 782 784
247 1 786 785 787
250 1 789 788 790
251 1 792 791 793
252 1 795 794 796
253 1 798 797 799
254 1 801 800 802
255 1 804 803 805
256 1 807 806 808
257 1 810 809 811
258 1 813 812 814
259 1 816 815 817
260 1 819 818 820
261 1 822 821 823
262 1 825 824 826
263 1 828 827 829
264 1 831 830 832
265 1 834 833 835
266 1 837 836 838
267 1 840 839 841
268 1 843 842 844
269 1 846 845 847
270 1 849 848 850
271 1 852 851 853
272 1 855 854 856
273 1 858 857 859
274 1 861 860 862
275 1 864 863 865
276 1 867 866 868
277 1 878 877 879
278 1 881 880 882
280 1 884 883 885
282 1 887 886 888
284 1 890 889 891
286 1 893 892 894
288 1 896 895 897
290 1 899 898 900
292 1 902 901 903
294 1 905 904 906
295 1 908 907 909
279 1 911 910 912
281 1 914 913 915
283 1 917 916 918
285 1 920 919 921
287 1 923 922 924
289 1 926 925 927
291 1 929 928 930
293 1 932 931 933
296 1 935 934 936
297 1 938 937 939
298 1 941 940 942
299 1 944 943 945
300 1 947 946 948
301 1 950 949 951
302 1 953 952 954
303 1 956 955 957
304 1 959 958 960
305 1 962 961 963
306 1 965 964 966
307 1 968 967 969
308 1 971 970 972
309 1 974 973 975
310 1 977 976 978
311 1 980 979 981
312 1 983 982 984
313 1 986 985 987
314 1 989 988 990
315 1 992 991 993
316 1 995 994 996
317 1 998 997 999
318 1 1001 1000 1002
319 1 1004 1003 1005
320 1 1007 1006 1008
321 1 1010 1009 1011
322 1 1013 1012 1014
323 1 1024 1023 1025
324 1 1027 1026 1028
326 1 1030 1029 1031
328 1 1033 1032 1034
330 1 1036 1035 1037
332 1 1039 1038 1040
334 1 1042 1041 1043
336 1 1045 1044 1046
338 1 1048 1047 1049
340 1 1051 1050 1052
341 1 1054 1053 1055
325 1 1057 1056 1058
327 1 1060 1059 1061
329 1 1063 1062 1064
331 1 1066 1065 1067
333 1 1069 1068 1070
335 1 1072 1071 1073
337 1 1075 1074 1076
339 1 1078 1077 1079
342 1 1081 1080 1082
343 1 1084 1083 1085
344 1 1087 1086 1088
345 1 1090 1089 1091
346 1 1093 1092 1094
347 1 1096 1095 1097
348 1 1099 1098 1100
349 1 1102 1101 1103
350 1 1105 1104 1106
351 1 1108 1107 1109
352 1 1111 1110 1112
353 1 1114 1113 1115
354 1 1117 1116 1118
355 1 1120 1119 1121
356 1 1123 1122 1124
357 1 1126 1125 1127
358 1 1129 1128 1130
359 1 1132 1131 1133
360 1 1135 1134 1136
361 1 1138 1137 1139
362 1 1141 1140 1142
363 1 1144 1143 1145
364 1 1147 1146 1148
365 1 1150 1149 1151
366 1 1153 1152 1154
367 1 1156 1155 1157
368 1 1159 1158 1160
369 1 1170 1169 1171
370 1 1173 1172 1174
372 1 1176 1175 1177
374 1 1179 1178 1180
376 1 1182 1181 1183
378 1 1185 1184 1186
380 1 1188 1187 1189
382 1 1191 1190 1192
384 1 1194 1193 1195
386 1 1197 1196 1198
387 1 1200 1199 1201
371 1 1203 1202 1204
373 1 1206 1205 1207
375 1 1209 1208 1210
377 1 1212 1211 1213
379 1 1215 1214 1216
381 1 1218 1217 1219
383 1 1221 1220 1222
385 1 1224 1223 1225
388 1 1227 1226 1228
389 1 1230 1229 1231
390 1 1233 1232 1234
391 1 1236 1235 1237
392 1 1239 1238 1240
393 1 1242 1241 1243
394 1 1245 1244 1246
395 1 1248 1247 1249
396 1 1251 1250 1252
397 1 1254 1253 1255
398 1 1257 1256 1258
399 1 1260 1259 1261
400 1 1263 1262 1264
401 1 1266 1265 1267
402 1 1269 1268 1270
403 1 1272 1271 1273
404 1 1275 1274 1276
405 1 1278 1277 1279
406 1 1281 1280 1282
407 1 1284 1283 1285
408 1 1287 1286 1288
409 1 1290 1289 1291
410 1 1293 1292 1294
411 1 1296 1295 1297
412 1 1299 1298 1300
413 1 1302 1301 1303
414 1 1305 1304 1306
415 1 1316 1315 1317
416 1 1319 1318 1320
418 1 1322 1321 1323
420 1 1325 1324 1326
422 1 1328 1327 1329
424 1 1331 1330 1332
426 1 1334 1333 1335
428 1 1337 1336 1338
430 1 1340 1339 1341
432 1 1343 1342 1344
433 1 1346 1345 1347
417 1 1349 1348 1350
419 1 1352 1351 1353
421 1 1355 1354 1356
423 1 1358 1357 1359
425 1 1361 1360 1362
427 1 1364 1363 1365
429 1 1367 1366 1368
431 1 1370 1369 1371
434 1 1373 1372 1374
435 1 1376 1375 1377
436 1 1379 1378 1380
437 1 1382 1381 1383
438 1 1385 1384 1386
439 1 1388 1387 1389
440 1 1391 1390 1392
441 1 1394 1393 1395
442 1 1397 1396 1398
443 1 1400 1399 1401
444 1 1403 1402 1404
445 1 1406 1405 1407
446 1 1409 1408 1410
447 1 1412 1411 1413
448 1 1415 1414 1416
449 1 1418 1417 1419
450 1 1421 1420 1422
451 1 1424 1423 1425
452 1 1427 1426 1428
453 1 1430 1429 1431
454 1 1433 1432 1434
455 1 1436 1435 1437
456 1 1439 1438 1440
457 1 1442 1441 1443
458 1 1445 1444 1446
459 1 1448 1447 1449
460 1 1451 1450 1452
461 1 1462 1461 1463
462 1 1465 1464 1466
464 1 1468 1467 1469
466 1 1471 1470 1472
468 1 1474 1473 1475
470 1 1477 1476 1478
472 1 1480 1479 1481
474 1 1483 1482 1484
476 1 1486 1485 1487
478 1 1489 1488 1490
479 1 1492 1491 1493
463 1 1495 1494 1496
465 1 1498 1497 1499
467 1 1501 1500 1502
469 1 1504 1503 1505
471 1 1507 1506 1508
473 1 1510 1509 1511
475 1 1513 1512 1514
477 1 1516 1515 1517
480 1 1519 1518 1520
481 1 1522 1521 1523
482 1 1525 1524 1526
483 1 1528 1527 1529
484 1 1531 1530 1532
485 1 1534 1533 1535
486 1 1537 1536 1538
487 1 1540 1539 1541
488 1 1543 1542 1544
489 1 1546 1545 1547
490 1 1549 1548 1550
491 1 1552 1551 1553
492 1 1555 1554 1556
493 1 1558 1557 1559
494 1 1561 1560 1562
495 1 1564 1563 1565
496 1 1567 1566 1568
497 1 1570 1569 1571
498 1 1573 1572 1574
499 1 1576 1575 1577
500 1 1579 1578 1580
501 1 1582 1581 1583
502 1 1585 1584 1586
503 1 1588 1587 1589
504 1 1591 1590 1592
505 1 1594 1593 1595
506 1 1597 1596 1598
507 1 1608 1607 1609
508 1 1611 1610 1612
510 1 1614 1613 1615
512 1 1617 1616 1618
514 1 1620 1619 1621
516 1 1623 1622 1624
518 1 1626 1625 1627
520 1 1629 1628 1630
522 1 1632 1631 1633
524 1 1635 1634 1636
525 1 1638 1637 1639
509 1 1641 1640 1642
511 1 1644 1643 1645
513 1 1647 1646 1648
515 1 1650 1649 1651
517 1 1653 1652 1654
519 1 1656 1655 1657
521 1 1659 1658 1660
523 1 1662 1661 1663
526 1 1665 1664 1666
527 1 1668 1667 1669
528 1 1671 1670 1672
529 1 1674 1673 1675
530 1 1677 1676 1678
531 1 1680 1679 1681
532 1 1683 1682 1684
533 1 1686 1685 1687
534 1 1689 1688 1690
535 1 1692 1691 1693
536 1 1695 1694 1696
537 1 1698 1697 1699
538 1 1701 1700 1702
539 1 1704 1703 1705
540 1 1707 1706 1708
541 1 1710 1709 1711
542 1 1713 1712 1714
543 1 1716 1715 1717
544 1 1719 1718 1720
545 1 1722 1721 1723
546 1 1725 1724 1726
547 1 1728 1727 1729
548 1 1731 1730 1732
549 1 1734 1733 1735
550 1 1737 1736 1738
551 1 1740 1739 1741
552 1 1743 1742 1744
553 1 1754 1753 1755
554 1 1757 1756 1758
556 1 1760 1759 1761
558 1 1763 1762 1764
560 1 1766 1765 1767
562 1 1769 1768 1770
564 1 1772 1771 1773
566 1 1775 1774 1776
568 1 1778 1777 1779
570 1 1781 1780 1782
571 1 1784 1783 1785
555 1 1787 1786 1788
557 1 1790 1789 1791
559 1 1793 1792 1794
561 1 1796 1795 1797
563 1 1799 1798 1800
565 1 1802 1801 1803
567 1 1805 1804 1806
569 1 1808 1807 1809
572 1 1811 1810 1812
573 1 1814 1813 1815
574 1 1817 1816 1818
575 1 1820 1819 1821
576 1 1823 1822 1824
577 1 1826 1825 1827
578 1 1829 1828 1830
579 1 1832 1831 1833
580 1 1835 1834 1836
581 1 1838 1837 1839
582 1 1841 1840 1842
583 1 1844 1843 1845
584 1 1847 1846 1848
585 1 1850 1849 1851
586 1 1853 1852 1854
587 1 1856 1855 1857
588 1 1859 1858 1860
589 1 1862 1861 1863
590 1 1865 1864 1866
591 1 1868 1867 1869
592 1 1871 1870 1872
593 1 1874 1873 1875
594 1 1877 1876 1878
595 1 1880 1879 1881
596 1 1883 1882 1884
597 1 1886 1885 1887
598 1 1889 1888 1890
599 1 1900 1899 1901
600 1 1903 1902 1904
602 1 1906 1905 1907
604 1 1909 1908 1910
606 1 1912 1911 1913
608 1 1915 1914 1916
610 1 1918 1917 1919
612 1 1921 1920 1922
614 1 1924 1923 1925
616 1 1927 1926 1928
617 1 1930 1929 1931
601 1 1933 1932 1934
603 1 1936 1935 1937
605 1 1939 1938 1940
607 1 1942 1941 1943
609 1 1945 1944 1946
611 1 1948 1947 1949
613 1 1951 1950 1952
615 1 1954 1953 1955
618 1 1957 1956 1958
619 1 1960 1959 1961
620 1 1963 1962 1964
621 1 1966 1965 1967
622 1 1969 1968 1970
623 1 1972 1971 1973
624 1 1975 1974 1976
625 1 1978 1977 1979
626 1 1981 1980 1982
627 1 1984 1983 1985
628 1 1987 1986 1988
629 1 1990 1989 1991
630 1 1993 1992 1994
631 1 1996 1995 1997
632 1 1999 1998 2000
633 1 2002 2001 2003
634 1 2005 2004 2006
635 1 2008 2007 2009
636 1 2011 2010 2012
637 1 2014 2013 2015
638 1 2017 2016 2018
639 1 2020 2019 2021
640 1 2023 2022 2024
641 1 2026 2025 2027
642 1 2029 2028 2030
643 1 2032 2031 2033
644 1 2035 2034 2036
645 1 2046 2045 2047
646 1 2049 2048 2050
648 1 2052 2051 2053
650 1 2055 2054 2056
652 1 2058 2057 2059
654 1 2061 2060 2062
656 1 2064 2063 2065
658 1 2067 2066 2068
660 1 2070 2069 2071
662 1 2073 2072 2074
663 1 2076 2075 2077
647 1 2079 2078 2080
649 1 2082 2081 2083
651 1 2085 2084 2086
653 1 2088 2087 2089
655 1 2091 2090 2092
657 1 2094 2093 2095
659 1 2097 2096 2098
661 1 2100 2099 2101
664 1 2103 2102 2104
665 1 2106 2105 2107
666 1 2109 2108 2110
667 1 2112 2111 2113
668 1 2115 2114 2116
669 1 2118 2117 2119
670 1 2121 2120 2122
671 1 2124 2123 2125
672 1 2127 2126 2128
673 1 2130 2129 2131
674 1 2133 2132 2134
675 1 2136 2135 2137
676 1 2139 2138 2140
677 1 2142 2141 2143
678 1 2145 2144 2146
679 1 2148 2147 2149
680 1 2151 2150 2152
681 1 2154 2153 2155
682 1 2157 2156 2158
683 1 2160 2159 2161
684 1 2163 2162 2164
685 1 2166 2165 2167
686 1 2169 2168 2170
687 1 2172 2171 2173
688 1 2175 2174 2176
689 1 2178 2177 2179
690 1 2181 2180 2182
691 1 2192 2191 2193
692 1 2195 2194 2196
694 1 2198 2197 2199
696 1 2201 2200 2202
698 1 2204 2203 2205
700 1 2207 2206 2208
702 1 2210 2209 2211
704 1 2213 2212 2214
706 1 2216 2215 2217
708 1 2219 2218 2220
709 1 2222 2221 2223
693 1 2225 2224 2226
695 1 2228 2227 2229
697 1 2231 2230 2232
699 1 2234 2233 2235
701 1 2237 2236 2238
703 1 2240 2239 2241
705 1 2243 2242 2244
707 1 2246 2245 2247
710 1 2249 2248 2250
711 1 2252 2251 2253
712 1 2255 2254 2256
713 1 2258 2257 2259
714 1 2261 2260 2262
715 1 2264 2263 2265
716 1 2267 2266 2268
717 1 2270 2269 2271
718 1 2273 2272 2274
719 1 2276 2275 2277
720 1 2279 2278 2280
721 1 2282 2281 2283
722 1 2285 2284 2286
723 1 2288 2287 2289
724 1 2291 2290 2292
725 1 2294 2293 2295
726 1 2297 2296 2298
727 1 2300 2299 2301
728 1 2303 2302 2304
729 1 2306 2305 2307
730 1 2309 2308 2310
731 1 2312 2311 2313
732 1 2315 2314 2316
733 1 2318 2317 2319
734 1 2321 2320 2322
735 1 2324 2323 2325
736 1 2327 2326 2328
737 1 2338 2337 2339
738 1 2341 2340 2342
740 1 2344 2343 2345
742 1 2347 2346 2348
744 1 2350 2349 2351
746 1 2353 2352 2354
748 1 2356 2355 2357
750 1 2359 2358 2360
752 1 2362 2361 2363
754 1 2365 2364 2366
755 1 2368 2367 2369
739 1 2371 2370 2372
741 1 2374 2373 2375
743 1 2377 2376 2378
745 1 2380 2379 2381
747 1 2383 2382 2384
749 1 2386 2385 2387
751 1 2389 2388 2390
753 1 2392 2391 2393
756 1 2395 2394 2396
757 1 2398 2397 2399
758 1 2401 2400 2402
759 1 2404 2403 2405
760 1 2407 2406 2408
761 1 2410 2409 2411
762 1 2413 2412 2414
763 1 2416 2415 2417
764 1 2419 2418 2420
765 1 2422 2421 2423
766 1 2425 2424 2426
767 1 2428 2427 2429
768 1 2431 2430 2432
769 1 2434 2433 2435
770 1 2437 2436 2438
771 1 2440 2439 2441
772 1 2443 2442 2444
773 1 2446 2445 2447
774 1 2449 2448 2450
775 1 2452 2451 2453
776 1 2455 2454 2456
777 1 2458 2457 2459
778 1 2461 2460 2462
779 1 2464 2463 2465
780 1 2467 2466 2468
781 1 2470 2469 2471
782 1 2473 2472 2474
783 1 2484 2483 2485
784 1 2487 2486 2488
786 1 2490 2489 2491
788 1 2493 2492 2494
790 1 2496 2495 2497
792 1 2499 2498 2500
794 1 2502 2501 2503
796 1 2505 2504 2506
798 1 2508 2507 2509
800 1 2511 2510 2512
801 1 2514 2513 2515
785 1 2517 2516 2518
787 1 2520 2519 2521
789 1 2523 2522 2524
791 1 2526 2525 2527
793 1 2529 2528 2530
795 1 2532 2531 2533
797 1 2535 2534 2536
799 1 2538 2537 2539
802 1 2541 2540 2542
803 1 2544 2543 2545
804 1 2547 2546 2548
805 1 2550 2549 2551
806 1 2553 2552 2554
807 1 2556 2555 2557
808 1 2559 2558 2560
809 1 2562 2561 2563
810 1 2565 2564 2566
811 1 2568 2567 2569
812 1 2571 2570 2572
813 1 2574 2573 2575
814 1 2577 2576 2578
815 1 2580 2579 2581
816 1 2583 2582 2584
817 1 2586 2585 2587
818 1 2589 2588 2590
819 1 2592 2591 2593
820 1 2595 2594 2596
821 1 2598 2597 2599
822 1 2601 2600 2602
823 1 2604 2603 2605
824 1 2607 2606 2608
825 1 2610 2609 2611
826 1 2613 2612 2614
827 1 2616 2615 2617
828 1 2619 2618 2620
829 1 2630 2629 2631
830 1 2633 2632 2634
832 1 2636 2635 2637
834 1 2639 2638 2640
836 1 2642 2641 2643
838 1 2645 2644 2646
840 1 2648 2647 2649
842 1 2651 2650 2652
844 1 2654 2653 2655
846 1 2657 2656 2658
847 1 2660 2659 2661
831 1 2663 2662 2664
833 1 2666 2665 2667
835 1 2669 2668 2670
837 1 2672 2671 2673
839 1 2675 2674 2676
841 1 2678 2677 2679
843 1 2681 2680 2682
845 1 2684 2683 2685
848 1 2687 2686 2688
849 1 2690 2689 2691
850 1 2693 2692 2694
851 1 2696 2695 2697
852 1 2699 2698 2700
853 1 2702 2701 2703
854 1 2705 2704 2706
855 1 2708 2707 2709
856 1 2711 2710 2712
857 1 2714 2713 2715
858 1 2717 2716 2718
859 1 2720 2719 2721
860 1 2723 2722 2724
861 1 2726 2725 2727
862 1 2729 2728 2730
863 1 2732 2731 2733
864 1 2735 2734 2736
865 1 2738 2737 2739
866 1 2741 2740 2742
867 1 2744 2743 2745
868 1 2747 2746 2748
869 1 2750 2749 2751
870 1 2753 2752 2754
871 1 2756 2755 2757
872 1 2759 2758 2760
873 1 2762 2761 2763
874 1 2765 2764 2766
875 1 2776 2775 2777
876 1 2779 2778 2780
878 1 2782 2781 2783
880 1 2785 2784 2786
882 1 2788 2787 2789
884 1 2791 2790 2792
886 1 2794 2793 2795
888 1 2797 2796 2798
890 1 2800 2799 2801
892 1 2803 2802 2804
893 1 2806 2805 2807
877 1 2809 2808 2810
879 1 2812 2811 2813
881 1 2815 2814 2816
883 1 2818 2817 2819
885 1 2821 2820 2822
887 1 2824 2823 2825
889 1 2827 2826 2828
891 1 2830 2829 2831
894 1 2833 2832 2834
895 1 2836 2835 2837
896 1 2839 2838 2840
897 1 2842 2841 2843
898 1 2845 2844 2846
899 1 2848 2847 2849
900 1 2851 2850 2852
901 1 2854 2853 2855
902 1 2857 2856 2858
903 1 2860 2859 2861
904 1 2863 2862 2864
905 1 2866 2865 2867
906 1 2869 2868 2870
907 1 2872 2871 2873
908 1 2875 2874 2876
909 1 2878 2877 2879
910 1 2881 2880 2882
911 1 2884 2883 2885
912 1 2887 2886 2888
913 1 2890 2889 2891
914 1 2893 2892 2894
915 1 2896 2895 2897
916 1 2899 2898 2900
917 1 2902 2901 2903
918 1 2905 2904 2906
919 1 2908 2907 2909
920 1 2911 2910 2912
921 1 2922 2921 2923
922 1 2925 2924 2926
924 1 2928 2927 2929
926 1 2931 2930 2932
928 1 2934 2933 2935
930 1 2937 2936 2938
932 1 2940 2939 2941
934 1 2943 2942 2944
936 1 2946 2945 2947
938 1 2949 2948 2950
939 1 2952 2951 2953
923 1 2955 2954 2956
925 1 2958 2957 2959
927 1 2961 2960 2962
929 1 2964 2963 2965
931 1 2967 2966 2968
933 1 2970 2969 2971
935 1 2973 2972 2974
937 1 2976 2975 2977
940 1 2979 2978 2980
941 1 2982 2981 2983
942 1 2985 2984 2986
943 1 2988 2987 2989
944 1 2991 2990 2992
945 1 2994 2993 2995
946 1 2997 2996 2998
947 1 3000 2999 3001
948 1 3003 3002 3004
949 1 3006 3005 3007
950 1 3009 3008 3010
951 1 3012 3011 3013
952 1 3015 3014 3016
953 1 3018 3017 3019
954 1 3021 3020 3022
955 1 3024 3023 3025
956 1 3027 3026 3028
957 1 3030 3029 3031
958 1 3033 3032 3034
959 1 3036 3035 3037
960 1 3039 3038 3040
961 1 3042 3041 3043
962 1 3045 3044 3046
963 1 3048 3047 3049
964 1 3051 3050 3052
965 1 3054 3053 3055
966 1 3057 3056 3058
967 1 3068 3067 3069
968 1 3071 3070 3072
970 1 3074 3073 3075
972 1 3077 3076 3078
974 1 3080 3079 3081
976 1 3083 3082 3084
978 1 3086 3085 3087
980 1 3089 3088 3090
982 1 3092 3091 3093
984 1 3095 3094 3096
985 1 3098 3097 3099
969 1 3101 3100 3102
971 1 3104 3103 3105
973 1 3107 3106 3108
975 1 3110 3109 3111
977 1 3113 3112 3114
979 1 3116 3115 3117
981 1 3119 3118 3120
983 1 3122 3121 3123
986 1 3125 3124 3126
987 1 3128 3127 3129
988 1 3131 3130 3132
989 1 3134 3133 3135
990 1 3137 3136 3138
991 1 3140 3139 3141
992 1 3143 3142 3144
993 1 3146 3145 3147
994 1 3149 3148 3150
995 1 3152 3151 3153
996 1 3155 3154 3156
997 1 3158 3157 3159
998 1 3161 3160 3162
999 1 3164 3163 3165
1000 1 3167 3166 3168
1001 1 3170 3169 3171
1002 1 3173 3172 3174
1003 1 3176 3175 3177
1004 1 3179 3178 3180
1005 1 3182 3181 3183
1006 1 3185 3184 3186
1007 1 3188 3187 3189
1008 1 3191 3190 3192
1009 1 3194 3193 3195
1010 1 3197 3196 3198
1011 1 3200 3199 3201
1012 1 3203 3202 3204
1013 1 3214 3213 3215
1014 1 3217 3216 3218
1016 1 3220 3219 3221
1018 1 3223 3222 3224
1020 1 3226 3225 3227
1022 1 3229 3228 3230
1024 1 3232 3231 3233
1026 1 3235 3234 3236
1028 1 3238 3237 3239
1030 1 3241 3240 3242
1031 1 3244 3243 3245
1015 1 3247 3246 3248
1017 1 3250 3249 3251
1019 1 3253 3252 3254
1021 1 3256 3255 3257
1023 1 3259 3258 3260
1025 1 3262 3261 3263
1027 1 3265 3264 3266
1029 1 3268 3267 3269
1032 1 3271 3270 3272
1033 1 3274 3273 3275
1034 1 3277 3276 3278
1035 1 3280 3279 3281
1036 1 3283 3282 3284
1037 1 3286 3285 3287
1038 1 3289 3288 3290
1039 1 3292 3291 3293
1040 1 3295 3294 3296
1041 1 3298 3297 3299
1042 1 3301 3300 3302
1043 1 3304 3303 3305
1044 1 3307 3306 3308
1045 1 3310 3309 3311
1046 1 3313 3312 3314
1047 1 3316 3315 3317
1048 1 3319 3318 3320
1049 1 3322 3321 3323
1050 1 3325 3324 3326
1051 1 3328 3327 3329
1052 1 3331 3330 3332
1053 1 3334 3333 3335
1054 1 3337 3336 3338
1055 1 3340 3339 3341
1056 1 3343 3342 3344
1057 1 3346 3345 3347
1058 1 3349 3348 3350
1059 1 3360 3359 3361
1060 1 3363 3362 3364
1062 1 3366 3365 3367
1064 1 3369 3368 3370
1066 1 3372 3371 3373
1068 1 3375 3374 3376
1070 1 3378 3377 3379
1072 1 3381 3380 3382
1074 1 3384 3383 3385
1076 1 3387 3386 3388
1077 1 3390 3389 3391
1061 1 3393 3392 3394
1063 1 3396 3395 3397
1065 1 3399 3398 3400
1067 1 3402 3401 3403
1069 1 3405 3404 3406
1071 1 3408 3407 3409
1073 1 3411 3410 3412
1075 1 3414 3413 3415
1078 1 3417 3416 3418
1079 1 3420 3419 3421
1080 1 3423 3422 3424
1081 1 3426 3425 3427
1082 1 3429 3428 3430
1083 1 3432 3431 3433
1084 1 3435 3434 3436
1085 1 3438 3437 3439
1086 1 3441 3440 3442
1087 1 3444 3443 3445
1088 1 3447 3446 3448
1089 1 3450 3449 3451
1090 1 3453 3452 3454
1091 1 3456 3455 3457
1092 1 3459 3458 3460
1093 1 3462 3461 3463
1094 1 3465 3464 3466
1095 1 3468 3467 3469
1096 1 3471 3470 3472
1097 1 3474 3473 3475
1098 1 3477 3476 3478
1099 1 3480 3479 3481
1100 1 3483 3482 3484
1101 1 3486 3485 3487
1102 1 3489 3488 3490
1103 1 3492 3491 3493
1104 1 3495 3494 3496
1105 1 3506 3505 3507
1106 1 3509 3508 3510
1107 1 3512 3511 3513
1108 1 3515 3514 3516
1109 1 3518 3517 3519
1110 1 3521 3520 3522
1111 1 3524 3523 3525
1112 1 3527 3526 3528
1113 1 3530 3529 3531
1114 1 3533 3532 3534
1115 1 3536 3535 3537
1116 1 3539 3538 3540
1117 1 3542 3541 3543
1118 1 3545 3544 3546
1119 1 3548 3547 3549
1120 1 3551 3550 3552
1121 1 3554 3553 3555
1122 1 3557 3556 3558
1123 1 3560 3559 3561
1124 1 3563 3562 3564
1125 1 3566 3565 3567
1126 1 3569 3568 3570
1127 1 3572 3571 3573
1128 1 3575 3574 3576
1129 1 3578 3577 3579
1130 1 3581 3580 3582
1131 1 3584 3583 3585
1132 1 3587 3586 3588
1133 1 3590 3589 3591
1134 1 3593 3592 3594
1135 1 3596 3595 3597
1136 1 3599 3598 3600
1137 1 3602 3601 3603
1138 1 3605 3604 3606
1139 1 3608 3607 3609
1140 1 3611 3610 3612
1141 1 3614 3613 3615
1142 1 3617 3616 3618
1143 1 3620 3619 3621
1144 1 3623 3622 3624
1145 1 3626 3625 3627
1146 1 3629 3628 3630
1147 1 3632 3631 3633
1148 1 3635 3634 3636
1149 1 3638 3637 3639
1150 1 3641 3640 3642
1151 1 3644 3643 3645
1152 1 3647 3646 3648
1153 1 3650 3649 3651
1154 1 3653 3652 3654
1155 1 3656 3655 3657
1156 1 3659 3658 3660
1157 1 3662 3661 3663
1158 1 3665 3664 3666
1159 1 3668 3667 3669
1160 1 3671 3670 3672
1161 1 3674 3673 3675
1162 1 3677 3676 3678
1163 1 3680 3679 3681
1164 1 3683 3682 3684
1165 1 3686 3685 3687
1166 1 3689 3688 3690
1167 1 3692 3691 3693
1168 1 3695 3694 3696
1169 1 3698 3697 3699
1170 1 3701 3700 3702
1171 1 3704 3703 3705
1172 1 3707 3706 3708
1173 1 3710 3709 3711
1174 1 3713 3712 3714
1175 1 3716 3715 3717
1176 1 3719 3718 3720
1177 1 3722 3721 3723
1178 1 3725 3724 3726
1179 1 3728 3727 3729
1180 1 3731 3730 3732
1181 1 3734 3733 3735
1182 1 3737 3736 3738
1183 1 3740 3739 3741
1184 1 3743 3742 3744
1185 1 3746 3745 3747
1186 1 3749 3748 3750
1187 1 3752 3751 3753
1188 1 3755 3754 3756
1189 1 3758 3757 3759
1190 1 3761 3760 3762
1191 1 3764 3763 3765
1192 1 3767 3766 3768
1193 1 3770 3769 3771
1194 1 3773 3772 3774
1195 1 3776 3775 3777
1196 1 3779 3778 3780
1197 1 3782 3781 3783
1198 1 3785 3784 3786
1199 1 3788 3787 3789
1200 1 3791 3790 3792
1201 1 3794 3793 3795
1202 1 3797 3796 3798
1203 1 3800 3799 3801
1204 1 3803 3802 3804
1205 1 3806 3805 3807
1206 1 3809 3808 3810
1207 1 3812 3811 3813
1208 1 3815 3814 3816
1209 1 3818 3817 3819
1210 1 3821 3820 3822
1211 1 3824 3823 3825
1212 1 3827 3826 3828
1213 1 3830 3829 3831
1214 1 3833 3832 3834
1215 1 3836 3835 3837
1216 1 3839 3838 3840
1217 1 3842 3841 3843
1218 1 3845 3844 3846
1219 1 3848 3847 3849
1220 1 3851 3850 3852
1221 1 3854 3853 3855
1222 1 3857 3856 3858
1223 1 3860 3859 3861
1224 1 3863 3862 3864
1225 1 3866 3865 3867
1226 1 3869 3868 3870
1227 1 3872 3871 3873
1228 1 3875 3874 3876
1229 1 3878 3877 3879
1230 1 3881 3880 3882
1231 1 3884 3883 3885
1232 1 3887 3886 3888
1233 1 3890 3889 3891
1234 1 3893 3892 3894
1235 1 3896 3895 3897
1236 1 3899 3898 3900
1237 1 3902 3901 3903
1238 1 3905 3904 3906
1239 1 3908 3907 3909
1240 1 3911 3910 3912
1241 1 3914 3913 3915
1242 1 3917 3916 3918
1243 1 3920 3919 3921
1244 1 3923 3922 3924
1245 1 3926 3925 3927
1246 1 3929 3928 3930
1247 1 3932 3931 3933
1248 1 3935 3934 3936
1249 1 3938 3937 3939
1250 1 3941 3940 3942
1251 1 3944 3943 3945
1252 1 3947 3946 3948
1253 1 3950 3949 3951
1254 1 3953 3952 3954
1255 1 3956 3955 3957
1256 1 3959 3958 3960
1257 1 3962 3961 3963
1258 1 3965 3964 3966
1259 1 3968 3967 3969
1260 1 3971 3970 3972
1261 1 3974 3973 3975
1262 1 3977 3976 3978
1263 1 3980 3979 3981
1264 1 3983 3982 3984
1265 1 3986 3985 3987
1266 1 3989 3988 3990
1267 1 3992 3991 3993
1268 1 3995 3994 3996
1269 1 3998 3997 3999
1270 1 4001 4000 4002
1271 1 4004 4003 4005
1272 1 4007 4006 4008
1273 1 4010 4009 4011
1274 1 4013 4012 4014
1275 1 4016 4015 4017
1276 1 4019 4018 4020
1277 1 4022 4021 4023
1278 1 4025 4024 4026
1279 1 4028 4027 4029
1280 1 4031 4030 4032
1281 1 4034 4033 4035
1282 1 4037 4036 4038
1283 1 4040 4039 4041
1284 1 4043 4042 4044
1285 1 4046 4045 4047
1286 1 4049 4048 4050
1287 1 4052 4051 4053
1288 1 4055 4054 4056
1289 1 4058 4057 4059
1290 1 4061 4060 4062
1291 1 4064 4063 4065
1292 1 4067 4066 4068
1293 1 4070 4069 4071
1294 1 4073 4072 4074
1295 1 4076 4075 4077
1296 1 4079 4078 4080
1297 1 4082 4081 4083
1298 1 4085 4084 4086
1299 1 4088 4087 4089
1300 1 4091 4090 4092
1301 1 4094 4093 4095
1302 1 4097 4096 4098
1303 1 4100 4099 4101
1304 1 4103 4102 4104
1305 1 4106 4105 4107
1306 1 4109 4108 4110
1307 1 4112 4111 4113
1308 1 4115 4114 4116
1309 1 4118 4117 4119
1310 1 4121 4120 4122
1311 1 4124 4123 4125
1312 1 4127 4126 4128
1313 1 4130 4129 4131
1314 1 4133 4132 4134
1315 1 4136 4135 4137
1316 1 4139 4138 4140
1317 1 4142 4141 4143
1318 1 4145 4144 4146
1319 1 4148 4147 4149
1320 1 4151 4150 4152
1321 1 4154 4153 4155
1322 1 4157 4156 4158
1323 1 4160 4159 4161
1324 1 4163 4162 4164
1325 1 4166 4165 4167
1326 1 4169 4168 4170
1327 1 4172 4171 4173
1328 1 4175 4174 4176
1329 1 4178 4177 4179
1330 1 4181 4180 4182
1331 1 4184 4183 4185
1332 1 4187 4186 4188
1333 1 4190 4189 4191
1334 1 4193 4192 4194
1335 1 4196 4195 4197
1336 1 4199 4198 4200
1337 1 4202 4201 4203
1338 1 4205 4204 4206
1339 1 4208 4207 4209
1340 1 4211 4210 4212
1341 1 4214 4213 4215
1342 1 4217 4216 4218
1343 1 4220 4219 4221
1344 1 4223 4222 4224
1345 1 4226 4225 4227
1346 1 4229 4228 4230
1347 1 4232 4231 4233
1348 1 4235 4234 4236
1349 1 4238 4237 4239
1350 1 4241 4240 4242
1351 1 4244 4243 4245
1352 1 4247 4246 4248
1353 1 4250 4249 4251
1354 1 4253 4252 4254
1355 1 4256 4255 4257
1356 1 4259 4258 4260
1357 1 4262 4261 4263
1358 1 4265 4264 4266
1359 1 4268 4267 4269
1360 1 4271 4270 4272
1361 1 4274 4273 4275
1362 1 4277 4276 4278
1363 1 4280 4279 4281
1364 1 4283 4282 4284
1365 1 4286 4285 4287
1366 1 4289 4288 4290
1367 1 4292 4291 4293
1368 1 4295 4294 4296
1369 1 4298 4297 4299
1370 1 4301 4300 4302
1371 1 4304 4303 4305
1372 1 4307 4306 4308
1373 1 4310 4309 4311
1374 1 4313 4312 4314
1375 1 4316 4315 4317
1376 1 4319 4318 4320
1377 1 4322 4321 4323
1378 1 4325 4324 4326
1379 1 4328 4327 4329
1380 1 4331 4330 4332
1381 1 4334 4333 4335
1382 1 4337 4336 4338
1383 1 4340 4339 4341
1384 1 4343 4342 4344
1385 1 4346 4345 4347
1386 1 4349 4348 4350
1387 1 4352 4351 4353
1388 1 4355 4354 4356
1389 1 4358 4357 4359
1390 1 4361 4360 4362
1391 1 4364 4363 4365
1392 1 4367 4366 4368
1393 1 4370 4369 4371
1394 1 4373 4372 4374
1395 1 4376 4375 4377
1396 1 4379 4378 4380
1397 1 4382 4381 4383
1398 1 4385 4384 4386
1399 1 4388 4387 4389
1400 1 4391 4390 4392
1401 1 4394 4393 4395
1402 1 4397 4396 4398
1403 1 4400 4399 4401
1404 1 4403 4402 4404
1405 1 4406 4405 4407
1406 1 4409 4408 4410
1407 1 4412 4411 4413
1408 1 4415 4414 4416
1409 1 4418 4417 4419
1410 1 4421 4420 4422
1411 1 4424 4423 4425
1412 1 4427 4426 4428
1413 1 4430 4429 4431
1414 1 4433 4432 4434
1415 1 4436 4435 4437
1416 1 4439 4438 4440
1417 1 4442 4441 4443
1418 1 4445 4444 4446
1419 1 4448 4447 4449
1420 1 4451 4450 4452
1421 1 4454 4453 4455
1422 1 4457 4456 4458
1423 1 4460 4459 4461
1424 1 4463 4462 4464
1425 1 4466 4465 4467
1426 1 4469 4468 4470
1427 1 4472 4471 4473
1428 1 4475 4474 4476
1429 1 4478 4477 4479
1430 1 4481 4480 4482
1431 1 4484 4483 4485
1432 1 4487 4486 4488
1433 1 4490 4489 4491
1434 1 4493 4492 4494
1435 1 4496 4495 4497
1436 1 4499 4498 4500
1437 1 4502 4501 4503
1438 1 4505 4504 4506
1439 1 4508 4507 4509
1440 1 4511 4510 4512
1441 1 4514 4513 4515
1442 1 4517 4516 4518
1443 1 4520 4519 4521
1444 1 4523 4522 4524
1445 1 4526 4525 4527
1446 1 4529 4528 4530
1447 1 4532 4531 4533
1448 1 4535 4534 4536
1449 1 4538 4537 4539
1450 1 4541 4540 4542
1451 1 4544 4543 4545
1452 1 4547 4546 4548
1453 1 4550 4549 4551
1454 1 4553 4552 4554
1455 1 4556 4555 4557
1456 1 4559 4558 4560
1457 1 4562 4561 4563
1458 1 4565 4564 4566
1459 1 4568 4567 4569
1460 1 4571 4570 4572
1461 1 4574 4573 4575
1462 1 4577 4576 4578
1463 1 4580 4579 4581
1464 1 4583 4582 4584
1465 1 4586 4585 4587
1466 1 4589 4588 4590
1467 1 4592 4591 4593
1468 1 4595 4594 4596
1469 1 4598 4597 4599
1470 1 4601 4600 4602
1471 1 4604 4603 4605
1472 1 4607 4606 4608
1473 1 4610 4609 4611
1474 1 4613 4612 4614
1475 1 4616 4615 4617
1476 1 4619 4618 4620
1477 1 4622 4621 4623
1478 1 4625 4624 4626
1479 1 4628 4627 4629
1480 1 4631 4630 4632
1481 1 4634 4633 4635
1482 1 4637 4636 4638
1483 1 4640 4639 4641
1484 1 4643 4642 4644
1485 1 4646 4645 4647
1486 1 4649 4648 4650
1487 1 4652 4651 4653
1488 1 4655 4654 4656
1489 1 4658 4657 4659
1490 1 4661 4660 4662
1491 1 4664 4663 4665
1492 1 4667 4666 4668
1493 1 4670 4669 4671
1494 1 4673 4672 4674
1495 1 4676 4675 4677
1496 1 4679 4678 4680
1497 1 4682 4681 4683
1498 1 4685 4684 4686
1499 1 4688 4687 4689
1500 1 4691 4690 4692
1501 1 4694 4693 4695
1502 1 4697 4696 4698
1503 1 4700 4699 4701
1504 1 4703 4702 4704
1505 1 4706 4705 4707
1506 1 4709 4708 4710
1507 1 4712 4711 4713
1508 1 4715 4714 4716
1509 1 4718 4717 4719
1510 1 4721 4720 4722
1511 1 4724 4723 4725
1512 1 4727 4726 4728
1513 1 4730 4729 4731
1514 1 4733 4732 4734
1515 1 4736 4735 4737
1516 1 4739 4738 4740
1517 1 4742 4741 4743
1518 1 4745 4744 4746
1519 1 4748 4747 4749
1520 1 4751 4750 4752
1521 1 4754 4753 4755
1522 1 4757 4756 4758
1523 1 4760 4759 4761
1524 1 4763 4762 4764
1525 1 4766 4765 4767
1526 1 4769 4768 4770
1527 1 4772 4771 4773
1528 1 4775 4774 4776
1529 1 4778 4777 4779
1530 1 4781 4780 4782
1531 1 4784 4783 4785
1532 1 4787 4786 4788
1533 1 4790 4789 4791
1534 1 4793 4792 4794
1535 1 4796 4795 4797
1536 1 4799 4798 4800
1537 1 4802 4801 4803
1538 1 4805 4804 4806
1539 1 4808 4807 4809
1540 1 4811 4810 4812
1541 1 4814 4813 4815
1542 1 4817 4816 4818
1543 1 4820 4819 4821
1544 1 4823 4822 4824
1545 1 4826 4825 4827
1546 1 4829 4828 4830
1547 1 4832 4831 4833
1548 1 4835 4834 4836
1549 1 4838 4837 4839
1550 1 4841 4840 4842
1551 1 4844 4843 4845
1552 1 4847 4846 4848
1553 1 4850 4849 4851
1554 1 4853 4852 4854
1555 1 4856 4855 4857
1556 1 4859 4858 4860
1557 1 4862 4861 4863
1558 1 4865 4864 4866
1559 1 4868 4867 4869
1560 1 4871 4870 4872
1561 1 4874 4873 4875
1562 1 4877 4876 4878
1563 1 4880 4879 4881
1564 1 4883 4882 4884
1565 1 4886 4885 4887
1566 1 4889 4888 4890
1567 1 4892 4891 4893
1568 1 4895 4894 4896
1569 1 4898 4897 4899
1570 1 4901 4900 4902
1571 1 4904 4903 4905
1572 1 4907 4906 4908
1573 1 4910 4909 4911
1574 1 4913 4912 4914
1575 1 4916 4915 4917
1576 1 4919 4918 4920
1577 1 4922 4921 4923
1578 1 4925 4924 4926
1579 1 4928 4927 4929
1580 1 4931 4930 4932
1581 1 4934 4933 4935
1582 1 4937 4936 4938
1583 1 4940 4939 4941
1584 1 4943 4942 4944
1585 1 4946 4945 4947
1586 1 4949 4948 4950
1587 1 4952 4951 4953
1588 1 4955 4954 4956
1589 1 4958 4957 4959
1590 1 4961 4960 4962
1591 1 4964 4963 4965
1592 1 4967 4966 4968
1593 1 4970 4969 4971
1594 1 4973 4972 4974
1595 1 4976 4975 4977
1596 1 4979 4978 4980
1597 1 4982 4981 4983
1598 1 4985 4984 4986
1599 1 4988 4987 4989
1600 1 4991 4990 4992
1601 1 4994 4993 4995
1602 1 4997 4996 4998
1603 1 5000 4999 5001
1604 1 5003 5002 5004
1605 1 5006 5005 5007
1606 1 5009 5008 5010
1607 1 5012 5011 5013
1608 1 5015 5014 5016
1609 1 5018 5017 5019
1610 1 5021 5020 5022
1611 1 5024 5023 5025
1612 1 5027 5026 5028
1613 1 5030 5029 5031
1614 1 5033 5032 5034
1615 1 5036 5035 5037
1616 1 5039 5038 5040
1617 1 5042 5041 5043
1618 1 5045 5044 5046
1619 1 5048 5047 5049
1620 1 5051 5050 5052
1621 1 5054 5053 5055
1622 1 5057 5056 5058
1623 1 5060 5059 5061
1624 1 5063 5062 5064
1625 1 5066 5065 5067
1626 1 5069 5068 5070
1627 1 5072 5071 5073
1628 1 5075 5074 5076
1629 1 5078 5077 5079
1630 1 5081 5080 5082
1631 1 5084 5083 5085
1632 1 5087 5086 5088
1633 1 5090 5089 5091
1634 1 5093 5092 5094
1635 1 5096 5095 5097
1636 1 5099 5098 5100
1637 1 5102 5101 5103
1638 1 5105 5104 5106
1639 1 5108 5107 5109
1640 1 5111 5110 5112
1641 1 5114 5113 5115
1642 1 5117 5116 5118
1643 1 5120 5119 5121
1644 1 5123 5122 5124
1645 1 5126 5125 5127
1646 1 5129 5128 5130
1647 1 5132 5131 5133
1648 1 5135 5134 5136
1649 1 5138 5137 5139
1650 1 5141 5140 5142
1651 1 5144 5143 5145
1652 1 5147 5146 5148
1653 1 5150 5149 5151
1654 1 5153 5152 5154
1655 1 5156 5155 5157
1656 1 5159 5158 5160
1657 1 5162 5161 5163
1658 1 5165 5164 5166
1659 1 5168 5167 5169
1660 1 5171 5170 5172
1661 1 5174 5173 5175
1662 1 5177 5176 5178
1663 1 5180 5179 5181
1664 1 5183 5182 5184
1665 1 5186 5185 5187
1666 1 5189 5188 5190
1667 1 5192 5191 5193
1668 1 5195 5194 5196
1669 1 5198 5197 5199
1670 1 5201 5200 5202
1671 1 5204 5203 5205
1672 1 5207 5206 5208
1673 1 5210 5209 5211
1674 1 5213 5212 5214
1675 1 5216 5215 5217
1676 1 5219 5218 5220
1677 1 5222 5221 5223
1678 1 5225 5224 5226
1679 1 5228 5227 5229
1680 1 5231 5230 5232
1681 1 5234 5233 5235
1682 1 5237 5236 5238
1683 1 5240 5239 5241
1684 1 5243 5242 5244
1685 1 5246 5245 5247
1686 1 5249 5248 5250
1687 1 5252 5251 5253
1688 1 5255 5254 5256
1689 1 5258 5257 5259
1690 1 5261 5260 5262
1691 1 5264 5263 5265
1692 1 5267 5266 5268
1693 1 5270 5269 5271
1694 1 5273 5272 5274
1695 1 5276 5275 5277
1696 1 5279 5278 5280
1697 1 5282 5281 5283
1698 1 5285 5284 5286
1699 1 5288 5287 5289
1700 1 5291 5290 5292
1701 1 5294 5293 5295
1702 1 5297 5296 5298
1703 1 5300 5299 5301
1704 1 5303 5302 5304
1705 1 5306 5305 5307
1706 1 5309 5308 5310
1707 1 5312 5311 5313
1708 1 5315 5314 5316
1709 1 5318 5317 5319
1710 1 5321 5320 5322
1711 1 5324 5323 5325
1712 1 5327 5326 5328
1713 1 5330 5329 5331
1714 1 5333 5332 5334
1715 1 5336 5335 5337
1716 1 5339 5338 5340
1717 1 5342 5341 5343
1718 1 5345 5344 5346
1719 1 5348 5347 5349
1720 1 5351 5350 5352
1721 1 5354 5353 5355
1722 1 5357 5356 5358
1723 1 5360 5359 5361
1724 1 5363 5362 5364
1725 1 5366 5365 5367
1726 1 5369 5368 5370
1727 1 5372 5371 5373
1728 1 5375 5374 5376
1729 1 5378 5377 5379
1730 1 5381 5380 5382
1731 1 5384 5383 5385
1732 1 5387 5386 5388
1733 1 5390 5389 5391
1734 1 5393 5392 5394
1735 1 5396 5395 5397
1736 1 5399 5398 5400
1737 1 5402 5401 5403
1738 1 5405 5404 5406
1739 1 5408 5407 5409
1740 1 5411 5410 5412
1741 1 5414 5413 5415
1742 1 5417 5416 5418
1743 1 5420 5419 5421
1744 1 5423 5422 5424
1745 1 5426 5425 5427
1746 1 5429 5428 5430
1747 1 5432 5431 5433
1748 1 5435 5434 5436
1749 1 5438 5437 5439
1750 1 5441 5440 5442
1751 1 5444 5443 5445
1752 1 5447 5446 5448
1753 1 5450 5449 5451
1754 1 5453 5452 5454
1755 1 5456 5455 5457
1756 1 5459 5458 5460
1757 1 5462 5461 5463
1758 1 5465 5464 5466
1759 1 5468 5467 5469
1760 1 5471 5470 5472
1761 1 5474 5473 5475
1762 1 5477 5476 5478
1763 1 5480 5479 5481
1764 1 5483 5482 5484
1765 1 5486 5485 5487
1766 1 5489 5488 5490
1767 1 5492 5491 5493
1768 1 5495 5494 5496
1769 1 5498 5497 5499
1770 1 5501 5500 5502
1771 1 5504 5503 5505
1772 1 5507 5506 5508
1773 1 5510 5509 5511
1774 1 5513 5512 5514
1775 1 5516 5515 5517
1776 1 5519 5518 5520
1777 1 5522 5521 5523
1778 1 5525 5524 5526
1779 1 5528 5527 5529
1780 1 5531 5530 5532
1781 1 5534 5533 5535
1782 1 5537 5536 5538
1783 1 5540 5539 5541
1784 1 5543 5542 5544
1785 1 5546 5545 5547
1786 1 5549 5548 5550
1787 1 5552 5551 5553
1788 1 5555 5554 5556
1789 1 5558 5557 5559
1790 1 5561 5560 5562
1791 1 5564 5563 5565
1792 1 5567 5566 5568
1793 1 5570 5569 5571
1794 1 5573 5572 5574
1795 1 5576 5575 5577
1796 1 5579 5578 5580
1797 1 5582 5581 5583
1798 1 5585 5584 5586
1799 1 5588 5587 5589
1800 1 5591 5590 5592
1801 1 5594 5593 5595
1802 1 5597 5596 5598
1803 1 5600 5599 5601
1804 1 5603 5602 5604
1805 1 5606 5605 5607
1806 1 5609 5608 5610
1807 1 5612 5611 5613
1808 1 5615 5614 5616
1809 1 5618 5617 5619
1810 1 5621 5620 5622
1811 1 5624 5623 5625
1812 1 5627 5626 5628
1813 1 5630 5629 5631
1814 1 5633 5632 5634
1815 1 5636 5635 5637
1816 1 5639 5638 5640
1817 1 5642 5641 5643
1818 1 5645 5644 5646
1819 1 5648 5647 5649
1820 1 5651 5650 5652
1821 1 5654 5653 5655
1822 1 5657 5656 5658
1823 1 5660 5659 5661
1824 1 5663 5662 5664
1825 1 5666 5665 5667
1826 1 5669 5668 5670
1827 1 5672 5671 5673
1828 1 5675 5674 5676
1829 1 5678 5677 5679
1830 1 5681 5680 5682
1831 1 5684 5683 5685
1832 1 5687 5686 5688
1833 1 5690 5689 5691
1834 1 5693 5692 5694
1835 1 5696 5695 5697
1836 1 5699 5698 5700
1837 1 5702 5701 5703
1838 1 5705 5704 5706
1839 1 5708 5707 5709
1840 1 5711 5710 5712
1841 1 5714 5713 5715
1842 1 5717 5716 5718
1843 1 5720 5719 5721
1844 1 5723 5722 5724
1845 1 5726 5725 5727
1846 1 5729 5728 5730
1847 1 5732 5731 5733
1848 1 5735 5734 5736
1849 1 5738 5737 5739
1850 1 5741 5740 5742
1851 1 5744 5743 5745
1852 1 5747 5746 5748
1853 1 5750 5749 5751
1854 1 5753 5752 5754
1855 1 5756 5755 5757
1856 1 5759 5758 5760
1857 1 5762 5761 5763
1858 1 5765 5764 5766
1859 1 5768 5767 5769
1860 1 5771 5770 5772
1861 1 5774 5773 5775
1862 1 5777 5776 5778
1863 1 5780 5779 5781
1864 1 5783 5782 5784
1865 1 5786 5785 5787
1866 1 5789 5788 5790
1867 1 5792 5791 5793
1868 1 5795 5794 5796
1869 1 5798 5797 5799
1870 1 5801 5800 5802
1871 1 5804 5803 5805
1872 1 5807 5806 5808
1873 1 5810 5809 5811
1874 1 5813 5812 5814
1875 1 5816 5815 5817
1876 1 5819 5818 5820
1877 1 5822 5821 5823
1878 1 5825 5824 5826
1879 1 5828 5827 5829
1880 1 5831 5830 5832
1881 1 5834 5833 5835
1882 1 5837 5836 5838
1883 1 5840 5839 5841
1884 1 5843 5842 5844
1885 1 5846 5845 5847
1886 1 5849 5848 5850
1887 1 5852 5851 5853
1888 1 5855 5854 5856
1889 1 5858 5857 5859
1890 1 5861 5860 5862
1891 1 5864 5863 5865
1892 1 5867 5866 5868
1893 1 5870 5869 5871
1894 1 5873 5872 5874
1895 1 5876 5875 5877
1896 1 5879 5878 5880
1897 1 5882 5881 5883
1898 1 5885 5884 5886
1899 1 5888 5887 5889
1900 1 5891 5890 5892
1901 1 5894 5893 5895
1902 1 5897 5896 5898
1903 1 5900 5899 5901
1904 1 5903 5902 5904
1905 1 5906 5905 5907
1906 1 5909 5908 5910
1907 1 5912 5911 5913
1908 1 5915 5914 5916
1909 1 5918 5917 5919
1910 1 5921 5920 5922
1911 1 5924 5923 5925
1912 1 5927 5926 5928
1913 1 5930 5929 5931
1914 1 5933 5932 5934
1915 1 5936 5935 5937
1916 1 5939 5938 5940
1917 1 5942 5941 5943
1918 1 5945 5944 5946
1919 1 5948 5947 5949
1920 1 5951 5950 5952
1921 1 5954 5953 5955
1922 1 5957 5956 5958
1923 1 5960 5959 5961
1924 1 5963 5962 5964
1925 1 5966 5965 5967
1926 1 5969 5968 5970
1927 1 5972 5971 5973
1928 1 5975 5974 5976
1929 1 5978 5977 5979
1930 1 5981 5980 5982
1931 1 5984 5983 5985
1932 1 5987 5986 5988
1933 1 5990 5989 5991
1934 1 5993 5992 5994
1935 1 5996 5995 5997
1936 1 5999 5998 6000
1937 1 6002 6001 6003
1938 1 6005 6004 6006
1939 1 6008 6007 6009
1940 1 6011 6010 6012
1941 1 6014 6013 6015
1942 1 6017 6016 6018
1943 1 6020 6019 6021
1944 1 6023 6022 6024
1945 1 6026 6025 6027
1946 1 6029 6028 6030
1947 1 6032 6031 6033
1948 1 6035 6034 6036
1949 1 6038 6037 6039
1950 1 6041 6040 6042
1951 1 6044 6043 6045
1952 1 6047 6046 6048
1953 1 6050 6049 6051
1954 1 6053 6052 6054
1955 1 6056 6055 6057
1956 1 6059 6058 6060
1957 1 6062 6061 6063
1958 1 6065 6064 6066
1959 1 6068 6067 6069
1960 1 6071 6070 6072
1961 1 6074 6073 6075
1962 1 6077 6076 6078
1963 1 6080 6079 6081
1964 1 6083 6082 6084
1965 1 6086 6085 6087
1966 1 6089 6088 6090
1967 1 6092 6091 6093
1968 1 6095 6094 6096
1969 1 6098 6097 6099
1970 1 6101 6100 6102
1971 1 6104 6103 6105
1972 1 6107 6106 6108
1973 1 6110 6109 6111
1974 1 6113 6112 6114
1975 1 6116 6115 6117
1976 1 6119 6118 6120
1977 1 6122 6121 6123
1978 1 6125 6124 6126
1979 1 6128 6127 6129
1980 1 6131 6130 6132
1981 1 6134 6133 6135
1982 1 6137 6136 6138
1983 1 6140 6139 6141
1984 1 6143 6142 6144
1985 1 6146 6145 6147
1986 1 6149 6148 6150
1987 1 6152 6151 6153
1988 1 6155 6154 6156
1989 1 6158 6157 6159
1990 1 6161 6160 6162
1991 1 6164 6163 6165
1992 1 6167 6166 6168
1993 1 6170 6169 6171
1994 1 6173 6172 6174
1995 1 6176 6175 6177
1996 1 6179 6178 6180
1997 1 6182 6181 6183
1998 1 6185 6184 6186
1999 1 6188 6187 6189
2000 1 6191 6190 6192
2001 1 6194 6193 6195
2002 1 6197 6196 6198
2003 1 6200 6199 6201
2004 1 6203 6202 6204
2005 1 6206 6205 6207
2006 1 6209 6208 6210
2007 1 6212 6211 6213
2008 1 6215 6214 6216
2009 1 6218 6217 6219
2010 1 6221 6220 6222
2011 1 6224 6223 6225
2012 1 6227 6226 6228
2013 1 6230 6229 6231
2014 1 6233 6232 6234
2015 1 6236 6235 6237
2016 1 6239 6238 6240
2017 1 6242 6241 6243
2018 1 6245 6244 6246
2019 1 6248 6247 6249
2020 1 6251 6250 6252
2021 1 6254 6253 6255
2022 1 6257 6256 6258
2023 1 6260 6259 6261
2024 1 6263 6262 6264
2025 1 6266 6265 6267
2026 1 6269 6268 6270
2027 1 6272 6271 6273
2028 1 6275 6274 6276
2029 1 6278 6277 6279
2030 1 6281 6280 6282
2031 1 6284 6283 6285
2032 1 6287 6286 6288
2033 1 6290 6289 6291
2034 1 6293 6292 6294
2035 1 6296 6295 6297
2036 1 6299 6298 6300
2037 1 6302 6301 6303
2038 1 6305 6304 6306
2039 1 6308 6307 6309
2040 1 6311 6310 6312
2041 1 6314 6313 6315
2042 1 6317 6316 6318
2043 1 6320 6319 6321
2044 1 6323 6322 6324
2045 1 6326 6325 6327
2046 1 6329 6328 6330
2047 1 6332 6331 6333
2048 1 6335 6334 6336
2049 1 6338 6337 6339
2050 1 6341 6340 6342
2051 1 6344 6343 6345
2052 1 6347 6346 6348
2053 1 6350 6349 6351
2054 1 6353 6352 6354
2055 1 6356 6355 6357
2056 1 6359 6358 6360
2057 1 6362 6361 6363
2058 1 6365 6364 6366
2059 1 6368 6367 6369
2060 1 6371 6370 6372
2061 1 6374 6373 6375
2062 1 6377 6376 6378
2063 1 6380 6379 6381
2064 1 6383 6382 6384
2065 1 6386 6385 6387
2066 1 6389 6388 6390
2067 1 6392 6391 6393
2068 1 6395 6394 6396
2069 1 6398 6397 6399
2070 1 6401 6400 6402
2071 1 6404 6403 6405
2072 1 6407 6406 6408
2073 1 6410 6409 6411
2074 1 6413 6412 6414
2075 1 6416 6415 6417
2076 1 6419 6418 6420
2077 1 6422 6421 6423
2078 1 6425 6424 6426
2079 1 6428 6427 6429
2080 1 6431 6430 6432
2081 1 6434 6433 6435
2082 1 6437 6436 6438
2083 1 6440 6439 6441
2084 1 6443 6442 6444
2085 1 6446 6445 6447
2086 1 6449 6448 6450
2087 1 6452 6451 6453
2088 1 6455 6454 6456
2089 1 6458 6457 6459
2090 1 6461 6460 6462
2091 1 6464 6463 6465
2092 1 6467 6466 6468
2093 1 6470 6469 6471
2094 1 6473 6472 6474
2095 1 6476 6475 6477
2096 1 6479 6478 6480
2097 1 6482 6481 6483
2098 1 6485 6484 6486
2099 1 6488 6487 6489
2100 1 6491 6490 6492
2101 1 6494 6493 6495
2102 1 6497 6496 6498
2103 1 6500 6499 6501
2104 1 6503 6502 6504
2105 1 6506 6505 6507
2106 1 6509 6508 6510
2107 1 6512 6511 6513
2108 1 6515 6514 6516
2109 1 6518 6517 6519
2110 1 6521 6520 6522
2111 1 6524 6523 6525
2112 1 6527 6526 6528
2113 1 6530 6529 6531
2114 1 6533 6532 6534
2115 1 6536 6535 6537
2116 1 6539 6538 6540
2117 1 6542 6541 6543
2118 1 6545 6544 6546
2119 1 6548 6547 6549
2120 1 6551 6550 6552
2121 1 6554 6553 6555
2122 1 6557 6556 6558
2123 1 6560 6559 6561
2124 1 6563 6562 6564
2125 1 6566 6565 6567
2126 1 6569 6568 6570
2127 1 6572 6571 6573
2128 1 6575 6574 6576
2129 1 6578 6577 6579
2130 1 6581 6580 6582
2131 1 6584 6583 6585
2132 1 6587 6586 6588
2133 1 6590 6589 6591
2134 1 6593 6592 6594
2135 1 6596 6595 6597
2136 1 6599 6598 6600
2137 1 6602 6601 6603
2138 1 6605 6604 6606
2139 1 6608 6607 6609
2140 1 6611 6610 6612
2141 1 6614 6613 6615
2142 1 6617 6616 6618
2143 1 6620 6619 6621
2144 1 6623 6622 6624
2145 1 6626 6625 6627
2146 1 6629 6628 6630
2147 1 6632 6631 6633
2148 1 6635 6634 6636
2149 1 6638 6637 6639
2150 1 6641 6640 6642
2151 1 6644 6643 6645
2152 1 6647 6646 6648
2153 1 6650 6649 6651
2154 1 6653 6652 6654
2155 1 6656 6655 6657
2156 1 6659 6658 6660
2157 1 6662 6661 6663
2158 1 6665 6664 6666
2159 1 6668 6667 6669
2160 1 6671 6670 6672
2161 1 6674 6673 6675
2162 1 6677 6676 6678
2163 1 6680 6679 6681
2164 1 6683 6682 6684
2165 1 6686 6685 6687
2166 1 6689 6688 6690
2167 1 6692 6691 6693
2168 1 6695 6694 6696
2169 1 6698 6697 6699
2170 1 6701 6700 6702
2171 1 6704 6703 6705
2172 1 6707 6706 6708
2173 1 6710 6709 6711
2174 1 6713 6712 6714
2175 1 6716 6715 6717
2176 1 6719 6718 6720
2177 1 6722 6721 6723
2178 1 6725 6724 6726
2179 1 6728 6727 6729
2180 1 6731 6730 6732
2181 1 6734 6733 6735
2182 1 6737 6736 6738
2183 1 6740 6739 6741
2184 1 6743 6742 6744
2185 1 6746 6745 6747
2186 1 6749 6748 6750
2187 1 6752 6751 6753
2188 1 6755 6754 6756
2189 1 6758 6757 6759
2190 1 6761 6760 6762
2191 1 6764 6763 6765
2192 1 6767 6766 6768
2193 1 6770 6769 6771
2194 1 6773 6772 6774
2195 1 6776 6775 6777
2196 1 6779 6778 6780
2197 1 6782 6781 6783
2198 1 6785 6784 6786
2199 1 6788 6787 6789
2200 1 6791 6790 6792
2201 1 6794 6793 6795
2202 1 6797 6796 6798
2203 1 6800 6799 6801
2204 1 6803 6802 6804
2205 1 6806 6805 6807
2206 1 6809 6808 6810
2207 1 6812 6811 6813
2208 1 6815 6814 6816
2209 1 6818 6817 6819
2210 1 6821 6820 6822
2211 1 6824 6823 6825
2212 1 6827 6826 6828
2213 1 6830 6829 6831
2214 1 6833 6832 6834
2215 1 6836 6835 6837
2216 1 6839 6838 6840
2217 1 6842 6841 6843
2218 1 6845 6844 6846
2219 1 6848 6847 6849
2220 1 6851 6850 6852
2221 1 6854 6853 6855
2222 1 6857 6856 6858
2223 1 6860 6859 6861
2224 1 6863 6862 6864
2225 1 6866 6865 6867
2226 1 6869 6868 6870
2227 1 6872 6871 6873
2228 1 6875 6874 6876
2229 1 6878 6877 6879
2230 1 6881 6880 6882
2231 1 6884 6883 6885
2232 1 6887 6886 6888
2233 1 6890 6889 6891
2234 1 6893 6892 6894
2235 1 6896 6895 6897
2236 1 6899 6898 6900
2237 1 6902 6901 6903
2238 1 6905 6904 6906
2239 1 6908 6907 6909
2240 1 6911 6910 6912
2241 1 6914 6913 6915
2242 1 6917 6916 6918
2243 1 6920 6919 6921
2244 1 6923 6922 6924
2245 1 6926 6925 6927
2246 1 6929 6928 6930
2247 1 6932 6931 6933
2248 1 6935 6934 6936
2249 1 6938 6937 6939
2250 1 6941 6940 6942
2251 1 6944 6943 6945
2252 1 6947 6946 6948
2253 1 6950 6949 6951
2254 1 6953 6952 6954
2255 2 7207 7206 7211
2256 4 7206 7207 7208
2257 4 7206 7207 7209
2258 4 7206 7207 7210
2259 3 7208 7207 7209
2260 3 7208 7207 7210
2261 3 7209 7207 7210
2262 2 7213 7212 7217
2263 4 7212 7213 7214
2264 4 7212 7213 7215
2265 4 7212 7213 7216
2266 3 7214 7213 7215
2267 3 7214 7213 7216
2268 3 7215 7213 7216
2269 2 7219 7218 7223
2270 4 7218 7219 7220
2271 4 7218 7219 7221
2272 4 7218 7219 7222
2273 3 7220 7219 7221
2274 3 7220 7219 7222
2275 3 7221 7219 7222
2276 2 7225 7224 7229
2277 4 7224 7225 7226
2278 4 7224 7225 7227
2279 4 7224 7225 7228
2280 3 7226 7225 7227
2281 3 7226 7225 7228
2282 3 7227 7225 7228
2283 2 7231 7230 7235
2284 4 7230 7231 7232
2285 4 7230 7231 7233
2286 4 7230 7231 7234
2287 3 7232 7231 7233
2288 3 7232 7231 7234
2289 3 7233 7231 7234
2290 2 7237 7236 7241
2291 4 7236 7237 7238
2292 4 7236 7237 7239
2293 4 7236 7237 7240
2294 3 7238 7237 7239
2295 3 7238 7237 7240
2296 3 7239 7237 7240
2297 2 7243 7242 7247
2298 4 7242 7243 7244
2299 4 7242 7243 7245
2300 4 7242 7243 7246
2301 3 7244 7243 7245
2302 3 7244 7243 7246
2303 3 7245 7243 7246
2304 2 7249 7248 7253
2305 4 7248 7249 7250
2306 4 7248 7249 7251
2307 4 7248 7249 7252
2308 3 7250 7249 7251
2309 3 7250 7249 7252
2310 3 7251 7249 7252
2311 2 7255 7254 7259
2312 4 7254 7255 7256
2313 4 7254 7255 7257
2314 4 7254 7255 7258
2315 3 7256 7255 7257
2316 3 7256 7255 7258
2317 3 7257 7255 7258
2318 2 7261 7260 7265
2319 4 7260 7261 7262
2320 4 7260 7261 7263
2321 4 7260 7261 7264
2322 3 7262 7261 7263
2323 3 7262 7261 7264
2324 3 7263 7261 7264
2325 2 7267 7266 7271
2326 4 7266 7267 7268
2327 4 7266 7267 7269
2328 4 7266 7267 7270
2329 3 7268 7267 7269
2330 3 7268 7267 7270
2331 3 7269 7267 7270
2332 2 7273 7272 7277
2333 4 7272 7273 7274
2334 4 7272 7273 7275
2335 4 7272 7273 7276
2336 3 7274 7273 7275
2337 3 7274 7273 7276
2338 3 7275 7273 7276
2339 2 7279 7278 7283
2340 4 7278 7279 7280
2341 4 7278 7279 7281
2342 4 7278 7279 7282
2343 3 7280 7279 7281
2344 3 7280 7279 7282
2345 3 7281 7279 7282
2346 2 7285 7284 7289
2347 4 7284 7285 7286
2348 4 7284 7285 7287
2349 4 7284 7285 7288
2350 3 7286 7285 7287
2351 3 7286 7285 7288
2352 3 7287 7285 7288
2353 2 7291 7290 7295
2354 4 7290 7291 7292
2355 4 7290 7291 7293
2356 4 7290 7291 7294
2357 3 7292 7291 7293
2358 3 7292 7291 7294
2359 3 7293 7291 7294
2360 2 7297 7296 7301
2361 4 7296 7297 7298
2362 4 7296 7297 7299
2363 4 7296 7297 7300
2364 3 7298 7297 7299
2365 3 7298 7297 7300
2366 3 7299 7297 7300
2367 2 7303 7302 7307
2368 4 7302 7303 7304
2369 4 7302 7303 7305
2370 4 7302 7303 7306
2371 3 7304 7303 7305
2372 3 7304 7303 7306
2373 3 7305 7303 7306
2374 2 7309 7308 7313
2375 4 7308 7309 7310
2376 4 7308 7309 7311
2377 4 7308 7309 7312
2378 3 7310 7309 7311
2379 3 7310 7309 7312
2380 3 7311 7309 7312
2381 2 7315 7314 7319
2382 4 7314 7315 7316
2383 4 7314 7315 7317
2384 4 7314 7315 7318
2385 3 7316 7315 7317
2386 3 7316 7315 7318
2387 3 7317 7315 7318
2388 2 7321 7320 7325
2389 4 7320 7321 7322
2390 4 7320 7321 7323
2391 4 7320 7321 7324
2392 3 7322 7321 7323
2393 3 7322 7321 7324
2394 3 7323 7321 7324
2395 2 7327 7326 7331
2396 4 7326 7327 7328
2397 4 7326 7327 7329
2398 4 7326 7327 7330
2399 3 7328 7327 7329
2400 3 7328 7327 7330
2401 3 7329 7327 7330
2402 2 7333 7332 7337
2403 4 7332 7333 7334
2404 4 7332 7333 7335
2405 4 7332 7333 7336
2406 3 7334 7333 7335
2407 3 7334 7333 7336
2408 3 7335 7333 7336
2409 2 7339 7338 7343
2410 4 7338 7339 7340
2411 4 7338 7339 7341
2412 4 7338 7339 7342
2413 3 7340 7339 7341
2414 3 7340 7339 7342
2415 3 7341 7339 7342
2416 2 7345 7344 7349
2417 4 7344 7345 7346
2418 4 7344 7345 7347
2419 4 7344 7345 7348
2420 3 7346 7345 7347
2421 3 7346 7345 7348
2422 3 7347 7345 7348
2423 2 7351 7350 7355
2424 4 7350 7351 7352
2425 4 7350 7351 7353
2426 4 7350 7351 7354
2427 3 7352 7351 7353
2428 3 7352 7351 7354
2429 3 7353 7351 7354
2430 2 7357 7356 7361
2431 4 7356 7357 7358
2432 4 7356 7357 7359
2433 4 7356 7357 7360
2434 3 7358 7357 7359
2435 3 7358 7357 7360
2436 3 7359 7357 7360
2437 2 7363 7362 7367
2438 4 7362 7363 7364
2439 4 7362 7363 7365
2440 4 7362 7363 7366
2441 3 7364 7363 7365
2442 3 7364 7363 7366
2443 3 7365 7363 7366
2444 2 7369 7368 7373
2445 4 7368 7369 7370
2446 4 7368 7369 7371
2447 4 7368 7369 7372
2448 3 7370 7369 7371
2449 3 7370 7369 7372
2450 3 7371 7369 7372
2451 2 7375 7374 7379
2452 4 7374 7375 7376
2453 4 7374 7375 7377
2454 4 7374 7375 7378
2455 3 7376 7375 7377
2456 3 7376 7375 7378
2457 3 7377 7375 7378
2458 2 7381 7380 7385
2459 4 7380 7381 7382
2460 4 7380 7381 7383
2461 4 7380 7381 7384
2462 3 7382 7381 7383
2463 3 7382 7381 7384
2464 3 7383 7381 7384
2465 2 7387 7386 7391
2466 4 7386 7387 7388
2467 4 7386 7387 7389
2468 4 7386 7387 7390
2469 3 7388 7387 7389
2470 3 7388 7387 7390
2471 3 7389 7387 7390
2472 2 7393 7392 7397
2473 4 7392 7393 7394
2474 4 7392 7393 7395
2475 4 7392 7393 7396
2476 3 7394 7393 7395
2477 3 7394 7393 7396
2478 3 7395 7393 7396
2479 2 7399 7398 7403
2480 4 7398 7399 7400
2481 4 7398 7399 7401
2482 4 7398 7399 7402
2483 3 7400 7399 7401
2484 3 7400 7399 7402
2485 3 7401 7399 7402
2486 2 7405 7404 7409
2487 4 7404 7405 7406
2488 4 7404 7405 7407
2489 4 7404 7405 7408
2490 3 7406 7405 7407
2491 3 7406 7405 7408
2492 3 7407 7405 7408
2493 2 7411 7410 7415
2494 4 7410 7411 7412
2495 4 7410 7411 7413
2496 4 7410 7411 7414
2497 3 7412 7411 7413
2498 3 7412 7411 7414
2499 3 7413 7411 7414
2500 2 7417 7416 7421
2501 4 7416 7417 7418
2502 4 7416 7417 7419
2503 4 7416 7417 7420
2504 3 7418 7417 7419
2505 3 7418 7417 7420
2506 3 7419 7417 7420
2507 2 7423 7422 7427
2508 4 7422 7423 7424
2509 4 7422 7423 7425
2510 4 7422 7423 7426
2511 3 7424 7423 7425
2512 3 7424 7423 7426
2513 3 7425 7423 7426
2514 2 7429 7428 7433
2515 4 7428 7429 7430
2516 4 7428 7429 7431
2517 4 7428 7429 7432
2518 3 7430 7429 7431
2519 3 7430 7429 7432
2520 3 7431 7429 7432
2521 2 7435 7434 7439
2522 4 7434 7435 7436
2523 4 7434 7435 7437
2524 4 7434 7435 7438
2525 3 7436 7435 7437
2526 3 7436 7435 7438
2527 3 7437 7435 7438
2528 2 7441 7440 7445
2529 4 7440 7441 7442
2530 4 7440 7441 7443
2531 4 7440 7441 7444
2532 3 7442 7441 7443
2533 3 7442 7441 7444
2534 3 7443 7441 7444
2535 2 7447 7446 7451
2536 4 7446 7447 7448
2537 4 7446 7447 7449
2538 4 7446 7447 7450
2539 3 7448 7447 7449
2540 3 7448 7447 7450
2541 3 7449 7447 7450
2542 2 7453 7452 7457
2543 4 7452 7453 7454
2544 4 7452 7453 7455
2545 4 7452 7453 7456
2546 3 7454 7453 7455
2547 3 7454 7453 7456
2548 3 7455 7453 7456
2549 2 7459 7458 7463
2550 4 7458 7459 7460
2551 4 7458 7459 7461
2552 4 7458 7459 7462
2553 3 7460 7459 7461
2554 3 7460 7459 7462
2555 3 7461 7459 7462
2556 2 7465 7464 7469
2557 4 7464 7465 7466
2558 4 7464 7465 7467
2559 4 7464 7465 7468
2560 3 7466 7465 7467
2561 3 7466 7465 7468
2562 3 7467 7465 7468
2563 2 7471 7470 7475
2564 4 7470 7471 7472
2565 4 7470 7471 7473
2566 4 7470 7471 7474
2567 3 7472 7471 7473
2568 3 7472 7471 7474
2569 3 7473 7471 7474
2570 2 7477 7476 7481
2571 4 7476 7477 7478
2572 4 7476 7477 7479
2573 4 7476 7477 7480
2574 3 7478 7477 7479
2575 3 7478 7477 7480
2576 3 7479 7477 7480
2577 2 7483 7482 7487
2578 4 7482 7483 7484
2579 4 7482 7483 7485
2580 4 7482 7483 7486
2581 3 7484 7483 7485
2582 3 7484 7483 7486
2583 3 7485 7483 7486
2584 2 7489 7488 7493
2585 4 7488 7489 7490
2586 4 7488 7489 7491
2587 4 7488 7489 7492
2588 3 7490 7489 7491
2589 3 7490 7489 7492
2590 3 7491 7489 7492
2591 2 7495 7494 7499
2592 4 7494 7495 7496
2593 4 7494 7495 7497
2594 4 7494 7495 7498
2595 3 7496 7495 7497
2596 3 7496 7495 7498
2597 3 7497 7495 7498
2598 2 7501 7500 7505
2599 4 7500 7501 7502
2600 4 7500 7501 7503
2601 4 7500 7501 7504
2602 3 7502 7501 7503
2603 3 7502 7501 7504
2604 3 7503 7501 7504
2605 2 7507 7506 7511
2606 4 7506 7507 7508
2607 4 7506 7507 7509
2608 4 7506 7507 7510
2609 3 7508 7507 7509
2610 3 7508 7507 7510
2611 3 7509 7507 7510
2612 2 7513 7512 7517
2613 4 7512 7513 7514
2614 4 7512 7513 7515
2615 4 7512 7513 7516
2616 3 7514 7513 7515
2617 3 7514 7513 7516
2618 3 7515 7513 7516
2619 5 7518 7519 7520
2620 6 7519 7520 7521
2621 7 7520 7521 7522
2622 8 7521 7522 7523
2623 9 7519 7520 7524
2624 10 7522 7523 7525
2625 11 7518 7519 7526
2626 12 7519 7518 7527
2627 13 7519 7518 7528
2628 14 7519 7518 7529
2629 15 7518 7519 7530
2630 16 7520 7521 7531
2631 17 7521 7522 7532
2632 18 7520 7524 7533
2633 19 7523 7525 7534
2634 20 7523 7525 7535
2635 21 7523 7525 7536
2636 22 7519 7526 7537
2637 23 7522 7521 7531
2638 24 7522 7523 7524
2639 25 7534 7525 7535
2640 26 7521 7520 7524
2641 27 7520 7524 7523
2642 28 7523 7522 7532
2643 29 7528 7518 7529
2644 30 7524 7523 7525
2645 31 7534 7525 7536
2646 32 7527 7518 7529
2647 33 7527 7518 7528
2648 34 7520 7519 7530
2649 35 7520 7519 7526
2650 36 7526 7519 7530
2651 37 7523 7524 7533
2652 38 7535 7525 7536
2653 5 7538 7539 7540
2654 6 7539 7540 7541
2655 7 7540 7541 7542
2656 8 7541 7542 7543
2657 9 7539 7540 7544
2658 10 7542 7543 7545
2659 11 7538 7539 7546
2660 12 7539 7538 7547
2661 13 7539 7538 7548
2662 14 7539 7538 7549
2663 15 7538 7539 7550
2664 16 7540 7541 7551
2665 17 7541 7542 7552
2666 18 7540 7544 7553
2667 19 7543 7545 7554
2668 20 7543 7545 7555
2669 21 7543 7545 7556
2670 22 7539 7546 7557
2671 23 7542 7541 7551
2672 24 7542 7543 7544
2673 25 7554 7545 7555
2674 26 7541 7540 7544
2675 27 7540 7544 7543
2676 28 7543 7542 7552
2677 29 7548 7538 7549
2678 30 7544 7543 7545
2679 31 7554 7545 7556
2680 32 7547 7538 7549
2681 33 7547 7538 7548
2682 34 7540 7539 7550
2683 35 7540 7539 7546
2684 36 7546 7539 7550
2685 37 7543 7544 7553
2686 38 7555 7545 7556
2687 5 7558 7559 7560
2688 6 7559 7560 7561
2689 7 7560 7561 7562
2690 8 7561 7562 7563
2691 9 7559 7560 7564
2692 10 7562 7563 7565
2693 11 7558 7559 7566
2694 12 7559 7558 7567
2695 13 7559 7558 7568
2696 14 7559 7558 7569
2697 15 7558 7559 7570
2698 16 7560 7561 7571
2699 17 7561 7562 7572
2700 18 7560 7564 7573
2701 19 7563 7565 7574
2702 20 7563 7565 7575
2703 21 7563 7565 7576
2704 22 7559 7566 7577
2705 23 7562 7561 7571
2706 24 7562 7563 7564
2707 25 7574 7565 7575
2708 26 7561 7560 7564
2709 27 7560 7564 7563
2710 28 7563 7562 7572
2711 29 7568 7558 7569
2712 30 7564 7563 7565
2713 31 7574 7565 7576
2714 32 7567 7558 7569
2715 33 7567 7558 7568
2716 34 7560 7559 7570
2717 35 7560 7559 7566
2718 36 7566 7559 7570
2719 37 7563 7564 7573
2720 38 7575 7565 7576
2721 5 7578 7579 7580
2722 6 7579 7580 7581
2723 7 7580 7581 7582
2724 8 7581 7582 7583
2725 9 7579 7580 7584
2726 10 7582 7583 7585
2727 11 7578 7579 7586
2728 12 7579 7578 7587
2729 13 7579 7578 7588
2730 14 7579 7578 7589
2731 15 7578 7579 7590
2732 16 7580 7581 7591
2733 17 7581 7582 7592
2734 18 7580 7584 7593
2735 19 7583 7585 7594
2736 20 7583 7585 7595
2737 21 7583 7585 7596
2738 22 7579 7586 7597
2739 23 7582 7581 7591
2740 24 7582 7583 7584
2741 25 7594 7585 7595
2742 26 7581 7580 7584
2743 27 7580 7584 7583
2744 28 7583 7582 7592
2745 29 7588 7578 7589
2746 30 7584 7583 7585
2747 31 7594 7585 7596
2748 32 7587 7578 7589
2749 33 7587 7578 7588
2750 34 7580 7579 7590
2751 35 7580 7579 7586
2752 36 7586 7579 7590
2753 37 7583 7584 7593
2754 38 7595 7585 7596
2755 5 7598 7599 7600
2756 6 7599 7600 7601
2757 7 7600 7601 7602
2758 8 7601 7602 7603
2759 9 7599 7600 7604
2760 10 7602 7603 7605
2761 11 7598 7599 7606
2762 12 7599 7598 7607
2763 13 7599 7598 7608
2764 14 7599 7598 7609
2765 15 7598 7599 7610
2766 16 7600 7601 7611
2767 17 7601 7602 7612
2768 18 7600 7604 7613
2769 19 7603 7605 7614
2770 20 7603 7605 7615
2771 21 7603 7605 7616
2772 22 7599 7606 7617
2773 23 7602 7601 7611
2774 24 7602 7603 7604
2775 25 7614 7605 7615
2776 26 7601 7600 7604
2777 27 7600 7604 7603
2778 28 7603 7602 7612
2779 29 7608 7598 7609
2780 30 7604 7603 7605
2781 31 7614 7605 7616
2782 32 7607 7598 7609
2783 33 7607 7598 7608
2784 34 7600 7599 7610
2785 35 7600 7599 7606
2786 36 7606 7599 7610
2787 37 7603 7604 7613
2788 38 7615 7605 7616

Dihedrals

1 1 7208 7207 7206 7211
2 1 7209 7207 7206 7211
3 1 7210 7207 7206 7211
4 1 7214 7213 7212 7217
5 1 7215 7213 7212 7217
6 1 7216 7213 7212 7217
7 1 7220 7219 7218 7223
8 1 7221 7219 7218 7223
9 1 7222 7219 7218 7223
10 1 7226 7225 7224 7229
11 1 7227 7225 7224 7229
12 1 7228 7225 7224 7229
13 1 7232 7231 7230 7235
14 1 7233 7231 7230 7235
15 1 7234 7231 7230 7235
16 1 7238 7237 7236 7241
17 1 7239 7237 7236 7241
18 1 7240 7237 7236 7241
19 1 7244 7243 7242 7247
20 1 7245 7243 7242 7247
21 1 7246 7243 7242 7247
22 1 7250 7249 7248 7253
23 1 7251 7249 7248 7253
24 1 7252 7249 7248 7253
25 1 7256 7255 7254 7259
26 1 7257 7255 7254 7259
27 1 7258 7255 7254 7259
28 1 7262 7261 7260 7265
29 1 7263 7261 7260 7265
30 1 7264 7261 7260 7265
31 1 7268 7267 7266 7271
32 1 7269 7267 7266 7271
33 1 7270 7267 7266 7271
34 1 7274 7273 7272 7277
35 1 7275 7273 7272 7277
36 1 7276 7273 7272 7277
37 1 7280 7279 7278 7283
38 1 7281 7279 7278 7283
39 1 7282 7279 7278 7283
40 1 7286 7285 7284 7289
41 1 7287 7285 7284 7289
42 1 7288 7285 7284 7289
43 1 7292 7291 7290 7295
44 1 7293 7291 7290 7295
45 1 7294 7291 7290 7295
46 1 7298 7297 7296 7301
47 1 7299 7297 7296 7301
48 1 7300 7297 7296 7301
49 1 7304 7303 7302 7307
50 1 7305 7303 7302 7307
51 1 7306 7303 7302 7307
52 1 7310 7309 7308 7313
53 1 7311 7309 7308 7313
54 1 7312 7309 7308 7313
55 1 7316 7315 7314 7319
56 1 7317 7315 7314 7319
57 1 7318 7315 7314 7319
58 1 7322 7321 7320 7325
59 1 7323 7321 7320 7325
60 1 7324 7321 7320 7325
61 1 7328 7327 7326 7331
62 1 7329 7327 7326 7331
63 1 7330 7327 7326 7331
64 1 7334 7333 7332 7337
65 1 7335 7333 7332 7337
66 1 7336 7333 7332 7337
67 1 7340 7339 7338 7343
68 1 7341 7339 7338 7343
69 1 7342 7339 7338 7343
70 1 7346 7345 7344 7349
71 1 7347 7345 7344 7349
72 1 7348 7345 7344 7349
73 1 7352 7351 7350 7355
74 1 7353 7351 7350 7355
75 1 7354 7351 7350 7355
76 1 7358 7357 7356 7361
77 1 7359 7357 7356 7361
78 1 7360 7357 7356 7361
79 1 7364 7363 7362 7367
80 1 7365 7363 7362 7367
81 1 7366 7363 7362 7367
82 1 7370 7369 7368 7373
83 1 7371 7369 7368 7373
84 1 7372 7369 7368 7373
85 1 7376 7375 7374 7379
86 1 7377 7375 7374 7379
87 1 7378 7375 7374 7379
88 1 7382 7381 7380 7385
89 1 7383 7381 7380 7385
90 1 7384 7381 7380 7385
91 1 7388 7387 7386 7391
92 1 7389 7387 7386 7391
93 1 7390 7387 7386 7391
94 1 7394 7393 7392 7397
95 1 7395 7393 7392 7397
96 1 7396 7393 7392 7397
97 1 7400 7399 7398 7403
98 1 7401 7399 7398 7403
99 1 7402 7399 7398 7403
100 1 7406 7405 7404 7409
101 1 7407 7405 7404 7409
102 1 7408 7405 7404 7409
103 1 7412 7411 7410 7415
104 1 7413 7411 7410 7415
105 1 7414 7411 7410 7415
106 1 7418 7417 7416 7421
107 1 7419 7417 7416 7421
108 1 7420 7417 7416 7421
109 1 7424 7423 7422 7427
110 1 7425 7423 7422 7427
111 1 7426 7423 7422 7427
112 1 7430 7429 7428 7433
113 1 7431 7429 7428 7433
114 1 7432 7429 7428 7433
115 1 7436 7435 7434 7439
116 1 7437 7435 7434 7439
117 1 7438 7435 7434 7439
118 1 7442 7441 7440 7445
119 1 7443 7441 7440 7445
120 1 7444 7441 7440 7445
121 1 7448 7447 7446 7451
122 1 7449 7447 7446 7451
123 1 7450 7447 7446 7451
124 1 7454 7453 7452 7457
125 1 7455 7453 7452 7457
126 1 7456 7453 7452 7457
127 1 7460 7459 7458 7463
128 1 7461 7459 7458 7463
129 1 7462 7459 7458 7463
130 1 7466 7465 7464 7469
131 1 7467 7465 7464 7469
132 1 7468 7465 7464 7469
133 1 7472 7471 7470 7475
134 1 7473 7471 7470 7475
135 1 7474 7471 7470 7475
136 1 7478 7477 7476 7481
137 1 7479 7477 7476 7481
138 1 7480 7477 7476 7481
139 1 7484 7483 7482 7487
140 1 7485 7483 7482 7487
141 1 7486 7483 7482 7487
142 1 7490 7489 7488 7493
143 1 7491 7489 7488 7493
144 1 7492 7489 7488 7493
145 1 7496 7495 7494 7499
146 1 7497 7495 7494 7499
147 1 7498 7495 7494 7499
148 1 7502 7501 7500 7505
149 1 7503 7501 7500 7505
150 1 7504 7501 7500 7505
151 1 7508 7507 7506 7511
152 1 7509 7507 7506 7511
153 1 7510 7507 7506 7511
154 1 7514 7513 7512 7517
155 1 7515 7513 7512 7517
156 1 7516 7513 7512 7517
157 2 7518 7519 7520 7521
158 3 7519 7520 7521 7522
159 4 7520 7521 7522 7523
160 5 7520 7519 7518 7527
161 6 7522 7523 7525 7534
162 7 7518 7519 7526 7537
163 8 7525 7523 7522 7532
164 9 7522 7521 7520 7524
165 10 7524 7520 7519 7530
166 11 7519 7520 7521 7531
167 12 7520 7524 7523 7522
168 13 7524 7523 7525 7534
169 14 7531 7521 7522 7532
170 15 7520 7519 7518 7528
171 16 7521 7520 7524 7523
172 17 7522 7523 7525 7536
173 18 7519 7520 7524 7523
174 19 7524 7523 7525 7536
175 20 7522 7523 7525 7535
176 21 7518 7519 7520 7524
177 22 7521 7520 7524 7533
178 23 7529 7518 7519 7530
179 24 7520 7519 7518 7529
180 25 7524 7520 7519 7526
181 26 7520 7519 7526 7537
182 27 7521 7522 7523 7525
183 28 7521 7520 7519 7526
184 29 7524 7523 7525 7535
185 30 7524 7523 7522 7532
186 31 7521 7520 7519 7530
187 32 7520 7524 7523 7525
188 33 7520 7521 7522 7532
189 34 7528 7518 7519 7530
190 35 7525 7523 7524 7533
191 36 7521 7522 7523 7524
192 37 7526 7519 7518 7527
193 38 7527 7518 7519 7530
194 39 7522 7523 7524 7533
195 40 7530 7519 7526 7537
196 41 7519 7520 7524 7533
197 42 7524 7520 7521 7531
198 43 7526 7519 7518 7528
199 44 7523 7522 7521 7531
200 45 7526 7519 7518 7529
201 2 7538 7539 7540 7541
202 3 7539 7540 7541 7542
203 4 7540 7541 7542 7543
204 5 7540 7539 7538 7547
205 6 7542 7543 7545 7554
206 7 7538 7539 7546 7557
207 8 7545 7543 7542 7552
208 9 7542 7541 7540 7544
209 10 7544 7540 7539 7550
210 11 7539 7540 7541 7551
211 12 7540 7544 7543 7542
212 13 7544 7543 7545 7554
213 14 7551 7541 7542 7552
214 15 7540 7539 7538 7548
215 16 7541 7540 7544 7543
216 17 7542 7543 7545 7556
217 18 7539 7540 7544 7543
218 19 7544 7543 7545 7556
219 20 7542 7543 7545 7555
220 21 7538 7539 7540 7544
221 22 7541 7540 7544 7553
222 23 7549 7538 7539 7550
223 24 7540 7539 7538 7549
224 25 7544 7540 7539 7546
225 26 7540 7539 7546 7557
226 27 7541 7542 7543 7545
227 28 7541 7540 7539 7546
228 29 7544 7543 7545 7555
229 30 7544 7543 7542 7552
230 31 7541 7540 7539 7550
231 32 7540 7544 7543 7545
232 33 7540 7541 7542 7552
233 34 7548 7538 7539 7550
234 35 7545 7543 7544 7553
235 36 7541 7542 7543 7544
236 37 7546 7539 7538 7547
237 38 7547 7538 7539 7550
238 39 7542 7543 7544 7553
239 40 7550 7539 7546 7557
240 41 7539 7540 7544 7553
241 42 7544 7540 7541 7551
242 43 7546 7539 7538 7548
243 44 7543 7542 7541 7551
244 45 7546 7539 7538 7549
245 2 7558 7559 7560 7561
246 3 7559 7560 7561 7562
247 4 7560 7561 7562 7563
248 5 7560 7559 7558 7567
249 6 7562 7563 7565 7574
250 7 7558 7559 7566 7577
251 8 7565 7563 7562 7572
252 9 7562 7561 7560 7564
253 10 7564 7560 7559 7570
254 11 7559 7560 7561 7571
255 12 7560 7564 7563 7562
256 13 7564 7563 7565 7574
257 14 7571 7561 7562 7572
258 15 7560 7559 7558 7568
259 16 7561 7560 7564 7563
260 17 7562 7563 7565 7576
261 18 7559 7560 7564 7563
262 19 7564 7563 7565 7576
263 20 7562 7563 7565 7575
264 21 7558 7559 7560 7564
265 22 7561 7560 7564 7573
266 23 7569 7558 7559 7570
267 24 7560 7559 7558 7569
268 25 7564 7560 7559 7566
269 26 7560 7559 7566 7577
270 27 7561 7562 7563 7565
271 28 7561 7560 7559 7566
272 29 7564 7563 7565 7575
273 30 7564 7563 7562 7572
274 31 7561 7560 7559 7570
275 32 7560 7564 7563 7565
276 33 7560 7561 7562 7572
277 34 7568 7558 7559 7570
278 35 7565 7563 7564 7573
279 36 7561 7562 7563 7564
280 37 7566 7559 7558 7567
281 38 7567 7558 7559 7570
282 39 7562 7563 7564 7573
283 40 7570 7559 7566 7577
284 41 7559 7560 7564 7573
285 42 7564 7560 7561 7571
286 43 7566 7559 7558 7568
287 44 7563 7562 7561 7571
288 45 7566 7559 7558 7569
289 2 7578 7579 7580 7581
290 3 7579 7580 7581 7582
291 4 7580 7581 7582 7583
292 5 7580 7579 7578 7587
293 6 7582 7583 7585 7594
294 7 7578 7579 7586 7597
295 8 7585 7583 7582 7592
296 9 7582 7581 7580 7584
297 10 7584 7580 7579 7590
298 11 7579 7580 7581 7591
299 12 7580 7584 7583 7582
300 13 7584 7583 7585 7594
301 14 7591 7581 7582 7592
302 15 7580 7579 7578 7588
303 16 7581 7580 7584 7583
304 17 7582 7583 7585 7596
305 18 7579 7580 7584 7583
306 19 7584 7583 7585 7596
307 20 7582 7583 7585 7595
308 21 7578 7579 7580 7584
309 22 7581 7580 7584 7593
310 23 7589 7578 7579 7590
311 24 7580 7579 7578 7589
312 25 7584 7580 7579 7586
313 26 7580 7579 7586 7597
314 27 7581 7582 7583 7585
315 28 7581 7580 7579 7586
316 29 7584 7583 7585 7595
317 30 7584 7583 7582 7592
318 31 7581 7580 7579 7590
319 32 7580 7584 7583 7585
320 33 7580 7581 7582 7592
321 34 7588 7578 7579 7590
322 35 7585 7583 7584 7593
323 36 7581 7582 7583 7584
324 37 7586 7579 7578 7587
325 38 7587 7578 7579 7590
326 39 7582 7583 7584 7593
327 40 7590 7579 7586 7597
328 41 7579 7580 7584 7593
329 42 7584 7580 7581 7591
330 43 7586 7579 7578 7588
331 44 7583 7582 7581 7591
332 45 7586 7579 7578 7589
333 2 7598 7599 7600 7601
334 3 7599 7600 7601 7602
335 4 7600 7601 7602 7603
336 5 7600 7599 7598 7607
337 6 7602 7603 7605 7614
338 7 7598 7599 7606 7617
339 8 7605 7603 7602 7612
340 9 7602 7601 7600 7604
341 10 7604 7600 7599 7610
342 11 7599 7600 7601 7611
343 12 7600 7604 7603 7602
344 13 7604 7603 7605 7614
345 14 7611 7601 7602 7612
346 15 7600 7599 7598 7608
347 16 7601 7600 7604 7603
348 17 7602 7603 7605 7616
349 18 7599 7600 7604 7603
350 19 7604 7603 7605 7616
351 20 7602 7603 7605 7615
352 21 7598 7599 7600 7604
353 22 7601 7600 7604 7613
354 23 7609 7598 7599 7610
355 24 7600 7599 7598 7609
356 25 7604 7600 7599 7606
357 26 7600 7599 7606 7617
358 27 7601 7602 7603 7605
359 28 7601 7600 7599 7606
360 29 7604 7603 7605 7615
361 30 7604 7603 7602 7612
362 31 7601 7600 7599 7610
363 32 7600 7604 7603 7605
364 33 7600 7601 7602 7612
365 34 7608 7598 7599 7610
366 35 7605 7603 7604 7613
367 36 7601 7602 7603 7604
368 37 7606 7599 7598 7607
369 38 7607 7598 7599 7610
370 39 7602 7603 7604 7613
371 40 7610 7599 7606 7617
372 41 7599 7600 7604 7613
373 42 7604 7600 7601 7611
374 43 7606 7599 7598 7608
375 44 7603 7602 7601 7611
376 45 7606 7599 7598 7609

Impropers

1 1 7520 7519 7521 7524
2 2 7523 7522 7524 7525
3 3 7519 7520 7526 7518
4 4 7518 7519 7528 7527
5 5 7518 7519 7529 7527
6 6 7519 7518 7520 7530
7 7 7521 7520 7522 7531
8 8 7522 7521 7523 7532
9 9 7524 7520 7523 7533
10 10 7525 7534 7535 7523
11 11 7525 7534 7536 7523
12 1 7540 7539 7541 7544
13 2 7543 7542 7544 7545
14 3 7539 7540 7546 7538
15 4 7538 7539 7548 7547
16 5 7538 7539 7549 7547
17 6 7539 7538 7540 7550
18 7 7541 7540 7542 7551
19 8 7542 7541 7543 7552
20 9 7544 7540 7543 7553
21 10 7545 7554 7555 7543
22 11 7545 7554 7556 7543
23 1 7560 7559 7561 7564
24 2 7563 7562 7564 7565
25 3 7559 7560 7566 7558
26 4 7558 7559 7568 7567
27 5 7558 7559 7569 7567
28 6 7559 7558 7560 7570
29 7 7561 7560 7562 7571
30 8 7562 7561 7563 7572
31 9 7564 7560 7563 7573
32 10 7565 7574 7575 7563
33 11 7565 7574 7576 7563
34 1 7580 7579 7581 7584
35 2 7583 7582 7584 7585
36 3 7579 7580 7586 7578
37 4 7578 7579 7588 7587
38 5 7578 7579 7589 7587
39 6 7579 7578 7580 7590
40 7 7581 7580 7582 7591
41 8 7582 7581 7583 7592
42 9 7584 7580 7583 7593
43 10 7585 7594 7595 7583
44 11 7585 7594 7596 7583
45 1 7600 7599 7601 7604
46 2 7603 7602 7604 7605
47 3 7599 7600 7606 7598
48 4 7598 7599 7608 7607
49 5 7598 7599 7609 7607
50 6 7599 7598 7600 7610
51 7 7601 7600 7602 7611
52 8 7602 7601 7603 7612
53 9 7604 7600 7603 7613
54 10 7605 7614 7615 7603
55 11 7605 7614 7616 7603

