LAMMPS Description

8008  atoms
5265  bonds
3517  angles
1607  dihedrals
383  impropers

51  atom types
46  bond types
79  angle types
103  dihedral types
25  improper types

0.0 23.7750 xlo xhi
0.0 100 ylo yhi
0.0 35.6625 zlo zhi

Masses

1 15.999400  # O
2 1.007970  # H
3 16.043030  # CT
4 40.08  # Ca
5 35.453  # Cl
6 12.011  # type1
7 12.011  # type2
8 15.999  # type3
9 15.999  # type4
10 1.008  # type5
11 1.008  # type6
12 1.008  # type7
13 1.008  # type8
14 1.008  # type9
15 1.008  # type10
16 12.011  # type1
17 12.011  # type2
18 14.007  # type3
19 12.011  # type4
20 12.011  # type5
21 14.007  # type6
22 12.011  # type7
23 12.011  # type8
24 1.008  # type9
25 1.008  # type10
26 1.008  # type11
27 1.008  # type12
28 1.008  # type13
29 1.008  # type14
30 1.008  # type15
31 1.008  # type16
32 1.008  # type17
33 1.008  # type18
34 1.008  # type19
35 12.011  # type1
36 12.011  # type2
37 12.011  # type3
38 14.007  # type4
39 12.011  # type5
40 12.011  # type6
41 15.999  # type7
42 15.999  # type8
43 1.008  # type9
44 1.008  # type10
45 1.008  # type11
46 1.008  # type12
47 1.008  # type13
48 1.008  # type14
49 1.008  # type15
50 1.008  # type16
51 1.008  # type17

Atoms

1 1 1 -1.1794 0.000000 5.943750 2.971875
2 1 2 0.5897 0.009656 6.746382 2.401692
3 1 2 0.5897 0.819206 6.078805 3.500477
4 1 1 -1.1794 0.000000 5.943750 8.915625
5 1 2 0.5897 0.281067 6.808436 9.277971
6 1 2 0.5897 0.723234 5.812773 8.254920
7 1 1 -1.1794 2.971875 0.000000 5.943750
8 1 2 0.5897 2.409366 0.112795 6.741859
9 1 2 0.5897 3.506404 0.826096 5.955505
10 1 1 -1.1794 8.915625 0.000000 5.943750
11 1 2 0.5897 8.353117 0.798110 6.056546
12 1 2 0.5897 9.450153 0.011753 6.769848
13 1 1 -1.1794 5.943750 2.971875 0.000000
14 1 2 0.5897 6.224823 3.334227 0.864683
15 1 2 0.5897 6.666985 2.311172 -0.130979
16 1 1 -1.1794 5.943750 8.915625 0.000000
17 1 2 0.5897 5.953409 8.345441 0.802632
18 1 2 0.5897 6.762955 9.444227 0.135054
19 1 1 -1.1794 2.195740 2.195740 2.195740
20 1 2 0.5897 1.930743 1.402781 2.721735
21 1 2 0.5897 2.708046 2.708072 2.862811
22 1 1 -1.1794 9.691760 9.691760 2.195740
23 1 2 0.5897 9.978388 10.516781 2.648501
24 1 2 0.5897 9.116718 10.043814 1.480933
25 1 1 -1.1794 9.691760 2.195740 9.691760
26 1 2 0.5897 9.154281 2.782308 9.104938
27 1 2 0.5897 10.452871 2.782332 9.905926
28 1 1 -1.1794 2.195740 9.691760 9.691760
29 1 2 0.5897 1.433515 9.188865 10.050449
30 1 2 0.5897 2.654073 9.949780 10.533970
31 1 1 -1.1794 8.139490 8.139490 3.748010
32 1 2 0.5897 8.055452 8.606915 4.601005
33 1 2 0.5897 8.845452 8.644310 3.294149
34 1 1 -1.1794 3.748010 3.748010 3.748010
35 1 2 0.5897 4.002365 3.184788 4.519697
36 1 2 0.5897 4.639981 3.970836 3.410372
37 1 1 -1.1794 8.139490 3.748010 8.139490
38 1 2 0.5897 7.353136 4.110945 8.609681
39 1 2 0.5897 8.567214 4.572992 7.810198
40 1 1 -1.1794 3.748010 8.139490 8.139490
41 1 2 0.5897 3.235613 8.731546 8.742287
42 1 2 0.5897 4.491456 7.869471 8.725499
43 1 1 -1.1794 9.691760 9.691760 9.691760
44 1 2 0.5897 9.946137 10.463442 9.128541
45 1 2 0.5897 10.583721 9.354096 9.914592
46 1 1 -1.1794 2.195740 2.195740 9.691760
47 1 2 0.5897 1.409385 2.665929 10.054694
48 1 2 0.5897 2.623464 1.866447 10.516742
49 1 1 -1.1794 2.195740 9.691760 2.195740
50 1 2 0.5897 2.111703 10.544755 2.663166
51 1 2 0.5897 2.901702 9.237898 2.700560
52 1 1 -1.1794 9.691760 2.195740 2.195740
53 1 2 0.5897 9.179361 2.798535 2.787796
54 1 2 0.5897 10.435205 2.781750 1.925722
55 1 1 -1.1794 3.748010 3.748010 8.139490
56 1 2 0.5897 3.210531 3.161188 8.726058
57 1 2 0.5897 4.509120 3.962177 8.726082
58 1 1 -1.1794 8.139490 8.139490 8.139490
59 1 2 0.5897 7.874494 8.665484 7.346530
60 1 2 0.5897 8.651795 8.806563 8.651821
61 1 1 -1.1794 3.748010 8.139490 3.748010
62 1 2 0.5897 4.034637 8.592251 4.573031
63 1 2 0.5897 3.172969 7.424681 4.100063
64 1 1 -1.1794 8.139490 3.748010 3.748010
65 1 2 0.5897 7.377269 4.106705 3.245111
66 1 2 0.5897 8.597826 4.590218 4.006031
67 1 1 -1.1794 0.000000 3.679775 1.385607
68 1 2 0.5897 0.035498 4.459067 1.989457
69 1 2 0.5897 0.798485 3.179090 1.671756
70 1 1 -1.1794 0.000000 8.207725 1.385607
71 1 2 0.5897 -0.758631 8.731842 1.737352
72 1 2 0.5897 0.759372 8.779826 1.670376
73 1 1 -1.1794 0.000000 3.679775 10.501893
74 1 2 0.5897 -0.044368 3.851890 11.469464
75 1 2 0.5897 -0.018559 4.578141 10.109946
76 1 1 -1.1794 0.000000 8.207725 10.501893
77 1 2 0.5897 0.205529 8.274438 11.469986
78 1 2 0.5897 -0.779451 7.629397 10.587942
79 1 1 -1.1794 1.385607 0.000000 3.679775
80 1 2 0.5897 0.417726 -0.094659 3.821134
81 1 2 0.5897 1.754570 -0.099428 4.581968
82 1 1 -1.1794 1.385607 0.000000 8.207725
83 1 2 0.5897 1.716836 0.746754 8.758036
84 1 2 0.5897 1.714706 -0.771043 8.726950
85 1 1 -1.1794 10.501893 0.000000 3.679775
86 1 2 0.5897 9.916808 0.006667 4.472479
87 1 2 0.5897 10.184338 0.799264 3.201735
88 1 1 -1.1794 10.501893 0.000000 8.207725
89 1 2 0.5897 10.305638 0.798873 8.749125
90 1 2 0.5897 11.480928 0.066494 8.116678
91 1 1 -1.1794 3.679775 1.385607 0.000000
92 1 2 0.5897 3.181486 1.660080 0.803227
93 1 2 0.5897 4.465410 1.972311 0.037997
94 1 1 -1.1794 8.207725 1.385607 0.000000
95 1 2 0.5897 8.780854 1.614855 0.769515
96 1 2 0.5897 8.792041 1.653488 -0.747865
97 1 1 -1.1794 3.679775 10.501893 0.000000
98 1 2 0.5897 3.869586 11.452377 0.104347
99 1 2 0.5897 4.546334 10.068458 0.112136
100 1 1 -1.1794 8.207725 10.501893 0.000000
101 1 2 0.5897 8.122284 11.478258 -0.083426
102 1 2 0.5897 8.687717 10.276857 -0.827363
103 1 1 -1.1794 9.623525 5.943750 4.558143
104 1 2 0.5897 9.813335 6.048098 5.508627
105 1 2 0.5897 10.490084 6.055885 4.124708
106 1 1 -1.1794 2.263975 5.943750 4.558143
107 1 2 0.5897 2.178531 5.860324 5.534508
108 1 2 0.5897 2.743967 5.116387 4.333108
109 1 1 -1.1794 9.623525 5.943750 7.329357
110 1 2 0.5897 9.125238 6.746978 7.603833
111 1 2 0.5897 10.409160 5.981743 7.916061
112 1 1 -1.1794 2.263975 5.943750 7.329357
113 1 2 0.5897 2.837102 6.713267 7.558605
114 1 2 0.5897 2.848293 5.195886 7.597239
115 1 1 -1.1794 5.943750 7.329357 2.263975
116 1 2 0.5897 5.185122 7.681106 2.788093
117 1 2 0.5897 6.703124 7.614122 2.836075
118 1 1 -1.1794 5.943750 7.329357 9.623525
119 1 2 0.5897 5.979250 7.933206 10.402818
120 1 2 0.5897 6.742237 7.615502 9.122842
121 1 1 -1.1794 5.943750 4.558143 2.263975
122 1 2 0.5897 6.149264 5.526242 2.330661
123 1 2 0.5897 5.164278 4.644161 1.685681
124 1 1 -1.1794 5.943750 4.558143 9.623525
125 1 2 0.5897 5.899383 5.525713 9.795644
126 1 2 0.5897 5.925192 4.166192 10.521889
127 1 1 -1.1794 7.329357 9.623525 5.943750
128 1 2 0.5897 6.361476 9.764884 5.849090
129 1 2 0.5897 7.698320 10.525718 5.844322
130 1 1 -1.1794 7.329357 2.263975 5.943750
131 1 2 0.5897 7.660588 2.814285 6.690503
132 1 2 0.5897 7.658458 2.783199 5.172706
133 1 1 -1.1794 4.558143 9.623525 5.943750
134 1 2 0.5897 3.973056 10.416229 5.950416
135 1 2 0.5897 4.240588 9.145485 6.743014
136 1 1 -1.1794 4.558143 2.263975 5.943750
137 1 2 0.5897 4.361890 2.805372 6.742625
138 1 2 0.5897 5.537178 2.172928 6.010242
139 1 3 0.0 0.000000 0.000000 0.000000
140 1 3 0.0 5.943750 5.943750 5.943750
141 1 3 0.0 0.000000 2.971875 5.943750
142 1 3 0.0 0.000000 8.915625 5.943750
143 1 3 0.0 5.943750 0.000000 2.971875
144 1 3 0.0 5.943750 0.000000 8.915625
145 1 3 0.0 2.971875 5.943750 0.000000
146 1 3 0.0 8.915625 5.943750 0.000000
147 2 1 -1.1794 0.000000 5.943750 14.859375
148 2 2 0.5897 0.009656 6.746382 14.289192
149 2 2 0.5897 0.819206 6.078805 15.387977
150 2 1 -1.1794 0.000000 5.943750 20.803125
151 2 2 0.5897 0.281067 6.808436 21.165471
152 2 2 0.5897 0.723234 5.812773 20.142420
153 2 1 -1.1794 2.971875 0.000000 17.831250
154 2 2 0.5897 2.409366 0.112795 18.629359
155 2 2 0.5897 3.506404 0.826096 17.843005
156 2 1 -1.1794 8.915625 0.000000 17.831250
157 2 2 0.5897 8.353117 0.798110 17.944046
158 2 2 0.5897 9.450153 0.011753 18.657348
159 2 1 -1.1794 5.943750 2.971875 11.887500
160 2 2 0.5897 6.224823 3.334227 12.752183
161 2 2 0.5897 6.666985 2.311172 11.756521
162 2 1 -1.1794 5.943750 8.915625 11.887500
163 2 2 0.5897 5.953409 8.345441 12.690132
164 2 2 0.5897 6.762955 9.444227 12.022554
165 2 1 -1.1794 2.195740 2.195740 14.083240
166 2 2 0.5897 1.930743 1.402781 14.609235
167 2 2 0.5897 2.708046 2.708072 14.750311
168 2 1 -1.1794 9.691760 9.691760 14.083240
169 2 2 0.5897 9.978388 10.516781 14.536001
170 2 2 0.5897 9.116718 10.043814 13.368433
171 2 1 -1.1794 9.691760 2.195740 21.579260
172 2 2 0.5897 9.154281 2.782308 20.992438
173 2 2 0.5897 10.452871 2.782332 21.793426
174 2 1 -1.1794 2.195740 9.691760 21.579260
175 2 2 0.5897 1.433515 9.188865 21.937949
176 2 2 0.5897 2.654073 9.949780 22.421470
177 2 1 -1.1794 8.139490 8.139490 15.635510
178 2 2 0.5897 8.055452 8.606915 16.488505
179 2 2 0.5897 8.845452 8.644310 15.181649
180 2 1 -1.1794 3.748010 3.748010 15.635510
181 2 2 0.5897 4.002365 3.184788 16.407197
182 2 2 0.5897 4.639981 3.970836 15.297872
183 2 1 -1.1794 8.139490 3.748010 20.026990
184 2 2 0.5897 7.353136 4.110945 20.497181
185 2 2 0.5897 8.567214 4.572992 19.697698
186 2 1 -1.1794 3.748010 8.139490 20.026990
187 2 2 0.5897 3.235613 8.731546 20.629787
188 2 2 0.5897 4.491456 7.869471 20.612999
189 2 1 -1.1794 9.691760 9.691760 21.579260
190 2 2 0.5897 9.946137 10.463442 21.016041
191 2 2 0.5897 10.583721 9.354096 21.802092
192 2 1 -1.1794 2.195740 2.195740 21.579260
193 2 2 0.5897 1.409385 2.665929 21.942194
194 2 2 0.5897 2.623464 1.866447 22.404242
195 2 1 -1.1794 2.195740 9.691760 14.083240
196 2 2 0.5897 2.111703 10.544755 14.550666
197 2 2 0.5897 2.901702 9.237898 14.588060
198 2 1 -1.1794 9.691760 2.195740 14.083240
199 2 2 0.5897 9.179361 2.798535 14.675296
200 2 2 0.5897 10.435205 2.781750 13.813222
201 2 1 -1.1794 3.748010 3.748010 20.026990
202 2 2 0.5897 3.210531 3.161188 20.613558
203 2 2 0.5897 4.509120 3.962177 20.613582
204 2 1 -1.1794 8.139490 8.139490 20.026990
205 2 2 0.5897 7.874494 8.665484 19.234030
206 2 2 0.5897 8.651795 8.806563 20.539321
207 2 1 -1.1794 3.748010 8.139490 15.635510
208 2 2 0.5897 4.034637 8.592251 16.460531
209 2 2 0.5897 3.172969 7.424681 15.987563
210 2 1 -1.1794 8.139490 3.748010 15.635510
211 2 2 0.5897 7.377269 4.106705 15.132611
212 2 2 0.5897 8.597826 4.590218 15.893531
213 2 1 -1.1794 0.000000 3.679775 13.273107
214 2 2 0.5897 0.035498 4.459067 13.876957
215 2 2 0.5897 0.798485 3.179090 13.559256
216 2 1 -1.1794 0.000000 8.207725 13.273107
217 2 2 0.5897 -0.758631 8.731842 13.624852
218 2 2 0.5897 0.759372 8.779826 13.557876
219 2 1 -1.1794 0.000000 3.679775 22.389393
220 2 2 0.5897 -0.044368 3.851890 23.356964
221 2 2 0.5897 -0.018559 4.578141 21.997446
222 2 1 -1.1794 0.000000 8.207725 22.389393
223 2 2 0.5897 0.205529 8.274438 23.357486
224 2 2 0.5897 -0.779451 7.629397 22.475442
225 2 1 -1.1794 1.385607 0.000000 15.567275
226 2 2 0.5897 0.417726 -0.094659 15.708634
227 2 2 0.5897 1.754570 -0.099428 16.469468
228 2 1 -1.1794 1.385607 0.000000 20.095225
229 2 2 0.5897 1.716836 0.746754 20.645536
230 2 2 0.5897 1.714706 -0.771043 20.614450
231 2 1 -1.1794 10.501893 0.000000 15.567275
232 2 2 0.5897 9.916808 0.006667 16.359979
233 2 2 0.5897 10.184338 0.799264 15.089235
234 2 1 -1.1794 10.501893 0.000000 20.095225
235 2 2 0.5897 10.305638 0.798873 20.636625
236 2 2 0.5897 11.480928 0.066494 20.004178
237 2 1 -1.1794 3.679775 1.385607 11.887500
238 2 2 0.5897 3.181486 1.660080 12.690727
239 2 2 0.5897 4.465410 1.972311 11.925497
240 2 1 -1.1794 8.207725 1.385607 11.887500
241 2 2 0.5897 8.780854 1.614855 12.657015
242 2 2 0.5897 8.792041 1.653488 11.139635
243 2 1 -1.1794 3.679775 10.501893 11.887500
244 2 2 0.5897 3.869586 11.452377 11.991847
245 2 2 0.5897 4.546334 10.068458 11.999636
246 2 1 -1.1794 8.207725 10.501893 11.887500
247 2 2 0.5897 8.122284 11.478258 11.804074
248 2 2 0.5897 8.687717 10.276857 11.060137
249 2 1 -1.1794 9.623525 5.943750 16.445643
250 2 2 0.5897 9.813335 6.048098 17.396127
251 2 2 0.5897 10.490084 6.055885 16.012208
252 2 1 -1.1794 2.263975 5.943750 16.445643
253 2 2 0.5897 2.178531 5.860324 17.422008
254 2 2 0.5897 2.743967 5.116387 16.220608
255 2 1 -1.1794 9.623525 5.943750 19.216857
256 2 2 0.5897 9.125238 6.746978 19.491333
257 2 2 0.5897 10.409160 5.981743 19.803561
258 2 1 -1.1794 2.263975 5.943750 19.216857
259 2 2 0.5897 2.837102 6.713267 19.446105
260 2 2 0.5897 2.848293 5.195886 19.484739
261 2 1 -1.1794 5.943750 7.329357 14.151475
262 2 2 0.5897 5.185122 7.681106 14.675593
263 2 2 0.5897 6.703124 7.614122 14.723575
264 2 1 -1.1794 5.943750 7.329357 21.511025
265 2 2 0.5897 5.979250 7.933206 22.290318
266 2 2 0.5897 6.742237 7.615502 21.010342
267 2 1 -1.1794 5.943750 4.558143 14.151475
268 2 2 0.5897 6.149264 5.526242 14.218161
269 2 2 0.5897 5.164278 4.644161 13.573181
270 2 1 -1.1794 5.943750 4.558143 21.511025
271 2 2 0.5897 5.899383 5.525713 21.683144
272 2 2 0.5897 5.925192 4.166192 22.409389
273 2 1 -1.1794 7.329357 9.623525 17.831250
274 2 2 0.5897 6.361476 9.764884 17.736590
275 2 2 0.5897 7.698320 10.525718 17.731822
276 2 1 -1.1794 7.329357 2.263975 17.831250
277 2 2 0.5897 7.660588 2.814285 18.578003
278 2 2 0.5897 7.658458 2.783199 17.060206
279 2 1 -1.1794 4.558143 9.623525 17.831250
280 2 2 0.5897 3.973056 10.416229 17.837916
281 2 2 0.5897 4.240588 9.145485 18.630514
282 2 1 -1.1794 4.558143 2.263975 17.831250
283 2 2 0.5897 4.361890 2.805372 18.630125
284 2 2 0.5897 5.537178 2.172928 17.897742
285 2 3 0.0 0.000000 0.000000 11.887500
286 2 3 0.0 5.943750 5.943750 17.831250
287 2 3 0.0 0.000000 2.971875 17.831250
288 2 3 0.0 0.000000 8.915625 17.831250
289 2 3 0.0 5.943750 0.000000 14.859375
290 2 3 0.0 5.943750 0.000000 20.803125
291 2 3 0.0 2.971875 5.943750 11.887500
292 2 3 0.0 8.915625 5.943750 11.887500
293 3 1 -1.1794 0.000000 5.943750 26.746875
294 3 2 0.5897 0.009656 6.746382 26.176692
295 3 2 0.5897 0.819206 6.078805 27.275477
296 3 1 -1.1794 0.000000 5.943750 32.690625
297 3 2 0.5897 0.281067 6.808436 33.052971
298 3 2 0.5897 0.723234 5.812773 32.029920
299 3 1 -1.1794 2.971875 0.000000 29.718750
300 3 2 0.5897 2.409366 0.112795 30.516859
301 3 2 0.5897 3.506404 0.826096 29.730505
302 3 1 -1.1794 8.915625 0.000000 29.718750
303 3 2 0.5897 8.353117 0.798110 29.831546
304 3 2 0.5897 9.450153 0.011753 30.544848
305 3 1 -1.1794 5.943750 2.971875 23.775000
306 3 2 0.5897 6.224823 3.334227 24.639683
307 3 2 0.5897 6.666985 2.311172 23.644021
308 3 1 -1.1794 5.943750 8.915625 23.775000
309 3 2 0.5897 5.953409 8.345441 24.577632
310 3 2 0.5897 6.762955 9.444227 23.910054
311 3 1 -1.1794 2.195740 2.195740 25.970740
312 3 2 0.5897 1.930743 1.402781 26.496735
313 3 2 0.5897 2.708046 2.708072 26.637811
314 3 1 -1.1794 9.691760 9.691760 25.970740
315 3 2 0.5897 9.978388 10.516781 26.423501
316 3 2 0.5897 9.116718 10.043814 25.255933
317 3 1 -1.1794 9.691760 2.195740 33.466760
318 3 2 0.5897 9.154281 2.782308 32.879938
319 3 2 0.5897 10.452871 2.782332 33.680926
320 3 1 -1.1794 2.195740 9.691760 33.466760
321 3 2 0.5897 1.433515 9.188865 33.825449
322 3 2 0.5897 2.654073 9.949780 34.308970
323 3 1 -1.1794 8.139490 8.139490 27.523010
324 3 2 0.5897 8.055452 8.606915 28.376005
325 3 2 0.5897 8.845452 8.644310 27.069149
326 3 1 -1.1794 3.748010 3.748010 27.523010
327 3 2 0.5897 4.002365 3.184788 28.294697
328 3 2 0.5897 4.639981 3.970836 27.185372
329 3 1 -1.1794 8.139490 3.748010 31.914490
330 3 2 0.5897 7.353136 4.110945 32.384681
331 3 2 0.5897 8.567214 4.572992 31.585198
332 3 1 -1.1794 3.748010 8.139490 31.914490
333 3 2 0.5897 3.235613 8.731546 32.517287
334 3 2 0.5897 4.491456 7.869471 32.500499
335 3 1 -1.1794 9.691760 9.691760 33.466760
336 3 2 0.5897 9.946137 10.463442 32.903541
337 3 2 0.5897 10.583721 9.354096 33.689592
338 3 1 -1.1794 2.195740 2.195740 33.466760
339 3 2 0.5897 1.409385 2.665929 33.829694
340 3 2 0.5897 2.623464 1.866447 34.291742
341 3 1 -1.1794 2.195740 9.691760 25.970740
342 3 2 0.5897 2.111703 10.544755 26.438166
343 3 2 0.5897 2.901702 9.237898 26.475560
344 3 1 -1.1794 9.691760 2.195740 25.970740
345 3 2 0.5897 9.179361 2.798535 26.562796
346 3 2 0.5897 10.435205 2.781750 25.700722
347 3 1 -1.1794 3.748010 3.748010 31.914490
348 3 2 0.5897 3.210531 3.161188 32.501058
349 3 2 0.5897 4.509120 3.962177 32.501082
350 3 1 -1.1794 8.139490 8.139490 31.914490
351 3 2 0.5897 7.874494 8.665484 31.121530
352 3 2 0.5897 8.651795 8.806563 32.426821
353 3 1 -1.1794 3.748010 8.139490 27.523010
354 3 2 0.5897 4.034637 8.592251 28.348031
355 3 2 0.5897 3.172969 7.424681 27.875063
356 3 1 -1.1794 8.139490 3.748010 27.523010
357 3 2 0.5897 7.377269 4.106705 27.020111
358 3 2 0.5897 8.597826 4.590218 27.781031
359 3 1 -1.1794 0.000000 3.679775 25.160607
360 3 2 0.5897 0.035498 4.459067 25.764457
361 3 2 0.5897 0.798485 3.179090 25.446756
362 3 1 -1.1794 0.000000 8.207725 25.160607
363 3 2 0.5897 -0.758631 8.731842 25.512352
364 3 2 0.5897 0.759372 8.779826 25.445376
365 3 1 -1.1794 0.000000 3.679775 34.276893
366 3 2 0.5897 -0.044368 3.851890 35.244464
367 3 2 0.5897 -0.018559 4.578141 33.884946
368 3 1 -1.1794 0.000000 8.207725 34.276893
369 3 2 0.5897 0.205529 8.274438 35.244986
370 3 2 0.5897 -0.779451 7.629397 34.362942
371 3 1 -1.1794 1.385607 0.000000 27.454775
372 3 2 0.5897 0.417726 -0.094659 27.596134
373 3 2 0.5897 1.754570 -0.099428 28.356968
374 3 1 -1.1794 1.385607 0.000000 31.982725
375 3 2 0.5897 1.716836 0.746754 32.533036
376 3 2 0.5897 1.714706 -0.771043 32.501950
377 3 1 -1.1794 10.501893 0.000000 27.454775
378 3 2 0.5897 9.916808 0.006667 28.247479
379 3 2 0.5897 10.184338 0.799264 26.976735
380 3 1 -1.1794 10.501893 0.000000 31.982725
381 3 2 0.5897 10.305638 0.798873 32.524125
382 3 2 0.5897 11.480928 0.066494 31.891678
383 3 1 -1.1794 3.679775 1.385607 23.775000
384 3 2 0.5897 3.181486 1.660080 24.578227
385 3 2 0.5897 4.465410 1.972311 23.812997
386 3 1 -1.1794 8.207725 1.385607 23.775000
387 3 2 0.5897 8.780854 1.614855 24.544515
388 3 2 0.5897 8.792041 1.653488 23.027135
389 3 1 -1.1794 3.679775 10.501893 23.775000
390 3 2 0.5897 3.869586 11.452377 23.879347
391 3 2 0.5897 4.546334 10.068458 23.887136
392 3 1 -1.1794 8.207725 10.501893 23.775000
393 3 2 0.5897 8.122284 11.478258 23.691574
394 3 2 0.5897 8.687717 10.276857 22.947637
395 3 1 -1.1794 9.623525 5.943750 28.333143
396 3 2 0.5897 9.813335 6.048098 29.283627
397 3 2 0.5897 10.490084 6.055885 27.899708
398 3 1 -1.1794 2.263975 5.943750 28.333143
399 3 2 0.5897 2.178531 5.860324 29.309508
400 3 2 0.5897 2.743967 5.116387 28.108108
401 3 1 -1.1794 9.623525 5.943750 31.104357
402 3 2 0.5897 9.125238 6.746978 31.378833
403 3 2 0.5897 10.409160 5.981743 31.691061
404 3 1 -1.1794 2.263975 5.943750 31.104357
405 3 2 0.5897 2.837102 6.713267 31.333605
406 3 2 0.5897 2.848293 5.195886 31.372239
407 3 1 -1.1794 5.943750 7.329357 26.038975
408 3 2 0.5897 5.185122 7.681106 26.563093
409 3 2 0.5897 6.703124 7.614122 26.611075
410 3 1 -1.1794 5.943750 7.329357 33.398525
411 3 2 0.5897 5.979250 7.933206 34.177818
412 3 2 0.5897 6.742237 7.615502 32.897842
413 3 1 -1.1794 5.943750 4.558143 26.038975
414 3 2 0.5897 6.149264 5.526242 26.105661
415 3 2 0.5897 5.164278 4.644161 25.460681
416 3 1 -1.1794 5.943750 4.558143 33.398525
417 3 2 0.5897 5.899383 5.525713 33.570644
418 3 2 0.5897 5.925192 4.166192 34.296889
419 3 1 -1.1794 7.329357 9.623525 29.718750
420 3 2 0.5897 6.361476 9.764884 29.624090
421 3 2 0.5897 7.698320 10.525718 29.619322
422 3 1 -1.1794 7.329357 2.263975 29.718750
423 3 2 0.5897 7.660588 2.814285 30.465503
424 3 2 0.5897 7.658458 2.783199 28.947706
425 3 1 -1.1794 4.558143 9.623525 29.718750
426 3 2 0.5897 3.973056 10.416229 29.725416
427 3 2 0.5897 4.240588 9.145485 30.518014
428 3 1 -1.1794 4.558143 2.263975 29.718750
429 3 2 0.5897 4.361890 2.805372 30.517625
430 3 2 0.5897 5.537178 2.172928 29.785242
431 3 3 0.0 0.000000 0.000000 23.775000
432 3 3 0.0 5.943750 5.943750 29.718750
433 3 3 0.0 0.000000 2.971875 29.718750
434 3 3 0.0 0.000000 8.915625 29.718750
435 3 3 0.0 5.943750 0.000000 26.746875
436 3 3 0.0 5.943750 0.000000 32.690625
437 3 3 0.0 2.971875 5.943750 23.775000
438 3 3 0.0 8.915625 5.943750 23.775000
439 4 1 -1.1794 0.000000 17.831250 2.971875
440 4 2 0.5897 0.009656 18.633882 2.401692
441 4 2 0.5897 0.819206 17.966305 3.500477
442 4 1 -1.1794 0.000000 17.831250 8.915625
443 4 2 0.5897 0.281067 18.695936 9.277971
444 4 2 0.5897 0.723234 17.700273 8.254920
445 4 1 -1.1794 2.971875 11.887500 5.943750
446 4 2 0.5897 2.409366 12.000295 6.741859
447 4 2 0.5897 3.506404 12.713596 5.955505
448 4 1 -1.1794 8.915625 11.887500 5.943750
449 4 2 0.5897 8.353117 12.685610 6.056546
450 4 2 0.5897 9.450153 11.899253 6.769848
451 4 1 -1.1794 5.943750 14.859375 0.000000
452 4 2 0.5897 6.224823 15.221727 0.864683
453 4 2 0.5897 6.666985 14.198672 -0.130979
454 4 1 -1.1794 5.943750 20.803125 0.000000
455 4 2 0.5897 5.953409 20.232941 0.802632
456 4 2 0.5897 6.762955 21.331727 0.135054
457 4 1 -1.1794 2.195740 14.083240 2.195740
458 4 2 0.5897 1.930743 13.290281 2.721735
459 4 2 0.5897 2.708046 14.595572 2.862811
460 4 1 -1.1794 9.691760 21.579260 2.195740
461 4 2 0.5897 9.978388 22.404281 2.648501
462 4 2 0.5897 9.116718 21.931314 1.480933
463 4 1 -1.1794 9.691760 14.083240 9.691760
464 4 2 0.5897 9.154281 14.669808 9.104938
465 4 2 0.5897 10.452871 14.669832 9.905926
466 4 1 -1.1794 2.195740 21.579260 9.691760
467 4 2 0.5897 1.433515 21.076365 10.050449
468 4 2 0.5897 2.654073 21.837280 10.533970
469 4 1 -1.1794 8.139490 20.026990 3.748010
470 4 2 0.5897 8.055452 20.494415 4.601005
471 4 2 0.5897 8.845452 20.531810 3.294149
472 4 1 -1.1794 3.748010 15.635510 3.748010
473 4 2 0.5897 4.002365 15.072288 4.519697
474 4 2 0.5897 4.639981 15.858336 3.410372
475 4 1 -1.1794 8.139490 15.635510 8.139490
476 4 2 0.5897 7.353136 15.998445 8.609681
477 4 2 0.5897 8.567214 16.460492 7.810198
478 4 1 -1.1794 3.748010 20.026990 8.139490
479 4 2 0.5897 3.235613 20.619046 8.742287
480 4 2 0.5897 4.491456 19.756971 8.725499
481 4 1 -1.1794 9.691760 21.579260 9.691760
482 4 2 0.5897 9.946137 22.350942 9.128541
483 4 2 0.5897 10.583721 21.241596 9.914592
484 4 1 -1.1794 2.195740 14.083240 9.691760
485 4 2 0.5897 1.409385 14.553429 10.054694
486 4 2 0.5897 2.623464 13.753947 10.516742
487 4 1 -1.1794 2.195740 21.579260 2.195740
488 4 2 0.5897 2.111703 22.432255 2.663166
489 4 2 0.5897 2.901702 21.125398 2.700560
490 4 1 -1.1794 9.691760 14.083240 2.195740
491 4 2 0.5897 9.179361 14.686035 2.787796
492 4 2 0.5897 10.435205 14.669250 1.925722
493 4 1 -1.1794 3.748010 15.635510 8.139490
494 4 2 0.5897 3.210531 15.048688 8.726058
495 4 2 0.5897 4.509120 15.849677 8.726082
496 4 1 -1.1794 8.139490 20.026990 8.139490
497 4 2 0.5897 7.874494 20.552984 7.346530
498 4 2 0.5897 8.651795 20.694063 8.651821
499 4 1 -1.1794 3.748010 20.026990 3.748010
500 4 2 0.5897 4.034637 20.479751 4.573031
501 4 2 0.5897 3.172969 19.312181 4.100063
502 4 1 -1.1794 8.139490 15.635510 3.748010
503 4 2 0.5897 7.377269 15.994205 3.245111
504 4 2 0.5897 8.597826 16.477718 4.006031
505 4 1 -1.1794 0.000000 15.567275 1.385607
506 4 2 0.5897 0.035498 16.346567 1.989457
507 4 2 0.5897 0.798485 15.066590 1.671756
508 4 1 -1.1794 0.000000 20.095225 1.385607
509 4 2 0.5897 -0.758631 20.619342 1.737352
510 4 2 0.5897 0.759372 20.667326 1.670376
511 4 1 -1.1794 0.000000 15.567275 10.501893
512 4 2 0.5897 -0.044368 15.739390 11.469464
513 4 2 0.5897 -0.018559 16.465641 10.109946
514 4 1 -1.1794 0.000000 20.095225 10.501893
515 4 2 0.5897 0.205529 20.161938 11.469986
516 4 2 0.5897 -0.779451 19.516897 10.587942
517 4 1 -1.1794 1.385607 11.887500 3.679775
518 4 2 0.5897 0.417726 11.792841 3.821134
519 4 2 0.5897 1.754570 11.788072 4.581968
520 4 1 -1.1794 1.385607 11.887500 8.207725
521 4 2 0.5897 1.716836 12.634254 8.758036
522 4 2 0.5897 1.714706 11.116457 8.726950
523 4 1 -1.1794 10.501893 11.887500 3.679775
524 4 2 0.5897 9.916808 11.894167 4.472479
525 4 2 0.5897 10.184338 12.686764 3.201735
526 4 1 -1.1794 10.501893 11.887500 8.207725
527 4 2 0.5897 10.305638 12.686373 8.749125
528 4 2 0.5897 11.480928 11.953994 8.116678
529 4 1 -1.1794 3.679775 13.273107 0.000000
530 4 2 0.5897 3.181486 13.547580 0.803227
531 4 2 0.5897 4.465410 13.859811 0.037997
532 4 1 -1.1794 8.207725 13.273107 0.000000
533 4 2 0.5897 8.780854 13.502355 0.769515
534 4 2 0.5897 8.792041 13.540988 -0.747865
535 4 1 -1.1794 3.679775 22.389393 0.000000
536 4 2 0.5897 3.869586 23.339877 0.104347
537 4 2 0.5897 4.546334 21.955958 0.112136
538 4 1 -1.1794 8.207725 22.389393 0.000000
539 4 2 0.5897 8.122284 23.365758 -0.083426
540 4 2 0.5897 8.687717 22.164357 -0.827363
541 4 1 -1.1794 9.623525 17.831250 4.558143
542 4 2 0.5897 9.813335 17.935598 5.508627
543 4 2 0.5897 10.490084 17.943385 4.124708
544 4 1 -1.1794 2.263975 17.831250 4.558143
545 4 2 0.5897 2.178531 17.747824 5.534508
546 4 2 0.5897 2.743967 17.003887 4.333108
547 4 1 -1.1794 9.623525 17.831250 7.329357
548 4 2 0.5897 9.125238 18.634478 7.603833
549 4 2 0.5897 10.409160 17.869243 7.916061
550 4 1 -1.1794 2.263975 17.831250 7.329357
551 4 2 0.5897 2.837102 18.600767 7.558605
552 4 2 0.5897 2.848293 17.083386 7.597239
553 4 1 -1.1794 5.943750 19.216857 2.263975
554 4 2 0.5897 5.185122 19.568606 2.788093
555 4 2 0.5897 6.703124 19.501622 2.836075
556 4 1 -1.1794 5.943750 19.216857 9.623525
557 4 2 0.5897 5.979250 19.820706 10.402818
558 4 2 0.5897 6.742237 19.503002 9.122842
559 4 1 -1.1794 5.943750 16.445643 2.263975
560 4 2 0.5897 6.149264 17.413742 2.330661
561 4 2 0.5897 5.164278 16.531661 1.685681
562 4 1 -1.1794 5.943750 16.445643 9.623525
563 4 2 0.5897 5.899383 17.413213 9.795644
564 4 2 0.5897 5.925192 16.053692 10.521889
565 4 1 -1.1794 7.329357 21.511025 5.943750
566 4 2 0.5897 6.361476 21.652384 5.849090
567 4 2 0.5897 7.698320 22.413218 5.844322
568 4 1 -1.1794 7.329357 14.151475 5.943750
569 4 2 0.5897 7.660588 14.701785 6.690503
570 4 2 0.5897 7.658458 14.670699 5.172706
571 4 1 -1.1794 4.558143 21.511025 5.943750
572 4 2 0.5897 3.973056 22.303729 5.950416
573 4 2 0.5897 4.240588 21.032985 6.743014
574 4 1 -1.1794 4.558143 14.151475 5.943750
575 4 2 0.5897 4.361890 14.692872 6.742625
576 4 2 0.5897 5.537178 14.060428 6.010242
577 4 3 0.0 0.000000 11.887500 0.000000
578 4 3 0.0 5.943750 17.831250 5.943750
579 4 3 0.0 0.000000 14.859375 5.943750
580 4 3 0.0 0.000000 20.803125 5.943750
581 4 3 0.0 5.943750 11.887500 2.971875
582 4 3 0.0 5.943750 11.887500 8.915625
583 4 3 0.0 2.971875 17.831250 0.000000
584 4 3 0.0 8.915625 17.831250 0.000000
585 5 1 -1.1794 0.000000 17.831250 14.859375
586 5 2 0.5897 0.009656 18.633882 14.289192
587 5 2 0.5897 0.819206 17.966305 15.387977
588 5 1 -1.1794 0.000000 17.831250 20.803125
589 5 2 0.5897 0.281067 18.695936 21.165471
590 5 2 0.5897 0.723234 17.700273 20.142420
591 5 1 -1.1794 2.971875 11.887500 17.831250
592 5 2 0.5897 2.409366 12.000295 18.629359
593 5 2 0.5897 3.506404 12.713596 17.843005
594 5 1 -1.1794 8.915625 11.887500 17.831250
595 5 2 0.5897 8.353117 12.685610 17.944046
596 5 2 0.5897 9.450153 11.899253 18.657348
597 5 1 -1.1794 5.943750 14.859375 11.887500
598 5 2 0.5897 6.224823 15.221727 12.752183
599 5 2 0.5897 6.666985 14.198672 11.756521
600 5 1 -1.1794 5.943750 20.803125 11.887500
601 5 2 0.5897 5.953409 20.232941 12.690132
602 5 2 0.5897 6.762955 21.331727 12.022554
603 5 1 -1.1794 2.195740 14.083240 14.083240
604 5 2 0.5897 1.930743 13.290281 14.609235
605 5 2 0.5897 2.708046 14.595572 14.750311
606 5 1 -1.1794 9.691760 21.579260 14.083240
607 5 2 0.5897 9.978388 22.404281 14.536001
608 5 2 0.5897 9.116718 21.931314 13.368433
609 5 1 -1.1794 9.691760 14.083240 21.579260
610 5 2 0.5897 9.154281 14.669808 20.992438
611 5 2 0.5897 10.452871 14.669832 21.793426
612 5 1 -1.1794 2.195740 21.579260 21.579260
613 5 2 0.5897 1.433515 21.076365 21.937949
614 5 2 0.5897 2.654073 21.837280 22.421470
615 5 1 -1.1794 8.139490 20.026990 15.635510
616 5 2 0.5897 8.055452 20.494415 16.488505
617 5 2 0.5897 8.845452 20.531810 15.181649
618 5 1 -1.1794 3.748010 15.635510 15.635510
619 5 2 0.5897 4.002365 15.072288 16.407197
620 5 2 0.5897 4.639981 15.858336 15.297872
621 5 1 -1.1794 8.139490 15.635510 20.026990
622 5 2 0.5897 7.353136 15.998445 20.497181
623 5 2 0.5897 8.567214 16.460492 19.697698
624 5 1 -1.1794 3.748010 20.026990 20.026990
625 5 2 0.5897 3.235613 20.619046 20.629787
626 5 2 0.5897 4.491456 19.756971 20.612999
627 5 1 -1.1794 9.691760 21.579260 21.579260
628 5 2 0.5897 9.946137 22.350942 21.016041
629 5 2 0.5897 10.583721 21.241596 21.802092
630 5 1 -1.1794 2.195740 14.083240 21.579260
631 5 2 0.5897 1.409385 14.553429 21.942194
632 5 2 0.5897 2.623464 13.753947 22.404242
633 5 1 -1.1794 2.195740 21.579260 14.083240
634 5 2 0.5897 2.111703 22.432255 14.550666
635 5 2 0.5897 2.901702 21.125398 14.588060
636 5 1 -1.1794 9.691760 14.083240 14.083240
637 5 2 0.5897 9.179361 14.686035 14.675296
638 5 2 0.5897 10.435205 14.669250 13.813222
639 5 1 -1.1794 3.748010 15.635510 20.026990
640 5 2 0.5897 3.210531 15.048688 20.613558
641 5 2 0.5897 4.509120 15.849677 20.613582
642 5 1 -1.1794 8.139490 20.026990 20.026990
643 5 2 0.5897 7.874494 20.552984 19.234030
644 5 2 0.5897 8.651795 20.694063 20.539321
645 5 1 -1.1794 3.748010 20.026990 15.635510
646 5 2 0.5897 4.034637 20.479751 16.460531
647 5 2 0.5897 3.172969 19.312181 15.987563
648 5 1 -1.1794 8.139490 15.635510 15.635510
649 5 2 0.5897 7.377269 15.994205 15.132611
650 5 2 0.5897 8.597826 16.477718 15.893531
651 5 1 -1.1794 0.000000 15.567275 13.273107
652 5 2 0.5897 0.035498 16.346567 13.876957
653 5 2 0.5897 0.798485 15.066590 13.559256
654 5 1 -1.1794 0.000000 20.095225 13.273107
655 5 2 0.5897 -0.758631 20.619342 13.624852
656 5 2 0.5897 0.759372 20.667326 13.557876
657 5 1 -1.1794 0.000000 15.567275 22.389393
658 5 2 0.5897 -0.044368 15.739390 23.356964
659 5 2 0.5897 -0.018559 16.465641 21.997446
660 5 1 -1.1794 0.000000 20.095225 22.389393
661 5 2 0.5897 0.205529 20.161938 23.357486
662 5 2 0.5897 -0.779451 19.516897 22.475442
663 5 1 -1.1794 1.385607 11.887500 15.567275
664 5 2 0.5897 0.417726 11.792841 15.708634
665 5 2 0.5897 1.754570 11.788072 16.469468
666 5 1 -1.1794 1.385607 11.887500 20.095225
667 5 2 0.5897 1.716836 12.634254 20.645536
668 5 2 0.5897 1.714706 11.116457 20.614450
669 5 1 -1.1794 10.501893 11.887500 15.567275
670 5 2 0.5897 9.916808 11.894167 16.359979
671 5 2 0.5897 10.184338 12.686764 15.089235
672 5 1 -1.1794 10.501893 11.887500 20.095225
673 5 2 0.5897 10.305638 12.686373 20.636625
674 5 2 0.5897 11.480928 11.953994 20.004178
675 5 1 -1.1794 3.679775 13.273107 11.887500
676 5 2 0.5897 3.181486 13.547580 12.690727
677 5 2 0.5897 4.465410 13.859811 11.925497
678 5 1 -1.1794 8.207725 13.273107 11.887500
679 5 2 0.5897 8.780854 13.502355 12.657015
680 5 2 0.5897 8.792041 13.540988 11.139635
681 5 1 -1.1794 3.679775 22.389393 11.887500
682 5 2 0.5897 3.869586 23.339877 11.991847
683 5 2 0.5897 4.546334 21.955958 11.999636
684 5 1 -1.1794 8.207725 22.389393 11.887500
685 5 2 0.5897 8.122284 23.365758 11.804074
686 5 2 0.5897 8.687717 22.164357 11.060137
687 5 1 -1.1794 9.623525 17.831250 16.445643
688 5 2 0.5897 9.813335 17.935598 17.396127
689 5 2 0.5897 10.490084 17.943385 16.012208
690 5 1 -1.1794 2.263975 17.831250 16.445643
691 5 2 0.5897 2.178531 17.747824 17.422008
692 5 2 0.5897 2.743967 17.003887 16.220608
693 5 1 -1.1794 9.623525 17.831250 19.216857
694 5 2 0.5897 9.125238 18.634478 19.491333
695 5 2 0.5897 10.409160 17.869243 19.803561
696 5 1 -1.1794 2.263975 17.831250 19.216857
697 5 2 0.5897 2.837102 18.600767 19.446105
698 5 2 0.5897 2.848293 17.083386 19.484739
699 5 1 -1.1794 5.943750 19.216857 14.151475
700 5 2 0.5897 5.185122 19.568606 14.675593
701 5 2 0.5897 6.703124 19.501622 14.723575
702 5 1 -1.1794 5.943750 19.216857 21.511025
703 5 2 0.5897 5.979250 19.820706 22.290318
704 5 2 0.5897 6.742237 19.503002 21.010342
705 5 1 -1.1794 5.943750 16.445643 14.151475
706 5 2 0.5897 6.149264 17.413742 14.218161
707 5 2 0.5897 5.164278 16.531661 13.573181
708 5 1 -1.1794 5.943750 16.445643 21.511025
709 5 2 0.5897 5.899383 17.413213 21.683144
710 5 2 0.5897 5.925192 16.053692 22.409389
711 5 1 -1.1794 7.329357 21.511025 17.831250
712 5 2 0.5897 6.361476 21.652384 17.736590
713 5 2 0.5897 7.698320 22.413218 17.731822
714 5 1 -1.1794 7.329357 14.151475 17.831250
715 5 2 0.5897 7.660588 14.701785 18.578003
716 5 2 0.5897 7.658458 14.670699 17.060206
717 5 1 -1.1794 4.558143 21.511025 17.831250
718 5 2 0.5897 3.973056 22.303729 17.837916
719 5 2 0.5897 4.240588 21.032985 18.630514
720 5 1 -1.1794 4.558143 14.151475 17.831250
721 5 2 0.5897 4.361890 14.692872 18.630125
722 5 2 0.5897 5.537178 14.060428 17.897742
723 5 3 0.0 0.000000 11.887500 11.887500
724 5 3 0.0 5.943750 17.831250 17.831250
725 5 3 0.0 0.000000 14.859375 17.831250
726 5 3 0.0 0.000000 20.803125 17.831250
727 5 3 0.0 5.943750 11.887500 14.859375
728 5 3 0.0 5.943750 11.887500 20.803125
729 5 3 0.0 2.971875 17.831250 11.887500
730 5 3 0.0 8.915625 17.831250 11.887500
731 6 1 -1.1794 0.000000 17.831250 26.746875
732 6 2 0.5897 0.009656 18.633882 26.176692
733 6 2 0.5897 0.819206 17.966305 27.275477
734 6 1 -1.1794 0.000000 17.831250 32.690625
735 6 2 0.5897 0.281067 18.695936 33.052971
736 6 2 0.5897 0.723234 17.700273 32.029920
737 6 1 -1.1794 2.971875 11.887500 29.718750
738 6 2 0.5897 2.409366 12.000295 30.516859
739 6 2 0.5897 3.506404 12.713596 29.730505
740 6 1 -1.1794 8.915625 11.887500 29.718750
741 6 2 0.5897 8.353117 12.685610 29.831546
742 6 2 0.5897 9.450153 11.899253 30.544848
743 6 1 -1.1794 5.943750 14.859375 23.775000
744 6 2 0.5897 6.224823 15.221727 24.639683
745 6 2 0.5897 6.666985 14.198672 23.644021
746 6 1 -1.1794 5.943750 20.803125 23.775000
747 6 2 0.5897 5.953409 20.232941 24.577632
748 6 2 0.5897 6.762955 21.331727 23.910054
749 6 1 -1.1794 2.195740 14.083240 25.970740
750 6 2 0.5897 1.930743 13.290281 26.496735
751 6 2 0.5897 2.708046 14.595572 26.637811
752 6 1 -1.1794 9.691760 21.579260 25.970740
753 6 2 0.5897 9.978388 22.404281 26.423501
754 6 2 0.5897 9.116718 21.931314 25.255933
755 6 1 -1.1794 9.691760 14.083240 33.466760
756 6 2 0.5897 9.154281 14.669808 32.879938
757 6 2 0.5897 10.452871 14.669832 33.680926
758 6 1 -1.1794 2.195740 21.579260 33.466760
759 6 2 0.5897 1.433515 21.076365 33.825449
760 6 2 0.5897 2.654073 21.837280 34.308970
761 6 1 -1.1794 8.139490 20.026990 27.523010
762 6 2 0.5897 8.055452 20.494415 28.376005
763 6 2 0.5897 8.845452 20.531810 27.069149
764 6 1 -1.1794 3.748010 15.635510 27.523010
765 6 2 0.5897 4.002365 15.072288 28.294697
766 6 2 0.5897 4.639981 15.858336 27.185372
767 6 1 -1.1794 8.139490 15.635510 31.914490
768 6 2 0.5897 7.353136 15.998445 32.384681
769 6 2 0.5897 8.567214 16.460492 31.585198
770 6 1 -1.1794 3.748010 20.026990 31.914490
771 6 2 0.5897 3.235613 20.619046 32.517287
772 6 2 0.5897 4.491456 19.756971 32.500499
773 6 1 -1.1794 9.691760 21.579260 33.466760
774 6 2 0.5897 9.946137 22.350942 32.903541
775 6 2 0.5897 10.583721 21.241596 33.689592
776 6 1 -1.1794 2.195740 14.083240 33.466760
777 6 2 0.5897 1.409385 14.553429 33.829694
778 6 2 0.5897 2.623464 13.753947 34.291742
779 6 1 -1.1794 2.195740 21.579260 25.970740
780 6 2 0.5897 2.111703 22.432255 26.438166
781 6 2 0.5897 2.901702 21.125398 26.475560
782 6 1 -1.1794 9.691760 14.083240 25.970740
783 6 2 0.5897 9.179361 14.686035 26.562796
784 6 2 0.5897 10.435205 14.669250 25.700722
785 6 1 -1.1794 3.748010 15.635510 31.914490
786 6 2 0.5897 3.210531 15.048688 32.501058
787 6 2 0.5897 4.509120 15.849677 32.501082
788 6 1 -1.1794 8.139490 20.026990 31.914490
789 6 2 0.5897 7.874494 20.552984 31.121530
790 6 2 0.5897 8.651795 20.694063 32.426821
791 6 1 -1.1794 3.748010 20.026990 27.523010
792 6 2 0.5897 4.034637 20.479751 28.348031
793 6 2 0.5897 3.172969 19.312181 27.875063
794 6 1 -1.1794 8.139490 15.635510 27.523010
795 6 2 0.5897 7.377269 15.994205 27.020111
796 6 2 0.5897 8.597826 16.477718 27.781031
797 6 1 -1.1794 0.000000 15.567275 25.160607
798 6 2 0.5897 0.035498 16.346567 25.764457
799 6 2 0.5897 0.798485 15.066590 25.446756
800 6 1 -1.1794 0.000000 20.095225 25.160607
801 6 2 0.5897 -0.758631 20.619342 25.512352
802 6 2 0.5897 0.759372 20.667326 25.445376
803 6 1 -1.1794 0.000000 15.567275 34.276893
804 6 2 0.5897 -0.044368 15.739390 35.244464
805 6 2 0.5897 -0.018559 16.465641 33.884946
806 6 1 -1.1794 0.000000 20.095225 34.276893
807 6 2 0.5897 0.205529 20.161938 35.244986
808 6 2 0.5897 -0.779451 19.516897 34.362942
809 6 1 -1.1794 1.385607 11.887500 27.454775
810 6 2 0.5897 0.417726 11.792841 27.596134
811 6 2 0.5897 1.754570 11.788072 28.356968
812 6 1 -1.1794 1.385607 11.887500 31.982725
813 6 2 0.5897 1.716836 12.634254 32.533036
814 6 2 0.5897 1.714706 11.116457 32.501950
815 6 1 -1.1794 10.501893 11.887500 27.454775
816 6 2 0.5897 9.916808 11.894167 28.247479
817 6 2 0.5897 10.184338 12.686764 26.976735
818 6 1 -1.1794 10.501893 11.887500 31.982725
819 6 2 0.5897 10.305638 12.686373 32.524125
820 6 2 0.5897 11.480928 11.953994 31.891678
821 6 1 -1.1794 3.679775 13.273107 23.775000
822 6 2 0.5897 3.181486 13.547580 24.578227
823 6 2 0.5897 4.465410 13.859811 23.812997
824 6 1 -1.1794 8.207725 13.273107 23.775000
825 6 2 0.5897 8.780854 13.502355 24.544515
826 6 2 0.5897 8.792041 13.540988 23.027135
827 6 1 -1.1794 3.679775 22.389393 23.775000
828 6 2 0.5897 3.869586 23.339877 23.879347
829 6 2 0.5897 4.546334 21.955958 23.887136
830 6 1 -1.1794 8.207725 22.389393 23.775000
831 6 2 0.5897 8.122284 23.365758 23.691574
832 6 2 0.5897 8.687717 22.164357 22.947637
833 6 1 -1.1794 9.623525 17.831250 28.333143
834 6 2 0.5897 9.813335 17.935598 29.283627
835 6 2 0.5897 10.490084 17.943385 27.899708
836 6 1 -1.1794 2.263975 17.831250 28.333143
837 6 2 0.5897 2.178531 17.747824 29.309508
838 6 2 0.5897 2.743967 17.003887 28.108108
839 6 1 -1.1794 9.623525 17.831250 31.104357
840 6 2 0.5897 9.125238 18.634478 31.378833
841 6 2 0.5897 10.409160 17.869243 31.691061
842 6 1 -1.1794 2.263975 17.831250 31.104357
843 6 2 0.5897 2.837102 18.600767 31.333605
844 6 2 0.5897 2.848293 17.083386 31.372239
845 6 1 -1.1794 5.943750 19.216857 26.038975
846 6 2 0.5897 5.185122 19.568606 26.563093
847 6 2 0.5897 6.703124 19.501622 26.611075
848 6 1 -1.1794 5.943750 19.216857 33.398525
849 6 2 0.5897 5.979250 19.820706 34.177818
850 6 2 0.5897 6.742237 19.503002 32.897842
851 6 1 -1.1794 5.943750 16.445643 26.038975
852 6 2 0.5897 6.149264 17.413742 26.105661
853 6 2 0.5897 5.164278 16.531661 25.460681
854 6 1 -1.1794 5.943750 16.445643 33.398525
855 6 2 0.5897 5.899383 17.413213 33.570644
856 6 2 0.5897 5.925192 16.053692 34.296889
857 6 1 -1.1794 7.329357 21.511025 29.718750
858 6 2 0.5897 6.361476 21.652384 29.624090
859 6 2 0.5897 7.698320 22.413218 29.619322
860 6 1 -1.1794 7.329357 14.151475 29.718750
861 6 2 0.5897 7.660588 14.701785 30.465503
862 6 2 0.5897 7.658458 14.670699 28.947706
863 6 1 -1.1794 4.558143 21.511025 29.718750
864 6 2 0.5897 3.973056 22.303729 29.725416
865 6 2 0.5897 4.240588 21.032985 30.518014
866 6 1 -1.1794 4.558143 14.151475 29.718750
867 6 2 0.5897 4.361890 14.692872 30.517625
868 6 2 0.5897 5.537178 14.060428 29.785242
869 6 3 0.0 0.000000 11.887500 23.775000
870 6 3 0.0 5.943750 17.831250 29.718750
871 6 3 0.0 0.000000 14.859375 29.718750
872 6 3 0.0 0.000000 20.803125 29.718750
873 6 3 0.0 5.943750 11.887500 26.746875
874 6 3 0.0 5.943750 11.887500 32.690625
875 6 3 0.0 2.971875 17.831250 23.775000
876 6 3 0.0 8.915625 17.831250 23.775000
877 7 1 -1.1794 0.000000 29.718750 2.971875
878 7 2 0.5897 0.009656 30.521382 2.401692
879 7 2 0.5897 0.819206 29.853805 3.500477
880 7 1 -1.1794 0.000000 29.718750 8.915625
881 7 2 0.5897 0.281067 30.583436 9.277971
882 7 2 0.5897 0.723234 29.587773 8.254920
883 7 1 -1.1794 2.971875 23.775000 5.943750
884 7 2 0.5897 2.409366 23.887795 6.741859
885 7 2 0.5897 3.506404 24.601096 5.955505
886 7 1 -1.1794 8.915625 23.775000 5.943750
887 7 2 0.5897 8.353117 24.573110 6.056546
888 7 2 0.5897 9.450153 23.786753 6.769848
889 7 1 -1.1794 5.943750 26.746875 0.000000
890 7 2 0.5897 6.224823 27.109227 0.864683
891 7 2 0.5897 6.666985 26.086172 -0.130979
892 7 1 -1.1794 5.943750 32.690625 0.000000
893 7 2 0.5897 5.953409 32.120441 0.802632
894 7 2 0.5897 6.762955 33.219227 0.135054
895 7 1 -1.1794 2.195740 25.970740 2.195740
896 7 2 0.5897 1.930743 25.177781 2.721735
897 7 2 0.5897 2.708046 26.483072 2.862811
898 7 1 -1.1794 9.691760 33.466760 2.195740
899 7 2 0.5897 9.978388 34.291781 2.648501
900 7 2 0.5897 9.116718 33.818814 1.480933
901 7 1 -1.1794 9.691760 25.970740 9.691760
902 7 2 0.5897 9.154281 26.557308 9.104938
903 7 2 0.5897 10.452871 26.557332 9.905926
904 7 1 -1.1794 2.195740 33.466760 9.691760
905 7 2 0.5897 1.433515 32.963865 10.050449
906 7 2 0.5897 2.654073 33.724780 10.533970
907 7 1 -1.1794 8.139490 31.914490 3.748010
908 7 2 0.5897 8.055452 32.381915 4.601005
909 7 2 0.5897 8.845452 32.419310 3.294149
910 7 1 -1.1794 3.748010 27.523010 3.748010
911 7 2 0.5897 4.002365 26.959788 4.519697
912 7 2 0.5897 4.639981 27.745836 3.410372
913 7 1 -1.1794 8.139490 27.523010 8.139490
914 7 2 0.5897 7.353136 27.885945 8.609681
915 7 2 0.5897 8.567214 28.347992 7.810198
916 7 1 -1.1794 3.748010 31.914490 8.139490
917 7 2 0.5897 3.235613 32.506546 8.742287
918 7 2 0.5897 4.491456 31.644471 8.725499
919 7 1 -1.1794 9.691760 33.466760 9.691760
920 7 2 0.5897 9.946137 34.238442 9.128541
921 7 2 0.5897 10.583721 33.129096 9.914592
922 7 1 -1.1794 2.195740 25.970740 9.691760
923 7 2 0.5897 1.409385 26.440929 10.054694
924 7 2 0.5897 2.623464 25.641447 10.516742
925 7 1 -1.1794 2.195740 33.466760 2.195740
926 7 2 0.5897 2.111703 34.319755 2.663166
927 7 2 0.5897 2.901702 33.012898 2.700560
928 7 1 -1.1794 9.691760 25.970740 2.195740
929 7 2 0.5897 9.179361 26.573535 2.787796
930 7 2 0.5897 10.435205 26.556750 1.925722
931 7 1 -1.1794 3.748010 27.523010 8.139490
932 7 2 0.5897 3.210531 26.936188 8.726058
933 7 2 0.5897 4.509120 27.737177 8.726082
934 7 1 -1.1794 8.139490 31.914490 8.139490
935 7 2 0.5897 7.874494 32.440484 7.346530
936 7 2 0.5897 8.651795 32.581563 8.651821
937 7 1 -1.1794 3.748010 31.914490 3.748010
938 7 2 0.5897 4.034637 32.367251 4.573031
939 7 2 0.5897 3.172969 31.199681 4.100063
940 7 1 -1.1794 8.139490 27.523010 3.748010
941 7 2 0.5897 7.377269 27.881705 3.245111
942 7 2 0.5897 8.597826 28.365218 4.006031
943 7 1 -1.1794 0.000000 27.454775 1.385607
944 7 2 0.5897 0.035498 28.234067 1.989457
945 7 2 0.5897 0.798485 26.954090 1.671756
946 7 1 -1.1794 0.000000 31.982725 1.385607
947 7 2 0.5897 -0.758631 32.506842 1.737352
948 7 2 0.5897 0.759372 32.554826 1.670376
949 7 1 -1.1794 0.000000 27.454775 10.501893
950 7 2 0.5897 -0.044368 27.626890 11.469464
951 7 2 0.5897 -0.018559 28.353141 10.109946
952 7 1 -1.1794 0.000000 31.982725 10.501893
953 7 2 0.5897 0.205529 32.049438 11.469986
954 7 2 0.5897 -0.779451 31.404397 10.587942
955 7 1 -1.1794 1.385607 23.775000 3.679775
956 7 2 0.5897 0.417726 23.680341 3.821134
957 7 2 0.5897 1.754570 23.675572 4.581968
958 7 1 -1.1794 1.385607 23.775000 8.207725
959 7 2 0.5897 1.716836 24.521754 8.758036
960 7 2 0.5897 1.714706 23.003957 8.726950
961 7 1 -1.1794 10.501893 23.775000 3.679775
962 7 2 0.5897 9.916808 23.781667 4.472479
963 7 2 0.5897 10.184338 24.574264 3.201735
964 7 1 -1.1794 10.501893 23.775000 8.207725
965 7 2 0.5897 10.305638 24.573873 8.749125
966 7 2 0.5897 11.480928 23.841494 8.116678
967 7 1 -1.1794 3.679775 25.160607 0.000000
968 7 2 0.5897 3.181486 25.435080 0.803227
969 7 2 0.5897 4.465410 25.747311 0.037997
970 7 1 -1.1794 8.207725 25.160607 0.000000
971 7 2 0.5897 8.780854 25.389855 0.769515
972 7 2 0.5897 8.792041 25.428488 -0.747865
973 7 1 -1.1794 3.679775 34.276893 0.000000
974 7 2 0.5897 3.869586 35.227377 0.104347
975 7 2 0.5897 4.546334 33.843458 0.112136
976 7 1 -1.1794 8.207725 34.276893 0.000000
977 7 2 0.5897 8.122284 35.253258 -0.083426
978 7 2 0.5897 8.687717 34.051857 -0.827363
979 7 1 -1.1794 9.623525 29.718750 4.558143
980 7 2 0.5897 9.813335 29.823098 5.508627
981 7 2 0.5897 10.490084 29.830885 4.124708
982 7 1 -1.1794 2.263975 29.718750 4.558143
983 7 2 0.5897 2.178531 29.635324 5.534508
984 7 2 0.5897 2.743967 28.891387 4.333108
985 7 1 -1.1794 9.623525 29.718750 7.329357
986 7 2 0.5897 9.125238 30.521978 7.603833
987 7 2 0.5897 10.409160 29.756743 7.916061
988 7 1 -1.1794 2.263975 29.718750 7.329357
989 7 2 0.5897 2.837102 30.488267 7.558605
990 7 2 0.5897 2.848293 28.970886 7.597239
991 7 1 -1.1794 5.943750 31.104357 2.263975
992 7 2 0.5897 5.185122 31.456106 2.788093
993 7 2 0.5897 6.703124 31.389122 2.836075
994 7 1 -1.1794 5.943750 31.104357 9.623525
995 7 2 0.5897 5.979250 31.708206 10.402818
996 7 2 0.5897 6.742237 31.390502 9.122842
997 7 1 -1.1794 5.943750 28.333143 2.263975
998 7 2 0.5897 6.149264 29.301242 2.330661
999 7 2 0.5897 5.164278 28.419161 1.685681
1000 7 1 -1.1794 5.943750 28.333143 9.623525
1001 7 2 0.5897 5.899383 29.300713 9.795644
1002 7 2 0.5897 5.925192 27.941192 10.521889
1003 7 1 -1.1794 7.329357 33.398525 5.943750
1004 7 2 0.5897 6.361476 33.539884 5.849090
1005 7 2 0.5897 7.698320 34.300718 5.844322
1006 7 1 -1.1794 7.329357 26.038975 5.943750
1007 7 2 0.5897 7.660588 26.589285 6.690503
1008 7 2 0.5897 7.658458 26.558199 5.172706
1009 7 1 -1.1794 4.558143 33.398525 5.943750
1010 7 2 0.5897 3.973056 34.191229 5.950416
1011 7 2 0.5897 4.240588 32.920485 6.743014
1012 7 1 -1.1794 4.558143 26.038975 5.943750
1013 7 2 0.5897 4.361890 26.580372 6.742625
1014 7 2 0.5897 5.537178 25.947928 6.010242
1015 7 3 0.0 0.000000 23.775000 0.000000
1016 7 3 0.0 5.943750 29.718750 5.943750
1017 7 3 0.0 0.000000 26.746875 5.943750
1018 7 3 0.0 0.000000 32.690625 5.943750
1019 7 3 0.0 5.943750 23.775000 2.971875
1020 7 3 0.0 5.943750 23.775000 8.915625
1021 7 3 0.0 2.971875 29.718750 0.000000
1022 7 3 0.0 8.915625 29.718750 0.000000
1023 8 1 -1.1794 0.000000 29.718750 14.859375
1024 8 2 0.5897 0.009656 30.521382 14.289192
1025 8 2 0.5897 0.819206 29.853805 15.387977
1026 8 1 -1.1794 0.000000 29.718750 20.803125
1027 8 2 0.5897 0.281067 30.583436 21.165471
1028 8 2 0.5897 0.723234 29.587773 20.142420
1029 8 1 -1.1794 2.971875 23.775000 17.831250
1030 8 2 0.5897 2.409366 23.887795 18.629359
1031 8 2 0.5897 3.506404 24.601096 17.843005
1032 8 1 -1.1794 8.915625 23.775000 17.831250
1033 8 2 0.5897 8.353117 24.573110 17.944046
1034 8 2 0.5897 9.450153 23.786753 18.657348
1035 8 1 -1.1794 5.943750 26.746875 11.887500
1036 8 2 0.5897 6.224823 27.109227 12.752183
1037 8 2 0.5897 6.666985 26.086172 11.756521
1038 8 1 -1.1794 5.943750 32.690625 11.887500
1039 8 2 0.5897 5.953409 32.120441 12.690132
1040 8 2 0.5897 6.762955 33.219227 12.022554
1041 8 1 -1.1794 2.195740 25.970740 14.083240
1042 8 2 0.5897 1.930743 25.177781 14.609235
1043 8 2 0.5897 2.708046 26.483072 14.750311
1044 8 1 -1.1794 9.691760 33.466760 14.083240
1045 8 2 0.5897 9.978388 34.291781 14.536001
1046 8 2 0.5897 9.116718 33.818814 13.368433
1047 8 1 -1.1794 9.691760 25.970740 21.579260
1048 8 2 0.5897 9.154281 26.557308 20.992438
1049 8 2 0.5897 10.452871 26.557332 21.793426
1050 8 1 -1.1794 2.195740 33.466760 21.579260
1051 8 2 0.5897 1.433515 32.963865 21.937949
1052 8 2 0.5897 2.654073 33.724780 22.421470
1053 8 1 -1.1794 8.139490 31.914490 15.635510
1054 8 2 0.5897 8.055452 32.381915 16.488505
1055 8 2 0.5897 8.845452 32.419310 15.181649
1056 8 1 -1.1794 3.748010 27.523010 15.635510
1057 8 2 0.5897 4.002365 26.959788 16.407197
1058 8 2 0.5897 4.639981 27.745836 15.297872
1059 8 1 -1.1794 8.139490 27.523010 20.026990
1060 8 2 0.5897 7.353136 27.885945 20.497181
1061 8 2 0.5897 8.567214 28.347992 19.697698
1062 8 1 -1.1794 3.748010 31.914490 20.026990
1063 8 2 0.5897 3.235613 32.506546 20.629787
1064 8 2 0.5897 4.491456 31.644471 20.612999
1065 8 1 -1.1794 9.691760 33.466760 21.579260
1066 8 2 0.5897 9.946137 34.238442 21.016041
1067 8 2 0.5897 10.583721 33.129096 21.802092
1068 8 1 -1.1794 2.195740 25.970740 21.579260
1069 8 2 0.5897 1.409385 26.440929 21.942194
1070 8 2 0.5897 2.623464 25.641447 22.404242
1071 8 1 -1.1794 2.195740 33.466760 14.083240
1072 8 2 0.5897 2.111703 34.319755 14.550666
1073 8 2 0.5897 2.901702 33.012898 14.588060
1074 8 1 -1.1794 9.691760 25.970740 14.083240
1075 8 2 0.5897 9.179361 26.573535 14.675296
1076 8 2 0.5897 10.435205 26.556750 13.813222
1077 8 1 -1.1794 3.748010 27.523010 20.026990
1078 8 2 0.5897 3.210531 26.936188 20.613558
1079 8 2 0.5897 4.509120 27.737177 20.613582
1080 8 1 -1.1794 8.139490 31.914490 20.026990
1081 8 2 0.5897 7.874494 32.440484 19.234030
1082 8 2 0.5897 8.651795 32.581563 20.539321
1083 8 1 -1.1794 3.748010 31.914490 15.635510
1084 8 2 0.5897 4.034637 32.367251 16.460531
1085 8 2 0.5897 3.172969 31.199681 15.987563
1086 8 1 -1.1794 8.139490 27.523010 15.635510
1087 8 2 0.5897 7.377269 27.881705 15.132611
1088 8 2 0.5897 8.597826 28.365218 15.893531
1089 8 1 -1.1794 0.000000 27.454775 13.273107
1090 8 2 0.5897 0.035498 28.234067 13.876957
1091 8 2 0.5897 0.798485 26.954090 13.559256
1092 8 1 -1.1794 0.000000 31.982725 13.273107
1093 8 2 0.5897 -0.758631 32.506842 13.624852
1094 8 2 0.5897 0.759372 32.554826 13.557876
1095 8 1 -1.1794 0.000000 27.454775 22.389393
1096 8 2 0.5897 -0.044368 27.626890 23.356964
1097 8 2 0.5897 -0.018559 28.353141 21.997446
1098 8 1 -1.1794 0.000000 31.982725 22.389393
1099 8 2 0.5897 0.205529 32.049438 23.357486
1100 8 2 0.5897 -0.779451 31.404397 22.475442
1101 8 1 -1.1794 1.385607 23.775000 15.567275
1102 8 2 0.5897 0.417726 23.680341 15.708634
1103 8 2 0.5897 1.754570 23.675572 16.469468
1104 8 1 -1.1794 1.385607 23.775000 20.095225
1105 8 2 0.5897 1.716836 24.521754 20.645536
1106 8 2 0.5897 1.714706 23.003957 20.614450
1107 8 1 -1.1794 10.501893 23.775000 15.567275
1108 8 2 0.5897 9.916808 23.781667 16.359979
1109 8 2 0.5897 10.184338 24.574264 15.089235
1110 8 1 -1.1794 10.501893 23.775000 20.095225
1111 8 2 0.5897 10.305638 24.573873 20.636625
1112 8 2 0.5897 11.480928 23.841494 20.004178
1113 8 1 -1.1794 3.679775 25.160607 11.887500
1114 8 2 0.5897 3.181486 25.435080 12.690727
1115 8 2 0.5897 4.465410 25.747311 11.925497
1116 8 1 -1.1794 8.207725 25.160607 11.887500
1117 8 2 0.5897 8.780854 25.389855 12.657015
1118 8 2 0.5897 8.792041 25.428488 11.139635
1119 8 1 -1.1794 3.679775 34.276893 11.887500
1120 8 2 0.5897 3.869586 35.227377 11.991847
1121 8 2 0.5897 4.546334 33.843458 11.999636
1122 8 1 -1.1794 8.207725 34.276893 11.887500
1123 8 2 0.5897 8.122284 35.253258 11.804074
1124 8 2 0.5897 8.687717 34.051857 11.060137
1125 8 1 -1.1794 9.623525 29.718750 16.445643
1126 8 2 0.5897 9.813335 29.823098 17.396127
1127 8 2 0.5897 10.490084 29.830885 16.012208
1128 8 1 -1.1794 2.263975 29.718750 16.445643
1129 8 2 0.5897 2.178531 29.635324 17.422008
1130 8 2 0.5897 2.743967 28.891387 16.220608
1131 8 1 -1.1794 9.623525 29.718750 19.216857
1132 8 2 0.5897 9.125238 30.521978 19.491333
1133 8 2 0.5897 10.409160 29.756743 19.803561
1134 8 1 -1.1794 2.263975 29.718750 19.216857
1135 8 2 0.5897 2.837102 30.488267 19.446105
1136 8 2 0.5897 2.848293 28.970886 19.484739
1137 8 1 -1.1794 5.943750 31.104357 14.151475
1138 8 2 0.5897 5.185122 31.456106 14.675593
1139 8 2 0.5897 6.703124 31.389122 14.723575
1140 8 1 -1.1794 5.943750 31.104357 21.511025
1141 8 2 0.5897 5.979250 31.708206 22.290318
1142 8 2 0.5897 6.742237 31.390502 21.010342
1143 8 1 -1.1794 5.943750 28.333143 14.151475
1144 8 2 0.5897 6.149264 29.301242 14.218161
1145 8 2 0.5897 5.164278 28.419161 13.573181
1146 8 1 -1.1794 5.943750 28.333143 21.511025
1147 8 2 0.5897 5.899383 29.300713 21.683144
1148 8 2 0.5897 5.925192 27.941192 22.409389
1149 8 1 -1.1794 7.329357 33.398525 17.831250
1150 8 2 0.5897 6.361476 33.539884 17.736590
1151 8 2 0.5897 7.698320 34.300718 17.731822
1152 8 1 -1.1794 7.329357 26.038975 17.831250
1153 8 2 0.5897 7.660588 26.589285 18.578003
1154 8 2 0.5897 7.658458 26.558199 17.060206
1155 8 1 -1.1794 4.558143 33.398525 17.831250
1156 8 2 0.5897 3.973056 34.191229 17.837916
1157 8 2 0.5897 4.240588 32.920485 18.630514
1158 8 1 -1.1794 4.558143 26.038975 17.831250
1159 8 2 0.5897 4.361890 26.580372 18.630125
1160 8 2 0.5897 5.537178 25.947928 17.897742
1161 8 3 0.0 0.000000 23.775000 11.887500
1162 8 3 0.0 5.943750 29.718750 17.831250
1163 8 3 0.0 0.000000 26.746875 17.831250
1164 8 3 0.0 0.000000 32.690625 17.831250
1165 8 3 0.0 5.943750 23.775000 14.859375
1166 8 3 0.0 5.943750 23.775000 20.803125
1167 8 3 0.0 2.971875 29.718750 11.887500
1168 8 3 0.0 8.915625 29.718750 11.887500
1169 9 1 -1.1794 0.000000 29.718750 26.746875
1170 9 2 0.5897 0.009656 30.521382 26.176692
1171 9 2 0.5897 0.819206 29.853805 27.275477
1172 9 1 -1.1794 0.000000 29.718750 32.690625
1173 9 2 0.5897 0.281067 30.583436 33.052971
1174 9 2 0.5897 0.723234 29.587773 32.029920
1175 9 1 -1.1794 2.971875 23.775000 29.718750
1176 9 2 0.5897 2.409366 23.887795 30.516859
1177 9 2 0.5897 3.506404 24.601096 29.730505
1178 9 1 -1.1794 8.915625 23.775000 29.718750
1179 9 2 0.5897 8.353117 24.573110 29.831546
1180 9 2 0.5897 9.450153 23.786753 30.544848
1181 9 1 -1.1794 5.943750 26.746875 23.775000
1182 9 2 0.5897 6.224823 27.109227 24.639683
1183 9 2 0.5897 6.666985 26.086172 23.644021
1184 9 1 -1.1794 5.943750 32.690625 23.775000
1185 9 2 0.5897 5.953409 32.120441 24.577632
1186 9 2 0.5897 6.762955 33.219227 23.910054
1187 9 1 -1.1794 2.195740 25.970740 25.970740
1188 9 2 0.5897 1.930743 25.177781 26.496735
1189 9 2 0.5897 2.708046 26.483072 26.637811
1190 9 1 -1.1794 9.691760 33.466760 25.970740
1191 9 2 0.5897 9.978388 34.291781 26.423501
1192 9 2 0.5897 9.116718 33.818814 25.255933
1193 9 1 -1.1794 9.691760 25.970740 33.466760
1194 9 2 0.5897 9.154281 26.557308 32.879938
1195 9 2 0.5897 10.452871 26.557332 33.680926
1196 9 1 -1.1794 2.195740 33.466760 33.466760
1197 9 2 0.5897 1.433515 32.963865 33.825449
1198 9 2 0.5897 2.654073 33.724780 34.308970
1199 9 1 -1.1794 8.139490 31.914490 27.523010
1200 9 2 0.5897 8.055452 32.381915 28.376005
1201 9 2 0.5897 8.845452 32.419310 27.069149
1202 9 1 -1.1794 3.748010 27.523010 27.523010
1203 9 2 0.5897 4.002365 26.959788 28.294697
1204 9 2 0.5897 4.639981 27.745836 27.185372
1205 9 1 -1.1794 8.139490 27.523010 31.914490
1206 9 2 0.5897 7.353136 27.885945 32.384681
1207 9 2 0.5897 8.567214 28.347992 31.585198
1208 9 1 -1.1794 3.748010 31.914490 31.914490
1209 9 2 0.5897 3.235613 32.506546 32.517287
1210 9 2 0.5897 4.491456 31.644471 32.500499
1211 9 1 -1.1794 9.691760 33.466760 33.466760
1212 9 2 0.5897 9.946137 34.238442 32.903541
1213 9 2 0.5897 10.583721 33.129096 33.689592
1214 9 1 -1.1794 2.195740 25.970740 33.466760
1215 9 2 0.5897 1.409385 26.440929 33.829694
1216 9 2 0.5897 2.623464 25.641447 34.291742
1217 9 1 -1.1794 2.195740 33.466760 25.970740
1218 9 2 0.5897 2.111703 34.319755 26.438166
1219 9 2 0.5897 2.901702 33.012898 26.475560
1220 9 1 -1.1794 9.691760 25.970740 25.970740
1221 9 2 0.5897 9.179361 26.573535 26.562796
1222 9 2 0.5897 10.435205 26.556750 25.700722
1223 9 1 -1.1794 3.748010 27.523010 31.914490
1224 9 2 0.5897 3.210531 26.936188 32.501058
1225 9 2 0.5897 4.509120 27.737177 32.501082
1226 9 1 -1.1794 8.139490 31.914490 31.914490
1227 9 2 0.5897 7.874494 32.440484 31.121530
1228 9 2 0.5897 8.651795 32.581563 32.426821
1229 9 1 -1.1794 3.748010 31.914490 27.523010
1230 9 2 0.5897 4.034637 32.367251 28.348031
1231 9 2 0.5897 3.172969 31.199681 27.875063
1232 9 1 -1.1794 8.139490 27.523010 27.523010
1233 9 2 0.5897 7.377269 27.881705 27.020111
1234 9 2 0.5897 8.597826 28.365218 27.781031
1235 9 1 -1.1794 0.000000 27.454775 25.160607
1236 9 2 0.5897 0.035498 28.234067 25.764457
1237 9 2 0.5897 0.798485 26.954090 25.446756
1238 9 1 -1.1794 0.000000 31.982725 25.160607
1239 9 2 0.5897 -0.758631 32.506842 25.512352
1240 9 2 0.5897 0.759372 32.554826 25.445376
1241 9 1 -1.1794 0.000000 27.454775 34.276893
1242 9 2 0.5897 -0.044368 27.626890 35.244464
1243 9 2 0.5897 -0.018559 28.353141 33.884946
1244 9 1 -1.1794 0.000000 31.982725 34.276893
1245 9 2 0.5897 0.205529 32.049438 35.244986
1246 9 2 0.5897 -0.779451 31.404397 34.362942
1247 9 1 -1.1794 1.385607 23.775000 27.454775
1248 9 2 0.5897 0.417726 23.680341 27.596134
1249 9 2 0.5897 1.754570 23.675572 28.356968
1250 9 1 -1.1794 1.385607 23.775000 31.982725
1251 9 2 0.5897 1.716836 24.521754 32.533036
1252 9 2 0.5897 1.714706 23.003957 32.501950
1253 9 1 -1.1794 10.501893 23.775000 27.454775
1254 9 2 0.5897 9.916808 23.781667 28.247479
1255 9 2 0.5897 10.184338 24.574264 26.976735
1256 9 1 -1.1794 10.501893 23.775000 31.982725
1257 9 2 0.5897 10.305638 24.573873 32.524125
1258 9 2 0.5897 11.480928 23.841494 31.891678
1259 9 1 -1.1794 3.679775 25.160607 23.775000
1260 9 2 0.5897 3.181486 25.435080 24.578227
1261 9 2 0.5897 4.465410 25.747311 23.812997
1262 9 1 -1.1794 8.207725 25.160607 23.775000
1263 9 2 0.5897 8.780854 25.389855 24.544515
1264 9 2 0.5897 8.792041 25.428488 23.027135
1265 9 1 -1.1794 3.679775 34.276893 23.775000
1266 9 2 0.5897 3.869586 35.227377 23.879347
1267 9 2 0.5897 4.546334 33.843458 23.887136
1268 9 1 -1.1794 8.207725 34.276893 23.775000
1269 9 2 0.5897 8.122284 35.253258 23.691574
1270 9 2 0.5897 8.687717 34.051857 22.947637
1271 9 1 -1.1794 9.623525 29.718750 28.333143
1272 9 2 0.5897 9.813335 29.823098 29.283627
1273 9 2 0.5897 10.490084 29.830885 27.899708
1274 9 1 -1.1794 2.263975 29.718750 28.333143
1275 9 2 0.5897 2.178531 29.635324 29.309508
1276 9 2 0.5897 2.743967 28.891387 28.108108
1277 9 1 -1.1794 9.623525 29.718750 31.104357
1278 9 2 0.5897 9.125238 30.521978 31.378833
1279 9 2 0.5897 10.409160 29.756743 31.691061
1280 9 1 -1.1794 2.263975 29.718750 31.104357
1281 9 2 0.5897 2.837102 30.488267 31.333605
1282 9 2 0.5897 2.848293 28.970886 31.372239
1283 9 1 -1.1794 5.943750 31.104357 26.038975
1284 9 2 0.5897 5.185122 31.456106 26.563093
1285 9 2 0.5897 6.703124 31.389122 26.611075
1286 9 1 -1.1794 5.943750 31.104357 33.398525
1287 9 2 0.5897 5.979250 31.708206 34.177818
1288 9 2 0.5897 6.742237 31.390502 32.897842
1289 9 1 -1.1794 5.943750 28.333143 26.038975
1290 9 2 0.5897 6.149264 29.301242 26.105661
1291 9 2 0.5897 5.164278 28.419161 25.460681
1292 9 1 -1.1794 5.943750 28.333143 33.398525
1293 9 2 0.5897 5.899383 29.300713 33.570644
1294 9 2 0.5897 5.925192 27.941192 34.296889
1295 9 1 -1.1794 7.329357 33.398525 29.718750
1296 9 2 0.5897 6.361476 33.539884 29.624090
1297 9 2 0.5897 7.698320 34.300718 29.619322
1298 9 1 -1.1794 7.329357 26.038975 29.718750
1299 9 2 0.5897 7.660588 26.589285 30.465503
1300 9 2 0.5897 7.658458 26.558199 28.947706
1301 9 1 -1.1794 4.558143 33.398525 29.718750
1302 9 2 0.5897 3.973056 34.191229 29.725416
1303 9 2 0.5897 4.240588 32.920485 30.518014
1304 9 1 -1.1794 4.558143 26.038975 29.718750
1305 9 2 0.5897 4.361890 26.580372 30.517625
1306 9 2 0.5897 5.537178 25.947928 29.785242
1307 9 3 0.0 0.000000 23.775000 23.775000
1308 9 3 0.0 5.943750 29.718750 29.718750
1309 9 3 0.0 0.000000 26.746875 29.718750
1310 9 3 0.0 0.000000 32.690625 29.718750
1311 9 3 0.0 5.943750 23.775000 26.746875
1312 9 3 0.0 5.943750 23.775000 32.690625
1313 9 3 0.0 2.971875 29.718750 23.775000
1314 9 3 0.0 8.915625 29.718750 23.775000
1315 10 1 -1.1794 0.000000 41.606250 2.971875
1316 10 2 0.5897 0.009656 42.408882 2.401692
1317 10 2 0.5897 0.819206 41.741305 3.500477
1318 10 1 -1.1794 0.000000 41.606250 8.915625
1319 10 2 0.5897 0.281067 42.470936 9.277971
1320 10 2 0.5897 0.723234 41.475273 8.254920
1321 10 1 -1.1794 2.971875 35.662500 5.943750
1322 10 2 0.5897 2.409366 35.775295 6.741859
1323 10 2 0.5897 3.506404 36.488596 5.955505
1324 10 1 -1.1794 8.915625 35.662500 5.943750
1325 10 2 0.5897 8.353117 36.460610 6.056546
1326 10 2 0.5897 9.450153 35.674253 6.769848
1327 10 1 -1.1794 5.943750 38.634375 0.000000
1328 10 2 0.5897 6.224823 38.996727 0.864683
1329 10 2 0.5897 6.666985 37.973672 -0.130979
1330 10 1 -1.1794 5.943750 44.578125 0.000000
1331 10 2 0.5897 5.953409 44.007941 0.802632
1332 10 2 0.5897 6.762955 45.106727 0.135054
1333 10 1 -1.1794 2.195740 37.858240 2.195740
1334 10 2 0.5897 1.930743 37.065281 2.721735
1335 10 2 0.5897 2.708046 38.370572 2.862811
1336 10 1 -1.1794 9.691760 45.354260 2.195740
1337 10 2 0.5897 9.978388 46.179281 2.648501
1338 10 2 0.5897 9.116718 45.706314 1.480933
1339 10 1 -1.1794 9.691760 37.858240 9.691760
1340 10 2 0.5897 9.154281 38.444808 9.104938
1341 10 2 0.5897 10.452871 38.444832 9.905926
1342 10 1 -1.1794 2.195740 45.354260 9.691760
1343 10 2 0.5897 1.433515 44.851365 10.050449
1344 10 2 0.5897 2.654073 45.612280 10.533970
1345 10 1 -1.1794 8.139490 43.801990 3.748010
1346 10 2 0.5897 8.055452 44.269415 4.601005
1347 10 2 0.5897 8.845452 44.306810 3.294149
1348 10 1 -1.1794 3.748010 39.410510 3.748010
1349 10 2 0.5897 4.002365 38.847288 4.519697
1350 10 2 0.5897 4.639981 39.633336 3.410372
1351 10 1 -1.1794 8.139490 39.410510 8.139490
1352 10 2 0.5897 7.353136 39.773445 8.609681
1353 10 2 0.5897 8.567214 40.235492 7.810198
1354 10 1 -1.1794 3.748010 43.801990 8.139490
1355 10 2 0.5897 3.235613 44.394046 8.742287
1356 10 2 0.5897 4.491456 43.531971 8.725499
1357 10 1 -1.1794 9.691760 45.354260 9.691760
1358 10 2 0.5897 9.946137 46.125942 9.128541
1359 10 2 0.5897 10.583721 45.016596 9.914592
1360 10 1 -1.1794 2.195740 37.858240 9.691760
1361 10 2 0.5897 1.409385 38.328429 10.054694
1362 10 2 0.5897 2.623464 37.528947 10.516742
1363 10 1 -1.1794 2.195740 45.354260 2.195740
1364 10 2 0.5897 2.111703 46.207255 2.663166
1365 10 2 0.5897 2.901702 44.900398 2.700560
1366 10 1 -1.1794 9.691760 37.858240 2.195740
1367 10 2 0.5897 9.179361 38.461035 2.787796
1368 10 2 0.5897 10.435205 38.444250 1.925722
1369 10 1 -1.1794 3.748010 39.410510 8.139490
1370 10 2 0.5897 3.210531 38.823688 8.726058
1371 10 2 0.5897 4.509120 39.624677 8.726082
1372 10 1 -1.1794 8.139490 43.801990 8.139490
1373 10 2 0.5897 7.874494 44.327984 7.346530
1374 10 2 0.5897 8.651795 44.469063 8.651821
1375 10 1 -1.1794 3.748010 43.801990 3.748010
1376 10 2 0.5897 4.034637 44.254751 4.573031
1377 10 2 0.5897 3.172969 43.087181 4.100063
1378 10 1 -1.1794 8.139490 39.410510 3.748010
1379 10 2 0.5897 7.377269 39.769205 3.245111
1380 10 2 0.5897 8.597826 40.252718 4.006031
1381 10 1 -1.1794 0.000000 39.342275 1.385607
1382 10 2 0.5897 0.035498 40.121567 1.989457
1383 10 2 0.5897 0.798485 38.841590 1.671756
1384 10 1 -1.1794 0.000000 43.870225 1.385607
1385 10 2 0.5897 -0.758631 44.394342 1.737352
1386 10 2 0.5897 0.759372 44.442326 1.670376
1387 10 1 -1.1794 0.000000 39.342275 10.501893
1388 10 2 0.5897 -0.044368 39.514390 11.469464
1389 10 2 0.5897 -0.018559 40.240641 10.109946
1390 10 1 -1.1794 0.000000 43.870225 10.501893
1391 10 2 0.5897 0.205529 43.936938 11.469986
1392 10 2 0.5897 -0.779451 43.291897 10.587942
1393 10 1 -1.1794 1.385607 35.662500 3.679775
1394 10 2 0.5897 0.417726 35.567841 3.821134
1395 10 2 0.5897 1.754570 35.563072 4.581968
1396 10 1 -1.1794 1.385607 35.662500 8.207725
1397 10 2 0.5897 1.716836 36.409254 8.758036
1398 10 2 0.5897 1.714706 34.891457 8.726950
1399 10 1 -1.1794 10.501893 35.662500 3.679775
1400 10 2 0.5897 9.916808 35.669167 4.472479
1401 10 2 0.5897 10.184338 36.461764 3.201735
1402 10 1 -1.1794 10.501893 35.662500 8.207725
1403 10 2 0.5897 10.305638 36.461373 8.749125
1404 10 2 0.5897 11.480928 35.728994 8.116678
1405 10 1 -1.1794 3.679775 37.048107 0.000000
1406 10 2 0.5897 3.181486 37.322580 0.803227
1407 10 2 0.5897 4.465410 37.634811 0.037997
1408 10 1 -1.1794 8.207725 37.048107 0.000000
1409 10 2 0.5897 8.780854 37.277355 0.769515
1410 10 2 0.5897 8.792041 37.315988 -0.747865
1411 10 1 -1.1794 3.679775 46.164393 0.000000
1412 10 2 0.5897 3.869586 47.114877 0.104347
1413 10 2 0.5897 4.546334 45.730958 0.112136
1414 10 1 -1.1794 8.207725 46.164393 0.000000
1415 10 2 0.5897 8.122284 47.140758 -0.083426
1416 10 2 0.5897 8.687717 45.939357 -0.827363
1417 10 1 -1.1794 9.623525 41.606250 4.558143
1418 10 2 0.5897 9.813335 41.710598 5.508627
1419 10 2 0.5897 10.490084 41.718385 4.124708
1420 10 1 -1.1794 2.263975 41.606250 4.558143
1421 10 2 0.5897 2.178531 41.522824 5.534508
1422 10 2 0.5897 2.743967 40.778887 4.333108
1423 10 1 -1.1794 9.623525 41.606250 7.329357
1424 10 2 0.5897 9.125238 42.409478 7.603833
1425 10 2 0.5897 10.409160 41.644243 7.916061
1426 10 1 -1.1794 2.263975 41.606250 7.329357
1427 10 2 0.5897 2.837102 42.375767 7.558605
1428 10 2 0.5897 2.848293 40.858386 7.597239
1429 10 1 -1.1794 5.943750 42.991857 2.263975
1430 10 2 0.5897 5.185122 43.343606 2.788093
1431 10 2 0.5897 6.703124 43.276622 2.836075
1432 10 1 -1.1794 5.943750 42.991857 9.623525
1433 10 2 0.5897 5.979250 43.595706 10.402818
1434 10 2 0.5897 6.742237 43.278002 9.122842
1435 10 1 -1.1794 5.943750 40.220643 2.263975
1436 10 2 0.5897 6.149264 41.188742 2.330661
1437 10 2 0.5897 5.164278 40.306661 1.685681
1438 10 1 -1.1794 5.943750 40.220643 9.623525
1439 10 2 0.5897 5.899383 41.188213 9.795644
1440 10 2 0.5897 5.925192 39.828692 10.521889
1441 10 1 -1.1794 7.329357 45.286025 5.943750
1442 10 2 0.5897 6.361476 45.427384 5.849090
1443 10 2 0.5897 7.698320 46.188218 5.844322
1444 10 1 -1.1794 7.329357 37.926475 5.943750
1445 10 2 0.5897 7.660588 38.476785 6.690503
1446 10 2 0.5897 7.658458 38.445699 5.172706
1447 10 1 -1.1794 4.558143 45.286025 5.943750
1448 10 2 0.5897 3.973056 46.078729 5.950416
1449 10 2 0.5897 4.240588 44.807985 6.743014
1450 10 1 -1.1794 4.558143 37.926475 5.943750
1451 10 2 0.5897 4.361890 38.467872 6.742625
1452 10 2 0.5897 5.537178 37.835428 6.010242
1453 10 3 0.0 0.000000 35.662500 0.000000
1454 10 3 0.0 5.943750 41.606250 5.943750
1455 10 3 0.0 0.000000 38.634375 5.943750
1456 10 3 0.0 0.000000 44.578125 5.943750
1457 10 3 0.0 5.943750 35.662500 2.971875
1458 10 3 0.0 5.943750 35.662500 8.915625
1459 10 3 0.0 2.971875 41.606250 0.000000
1460 10 3 0.0 8.915625 41.606250 0.000000
1461 11 1 -1.1794 0.000000 41.606250 14.859375
1462 11 2 0.5897 0.009656 42.408882 14.289192
1463 11 2 0.5897 0.819206 41.741305 15.387977
1464 11 1 -1.1794 0.000000 41.606250 20.803125
1465 11 2 0.5897 0.281067 42.470936 21.165471
1466 11 2 0.5897 0.723234 41.475273 20.142420
1467 11 1 -1.1794 2.971875 35.662500 17.831250
1468 11 2 0.5897 2.409366 35.775295 18.629359
1469 11 2 0.5897 3.506404 36.488596 17.843005
1470 11 1 -1.1794 8.915625 35.662500 17.831250
1471 11 2 0.5897 8.353117 36.460610 17.944046
1472 11 2 0.5897 9.450153 35.674253 18.657348
1473 11 1 -1.1794 5.943750 38.634375 11.887500
1474 11 2 0.5897 6.224823 38.996727 12.752183
1475 11 2 0.5897 6.666985 37.973672 11.756521
1476 11 1 -1.1794 5.943750 44.578125 11.887500
1477 11 2 0.5897 5.953409 44.007941 12.690132
1478 11 2 0.5897 6.762955 45.106727 12.022554
1479 11 1 -1.1794 2.195740 37.858240 14.083240
1480 11 2 0.5897 1.930743 37.065281 14.609235
1481 11 2 0.5897 2.708046 38.370572 14.750311
1482 11 1 -1.1794 9.691760 45.354260 14.083240
1483 11 2 0.5897 9.978388 46.179281 14.536001
1484 11 2 0.5897 9.116718 45.706314 13.368433
1485 11 1 -1.1794 9.691760 37.858240 21.579260
1486 11 2 0.5897 9.154281 38.444808 20.992438
1487 11 2 0.5897 10.452871 38.444832 21.793426
1488 11 1 -1.1794 2.195740 45.354260 21.579260
1489 11 2 0.5897 1.433515 44.851365 21.937949
1490 11 2 0.5897 2.654073 45.612280 22.421470
1491 11 1 -1.1794 8.139490 43.801990 15.635510
1492 11 2 0.5897 8.055452 44.269415 16.488505
1493 11 2 0.5897 8.845452 44.306810 15.181649
1494 11 1 -1.1794 3.748010 39.410510 15.635510
1495 11 2 0.5897 4.002365 38.847288 16.407197
1496 11 2 0.5897 4.639981 39.633336 15.297872
1497 11 1 -1.1794 8.139490 39.410510 20.026990
1498 11 2 0.5897 7.353136 39.773445 20.497181
1499 11 2 0.5897 8.567214 40.235492 19.697698
1500 11 1 -1.1794 3.748010 43.801990 20.026990
1501 11 2 0.5897 3.235613 44.394046 20.629787
1502 11 2 0.5897 4.491456 43.531971 20.612999
1503 11 1 -1.1794 9.691760 45.354260 21.579260
1504 11 2 0.5897 9.946137 46.125942 21.016041
1505 11 2 0.5897 10.583721 45.016596 21.802092
1506 11 1 -1.1794 2.195740 37.858240 21.579260
1507 11 2 0.5897 1.409385 38.328429 21.942194
1508 11 2 0.5897 2.623464 37.528947 22.404242
1509 11 1 -1.1794 2.195740 45.354260 14.083240
1510 11 2 0.5897 2.111703 46.207255 14.550666
1511 11 2 0.5897 2.901702 44.900398 14.588060
1512 11 1 -1.1794 9.691760 37.858240 14.083240
1513 11 2 0.5897 9.179361 38.461035 14.675296
1514 11 2 0.5897 10.435205 38.444250 13.813222
1515 11 1 -1.1794 3.748010 39.410510 20.026990
1516 11 2 0.5897 3.210531 38.823688 20.613558
1517 11 2 0.5897 4.509120 39.624677 20.613582
1518 11 1 -1.1794 8.139490 43.801990 20.026990
1519 11 2 0.5897 7.874494 44.327984 19.234030
1520 11 2 0.5897 8.651795 44.469063 20.539321
1521 11 1 -1.1794 3.748010 43.801990 15.635510
1522 11 2 0.5897 4.034637 44.254751 16.460531
1523 11 2 0.5897 3.172969 43.087181 15.987563
1524 11 1 -1.1794 8.139490 39.410510 15.635510
1525 11 2 0.5897 7.377269 39.769205 15.132611
1526 11 2 0.5897 8.597826 40.252718 15.893531
1527 11 1 -1.1794 0.000000 39.342275 13.273107
1528 11 2 0.5897 0.035498 40.121567 13.876957
1529 11 2 0.5897 0.798485 38.841590 13.559256
1530 11 1 -1.1794 0.000000 43.870225 13.273107
1531 11 2 0.5897 -0.758631 44.394342 13.624852
1532 11 2 0.5897 0.759372 44.442326 13.557876
1533 11 1 -1.1794 0.000000 39.342275 22.389393
1534 11 2 0.5897 -0.044368 39.514390 23.356964
1535 11 2 0.5897 -0.018559 40.240641 21.997446
1536 11 1 -1.1794 0.000000 43.870225 22.389393
1537 11 2 0.5897 0.205529 43.936938 23.357486
1538 11 2 0.5897 -0.779451 43.291897 22.475442
1539 11 1 -1.1794 1.385607 35.662500 15.567275
1540 11 2 0.5897 0.417726 35.567841 15.708634
1541 11 2 0.5897 1.754570 35.563072 16.469468
1542 11 1 -1.1794 1.385607 35.662500 20.095225
1543 11 2 0.5897 1.716836 36.409254 20.645536
1544 11 2 0.5897 1.714706 34.891457 20.614450
1545 11 1 -1.1794 10.501893 35.662500 15.567275
1546 11 2 0.5897 9.916808 35.669167 16.359979
1547 11 2 0.5897 10.184338 36.461764 15.089235
1548 11 1 -1.1794 10.501893 35.662500 20.095225
1549 11 2 0.5897 10.305638 36.461373 20.636625
1550 11 2 0.5897 11.480928 35.728994 20.004178
1551 11 1 -1.1794 3.679775 37.048107 11.887500
1552 11 2 0.5897 3.181486 37.322580 12.690727
1553 11 2 0.5897 4.465410 37.634811 11.925497
1554 11 1 -1.1794 8.207725 37.048107 11.887500
1555 11 2 0.5897 8.780854 37.277355 12.657015
1556 11 2 0.5897 8.792041 37.315988 11.139635
1557 11 1 -1.1794 3.679775 46.164393 11.887500
1558 11 2 0.5897 3.869586 47.114877 11.991847
1559 11 2 0.5897 4.546334 45.730958 11.999636
1560 11 1 -1.1794 8.207725 46.164393 11.887500
1561 11 2 0.5897 8.122284 47.140758 11.804074
1562 11 2 0.5897 8.687717 45.939357 11.060137
1563 11 1 -1.1794 9.623525 41.606250 16.445643
1564 11 2 0.5897 9.813335 41.710598 17.396127
1565 11 2 0.5897 10.490084 41.718385 16.012208
1566 11 1 -1.1794 2.263975 41.606250 16.445643
1567 11 2 0.5897 2.178531 41.522824 17.422008
1568 11 2 0.5897 2.743967 40.778887 16.220608
1569 11 1 -1.1794 9.623525 41.606250 19.216857
1570 11 2 0.5897 9.125238 42.409478 19.491333
1571 11 2 0.5897 10.409160 41.644243 19.803561
1572 11 1 -1.1794 2.263975 41.606250 19.216857
1573 11 2 0.5897 2.837102 42.375767 19.446105
1574 11 2 0.5897 2.848293 40.858386 19.484739
1575 11 1 -1.1794 5.943750 42.991857 14.151475
1576 11 2 0.5897 5.185122 43.343606 14.675593
1577 11 2 0.5897 6.703124 43.276622 14.723575
1578 11 1 -1.1794 5.943750 42.991857 21.511025
1579 11 2 0.5897 5.979250 43.595706 22.290318
1580 11 2 0.5897 6.742237 43.278002 21.010342
1581 11 1 -1.1794 5.943750 40.220643 14.151475
1582 11 2 0.5897 6.149264 41.188742 14.218161
1583 11 2 0.5897 5.164278 40.306661 13.573181
1584 11 1 -1.1794 5.943750 40.220643 21.511025
1585 11 2 0.5897 5.899383 41.188213 21.683144
1586 11 2 0.5897 5.925192 39.828692 22.409389
1587 11 1 -1.1794 7.329357 45.286025 17.831250
1588 11 2 0.5897 6.361476 45.427384 17.736590
1589 11 2 0.5897 7.698320 46.188218 17.731822
1590 11 1 -1.1794 7.329357 37.926475 17.831250
1591 11 2 0.5897 7.660588 38.476785 18.578003
1592 11 2 0.5897 7.658458 38.445699 17.060206
1593 11 1 -1.1794 4.558143 45.286025 17.831250
1594 11 2 0.5897 3.973056 46.078729 17.837916
1595 11 2 0.5897 4.240588 44.807985 18.630514
1596 11 1 -1.1794 4.558143 37.926475 17.831250
1597 11 2 0.5897 4.361890 38.467872 18.630125
1598 11 2 0.5897 5.537178 37.835428 17.897742
1599 11 3 0.0 0.000000 35.662500 11.887500
1600 11 3 0.0 5.943750 41.606250 17.831250
1601 11 3 0.0 0.000000 38.634375 17.831250
1602 11 3 0.0 0.000000 44.578125 17.831250
1603 11 3 0.0 5.943750 35.662500 14.859375
1604 11 3 0.0 5.943750 35.662500 20.803125
1605 11 3 0.0 2.971875 41.606250 11.887500
1606 11 3 0.0 8.915625 41.606250 11.887500
1607 12 1 -1.1794 0.000000 41.606250 26.746875
1608 12 2 0.5897 0.009656 42.408882 26.176692
1609 12 2 0.5897 0.819206 41.741305 27.275477
1610 12 1 -1.1794 0.000000 41.606250 32.690625
1611 12 2 0.5897 0.281067 42.470936 33.052971
1612 12 2 0.5897 0.723234 41.475273 32.029920
1613 12 1 -1.1794 2.971875 35.662500 29.718750
1614 12 2 0.5897 2.409366 35.775295 30.516859
1615 12 2 0.5897 3.506404 36.488596 29.730505
1616 12 1 -1.1794 8.915625 35.662500 29.718750
1617 12 2 0.5897 8.353117 36.460610 29.831546
1618 12 2 0.5897 9.450153 35.674253 30.544848
1619 12 1 -1.1794 5.943750 38.634375 23.775000
1620 12 2 0.5897 6.224823 38.996727 24.639683
1621 12 2 0.5897 6.666985 37.973672 23.644021
1622 12 1 -1.1794 5.943750 44.578125 23.775000
1623 12 2 0.5897 5.953409 44.007941 24.577632
1624 12 2 0.5897 6.762955 45.106727 23.910054
1625 12 1 -1.1794 2.195740 37.858240 25.970740
1626 12 2 0.5897 1.930743 37.065281 26.496735
1627 12 2 0.5897 2.708046 38.370572 26.637811
1628 12 1 -1.1794 9.691760 45.354260 25.970740
1629 12 2 0.5897 9.978388 46.179281 26.423501
1630 12 2 0.5897 9.116718 45.706314 25.255933
1631 12 1 -1.1794 9.691760 37.858240 33.466760
1632 12 2 0.5897 9.154281 38.444808 32.879938
1633 12 2 0.5897 10.452871 38.444832 33.680926
1634 12 1 -1.1794 2.195740 45.354260 33.466760
1635 12 2 0.5897 1.433515 44.851365 33.825449
1636 12 2 0.5897 2.654073 45.612280 34.308970
1637 12 1 -1.1794 8.139490 43.801990 27.523010
1638 12 2 0.5897 8.055452 44.269415 28.376005
1639 12 2 0.5897 8.845452 44.306810 27.069149
1640 12 1 -1.1794 3.748010 39.410510 27.523010
1641 12 2 0.5897 4.002365 38.847288 28.294697
1642 12 2 0.5897 4.639981 39.633336 27.185372
1643 12 1 -1.1794 8.139490 39.410510 31.914490
1644 12 2 0.5897 7.353136 39.773445 32.384681
1645 12 2 0.5897 8.567214 40.235492 31.585198
1646 12 1 -1.1794 3.748010 43.801990 31.914490
1647 12 2 0.5897 3.235613 44.394046 32.517287
1648 12 2 0.5897 4.491456 43.531971 32.500499
1649 12 1 -1.1794 9.691760 45.354260 33.466760
1650 12 2 0.5897 9.946137 46.125942 32.903541
1651 12 2 0.5897 10.583721 45.016596 33.689592
1652 12 1 -1.1794 2.195740 37.858240 33.466760
1653 12 2 0.5897 1.409385 38.328429 33.829694
1654 12 2 0.5897 2.623464 37.528947 34.291742
1655 12 1 -1.1794 2.195740 45.354260 25.970740
1656 12 2 0.5897 2.111703 46.207255 26.438166
1657 12 2 0.5897 2.901702 44.900398 26.475560
1658 12 1 -1.1794 9.691760 37.858240 25.970740
1659 12 2 0.5897 9.179361 38.461035 26.562796
1660 12 2 0.5897 10.435205 38.444250 25.700722
1661 12 1 -1.1794 3.748010 39.410510 31.914490
1662 12 2 0.5897 3.210531 38.823688 32.501058
1663 12 2 0.5897 4.509120 39.624677 32.501082
1664 12 1 -1.1794 8.139490 43.801990 31.914490
1665 12 2 0.5897 7.874494 44.327984 31.121530
1666 12 2 0.5897 8.651795 44.469063 32.426821
1667 12 1 -1.1794 3.748010 43.801990 27.523010
1668 12 2 0.5897 4.034637 44.254751 28.348031
1669 12 2 0.5897 3.172969 43.087181 27.875063
1670 12 1 -1.1794 8.139490 39.410510 27.523010
1671 12 2 0.5897 7.377269 39.769205 27.020111
1672 12 2 0.5897 8.597826 40.252718 27.781031
1673 12 1 -1.1794 0.000000 39.342275 25.160607
1674 12 2 0.5897 0.035498 40.121567 25.764457
1675 12 2 0.5897 0.798485 38.841590 25.446756
1676 12 1 -1.1794 0.000000 43.870225 25.160607
1677 12 2 0.5897 -0.758631 44.394342 25.512352
1678 12 2 0.5897 0.759372 44.442326 25.445376
1679 12 1 -1.1794 0.000000 39.342275 34.276893
1680 12 2 0.5897 -0.044368 39.514390 35.244464
1681 12 2 0.5897 -0.018559 40.240641 33.884946
1682 12 1 -1.1794 0.000000 43.870225 34.276893
1683 12 2 0.5897 0.205529 43.936938 35.244986
1684 12 2 0.5897 -0.779451 43.291897 34.362942
1685 12 1 -1.1794 1.385607 35.662500 27.454775
1686 12 2 0.5897 0.417726 35.567841 27.596134
1687 12 2 0.5897 1.754570 35.563072 28.356968
1688 12 1 -1.1794 1.385607 35.662500 31.982725
1689 12 2 0.5897 1.716836 36.409254 32.533036
1690 12 2 0.5897 1.714706 34.891457 32.501950
1691 12 1 -1.1794 10.501893 35.662500 27.454775
1692 12 2 0.5897 9.916808 35.669167 28.247479
1693 12 2 0.5897 10.184338 36.461764 26.976735
1694 12 1 -1.1794 10.501893 35.662500 31.982725
1695 12 2 0.5897 10.305638 36.461373 32.524125
1696 12 2 0.5897 11.480928 35.728994 31.891678
1697 12 1 -1.1794 3.679775 37.048107 23.775000
1698 12 2 0.5897 3.181486 37.322580 24.578227
1699 12 2 0.5897 4.465410 37.634811 23.812997
1700 12 1 -1.1794 8.207725 37.048107 23.775000
1701 12 2 0.5897 8.780854 37.277355 24.544515
1702 12 2 0.5897 8.792041 37.315988 23.027135
1703 12 1 -1.1794 3.679775 46.164393 23.775000
1704 12 2 0.5897 3.869586 47.114877 23.879347
1705 12 2 0.5897 4.546334 45.730958 23.887136
1706 12 1 -1.1794 8.207725 46.164393 23.775000
1707 12 2 0.5897 8.122284 47.140758 23.691574
1708 12 2 0.5897 8.687717 45.939357 22.947637
1709 12 1 -1.1794 9.623525 41.606250 28.333143
1710 12 2 0.5897 9.813335 41.710598 29.283627
1711 12 2 0.5897 10.490084 41.718385 27.899708
1712 12 1 -1.1794 2.263975 41.606250 28.333143
1713 12 2 0.5897 2.178531 41.522824 29.309508
1714 12 2 0.5897 2.743967 40.778887 28.108108
1715 12 1 -1.1794 9.623525 41.606250 31.104357
1716 12 2 0.5897 9.125238 42.409478 31.378833
1717 12 2 0.5897 10.409160 41.644243 31.691061
1718 12 1 -1.1794 2.263975 41.606250 31.104357
1719 12 2 0.5897 2.837102 42.375767 31.333605
1720 12 2 0.5897 2.848293 40.858386 31.372239
1721 12 1 -1.1794 5.943750 42.991857 26.038975
1722 12 2 0.5897 5.185122 43.343606 26.563093
1723 12 2 0.5897 6.703124 43.276622 26.611075
1724 12 1 -1.1794 5.943750 42.991857 33.398525
1725 12 2 0.5897 5.979250 43.595706 34.177818
1726 12 2 0.5897 6.742237 43.278002 32.897842
1727 12 1 -1.1794 5.943750 40.220643 26.038975
1728 12 2 0.5897 6.149264 41.188742 26.105661
1729 12 2 0.5897 5.164278 40.306661 25.460681
1730 12 1 -1.1794 5.943750 40.220643 33.398525
1731 12 2 0.5897 5.899383 41.188213 33.570644
1732 12 2 0.5897 5.925192 39.828692 34.296889
1733 12 1 -1.1794 7.329357 45.286025 29.718750
1734 12 2 0.5897 6.361476 45.427384 29.624090
1735 12 2 0.5897 7.698320 46.188218 29.619322
1736 12 1 -1.1794 7.329357 37.926475 29.718750
1737 12 2 0.5897 7.660588 38.476785 30.465503
1738 12 2 0.5897 7.658458 38.445699 28.947706
1739 12 1 -1.1794 4.558143 45.286025 29.718750
1740 12 2 0.5897 3.973056 46.078729 29.725416
1741 12 2 0.5897 4.240588 44.807985 30.518014
1742 12 1 -1.1794 4.558143 37.926475 29.718750
1743 12 2 0.5897 4.361890 38.467872 30.517625
1744 12 2 0.5897 5.537178 37.835428 29.785242
1745 12 3 0.0 0.000000 35.662500 23.775000
1746 12 3 0.0 5.943750 41.606250 29.718750
1747 12 3 0.0 0.000000 38.634375 29.718750
1748 12 3 0.0 0.000000 44.578125 29.718750
1749 12 3 0.0 5.943750 35.662500 26.746875
1750 12 3 0.0 5.943750 35.662500 32.690625
1751 12 3 0.0 2.971875 41.606250 23.775000
1752 12 3 0.0 8.915625 41.606250 23.775000
1753 13 1 -1.1794 11.887500 5.943750 2.971875
1754 13 2 0.5897 11.897156 6.746382 2.401692
1755 13 2 0.5897 12.706706 6.078805 3.500477
1756 13 1 -1.1794 11.887500 5.943750 8.915625
1757 13 2 0.5897 12.168567 6.808436 9.277971
1758 13 2 0.5897 12.610734 5.812773 8.254920
1759 13 1 -1.1794 14.859375 0.000000 5.943750
1760 13 2 0.5897 14.296866 0.112795 6.741859
1761 13 2 0.5897 15.393904 0.826096 5.955505
1762 13 1 -1.1794 20.803125 0.000000 5.943750
1763 13 2 0.5897 20.240617 0.798110 6.056546
1764 13 2 0.5897 21.337653 0.011753 6.769848
1765 13 1 -1.1794 17.831250 2.971875 0.000000
1766 13 2 0.5897 18.112323 3.334227 0.864683
1767 13 2 0.5897 18.554485 2.311172 -0.130979
1768 13 1 -1.1794 17.831250 8.915625 0.000000
1769 13 2 0.5897 17.840909 8.345441 0.802632
1770 13 2 0.5897 18.650455 9.444227 0.135054
1771 13 1 -1.1794 14.083240 2.195740 2.195740
1772 13 2 0.5897 13.818243 1.402781 2.721735
1773 13 2 0.5897 14.595546 2.708072 2.862811
1774 13 1 -1.1794 21.579260 9.691760 2.195740
1775 13 2 0.5897 21.865888 10.516781 2.648501
1776 13 2 0.5897 21.004218 10.043814 1.480933
1777 13 1 -1.1794 21.579260 2.195740 9.691760
1778 13 2 0.5897 21.041781 2.782308 9.104938
1779 13 2 0.5897 22.340371 2.782332 9.905926
1780 13 1 -1.1794 14.083240 9.691760 9.691760
1781 13 2 0.5897 13.321015 9.188865 10.050449
1782 13 2 0.5897 14.541573 9.949780 10.533970
1783 13 1 -1.1794 20.026990 8.139490 3.748010
1784 13 2 0.5897 19.942952 8.606915 4.601005
1785 13 2 0.5897 20.732952 8.644310 3.294149
1786 13 1 -1.1794 15.635510 3.748010 3.748010
1787 13 2 0.5897 15.889865 3.184788 4.519697
1788 13 2 0.5897 16.527481 3.970836 3.410372
1789 13 1 -1.1794 20.026990 3.748010 8.139490
1790 13 2 0.5897 19.240636 4.110945 8.609681
1791 13 2 0.5897 20.454714 4.572992 7.810198
1792 13 1 -1.1794 15.635510 8.139490 8.139490
1793 13 2 0.5897 15.123113 8.731546 8.742287
1794 13 2 0.5897 16.378956 7.869471 8.725499
1795 13 1 -1.1794 21.579260 9.691760 9.691760
1796 13 2 0.5897 21.833637 10.463442 9.128541
1797 13 2 0.5897 22.471221 9.354096 9.914592
1798 13 1 -1.1794 14.083240 2.195740 9.691760
1799 13 2 0.5897 13.296885 2.665929 10.054694
1800 13 2 0.5897 14.510964 1.866447 10.516742
1801 13 1 -1.1794 14.083240 9.691760 2.195740
1802 13 2 0.5897 13.999203 10.544755 2.663166
1803 13 2 0.5897 14.789202 9.237898 2.700560
1804 13 1 -1.1794 21.579260 2.195740 2.195740
1805 13 2 0.5897 21.066861 2.798535 2.787796
1806 13 2 0.5897 22.322705 2.781750 1.925722
1807 13 1 -1.1794 15.635510 3.748010 8.139490
1808 13 2 0.5897 15.098031 3.161188 8.726058
1809 13 2 0.5897 16.396620 3.962177 8.726082
1810 13 1 -1.1794 20.026990 8.139490 8.139490
1811 13 2 0.5897 19.761994 8.665484 7.346530
1812 13 2 0.5897 20.539295 8.806563 8.651821
1813 13 1 -1.1794 15.635510 8.139490 3.748010
1814 13 2 0.5897 15.922137 8.592251 4.573031
1815 13 2 0.5897 15.060469 7.424681 4.100063
1816 13 1 -1.1794 20.026990 3.748010 3.748010
1817 13 2 0.5897 19.264769 4.106705 3.245111
1818 13 2 0.5897 20.485326 4.590218 4.006031
1819 13 1 -1.1794 11.887500 3.679775 1.385607
1820 13 2 0.5897 11.922998 4.459067 1.989457
1821 13 2 0.5897 12.685985 3.179090 1.671756
1822 13 1 -1.1794 11.887500 8.207725 1.385607
1823 13 2 0.5897 11.128869 8.731842 1.737352
1824 13 2 0.5897 12.646872 8.779826 1.670376
1825 13 1 -1.1794 11.887500 3.679775 10.501893
1826 13 2 0.5897 11.843132 3.851890 11.469464
1827 13 2 0.5897 11.868941 4.578141 10.109946
1828 13 1 -1.1794 11.887500 8.207725 10.501893
1829 13 2 0.5897 12.093029 8.274438 11.469986
1830 13 2 0.5897 11.108049 7.629397 10.587942
1831 13 1 -1.1794 13.273107 0.000000 3.679775
1832 13 2 0.5897 12.305226 -0.094659 3.821134
1833 13 2 0.5897 13.642070 -0.099428 4.581968
1834 13 1 -1.1794 13.273107 0.000000 8.207725
1835 13 2 0.5897 13.604336 0.746754 8.758036
1836 13 2 0.5897 13.602206 -0.771043 8.726950
1837 13 1 -1.1794 22.389393 0.000000 3.679775
1838 13 2 0.5897 21.804308 0.006667 4.472479
1839 13 2 0.5897 22.071838 0.799264 3.201735
1840 13 1 -1.1794 22.389393 0.000000 8.207725
1841 13 2 0.5897 22.193138 0.798873 8.749125
1842 13 2 0.5897 23.368428 0.066494 8.116678
1843 13 1 -1.1794 15.567275 1.385607 0.000000
1844 13 2 0.5897 15.068986 1.660080 0.803227
1845 13 2 0.5897 16.352910 1.972311 0.037997
1846 13 1 -1.1794 20.095225 1.385607 0.000000
1847 13 2 0.5897 20.668354 1.614855 0.769515
1848 13 2 0.5897 20.679541 1.653488 -0.747865
1849 13 1 -1.1794 15.567275 10.501893 0.000000
1850 13 2 0.5897 15.757086 11.452377 0.104347
1851 13 2 0.5897 16.433834 10.068458 0.112136
1852 13 1 -1.1794 20.095225 10.501893 0.000000
1853 13 2 0.5897 20.009784 11.478258 -0.083426
1854 13 2 0.5897 20.575217 10.276857 -0.827363
1855 13 1 -1.1794 21.511025 5.943750 4.558143
1856 13 2 0.5897 21.700835 6.048098 5.508627
1857 13 2 0.5897 22.377584 6.055885 4.124708
1858 13 1 -1.1794 14.151475 5.943750 4.558143
1859 13 2 0.5897 14.066031 5.860324 5.534508
1860 13 2 0.5897 14.631467 5.116387 4.333108
1861 13 1 -1.1794 21.511025 5.943750 7.329357
1862 13 2 0.5897 21.012738 6.746978 7.603833
1863 13 2 0.5897 22.296660 5.981743 7.916061
1864 13 1 -1.1794 14.151475 5.943750 7.329357
1865 13 2 0.5897 14.724602 6.713267 7.558605
1866 13 2 0.5897 14.735793 5.195886 7.597239
1867 13 1 -1.1794 17.831250 7.329357 2.263975
1868 13 2 0.5897 17.072622 7.681106 2.788093
1869 13 2 0.5897 18.590624 7.614122 2.836075
1870 13 1 -1.1794 17.831250 7.329357 9.623525
1871 13 2 0.5897 17.866750 7.933206 10.402818
1872 13 2 0.5897 18.629737 7.615502 9.122842
1873 13 1 -1.1794 17.831250 4.558143 2.263975
1874 13 2 0.5897 18.036764 5.526242 2.330661
1875 13 2 0.5897 17.051778 4.644161 1.685681
1876 13 1 -1.1794 17.831250 4.558143 9.623525
1877 13 2 0.5897 17.786883 5.525713 9.795644
1878 13 2 0.5897 17.812692 4.166192 10.521889
1879 13 1 -1.1794 19.216857 9.623525 5.943750
1880 13 2 0.5897 18.248976 9.764884 5.849090
1881 13 2 0.5897 19.585820 10.525718 5.844322
1882 13 1 -1.1794 19.216857 2.263975 5.943750
1883 13 2 0.5897 19.548088 2.814285 6.690503
1884 13 2 0.5897 19.545958 2.783199 5.172706
1885 13 1 -1.1794 16.445643 9.623525 5.943750
1886 13 2 0.5897 15.860556 10.416229 5.950416
1887 13 2 0.5897 16.128088 9.145485 6.743014
1888 13 1 -1.1794 16.445643 2.263975 5.943750
1889 13 2 0.5897 16.249390 2.805372 6.742625
1890 13 2 0.5897 17.424678 2.172928 6.010242
1891 13 3 0.0 11.887500 0.000000 0.000000
1892 13 3 0.0 17.831250 5.943750 5.943750
1893 13 3 0.0 11.887500 2.971875 5.943750
1894 13 3 0.0 11.887500 8.915625 5.943750
1895 13 3 0.0 17.831250 0.000000 2.971875
1896 13 3 0.0 17.831250 0.000000 8.915625
1897 13 3 0.0 14.859375 5.943750 0.000000
1898 13 3 0.0 20.803125 5.943750 0.000000
1899 14 1 -1.1794 11.887500 5.943750 14.859375
1900 14 2 0.5897 11.897156 6.746382 14.289192
1901 14 2 0.5897 12.706706 6.078805 15.387977
1902 14 1 -1.1794 11.887500 5.943750 20.803125
1903 14 2 0.5897 12.168567 6.808436 21.165471
1904 14 2 0.5897 12.610734 5.812773 20.142420
1905 14 1 -1.1794 14.859375 0.000000 17.831250
1906 14 2 0.5897 14.296866 0.112795 18.629359
1907 14 2 0.5897 15.393904 0.826096 17.843005
1908 14 1 -1.1794 20.803125 0.000000 17.831250
1909 14 2 0.5897 20.240617 0.798110 17.944046
1910 14 2 0.5897 21.337653 0.011753 18.657348
1911 14 1 -1.1794 17.831250 2.971875 11.887500
1912 14 2 0.5897 18.112323 3.334227 12.752183
1913 14 2 0.5897 18.554485 2.311172 11.756521
1914 14 1 -1.1794 17.831250 8.915625 11.887500
1915 14 2 0.5897 17.840909 8.345441 12.690132
1916 14 2 0.5897 18.650455 9.444227 12.022554
1917 14 1 -1.1794 14.083240 2.195740 14.083240
1918 14 2 0.5897 13.818243 1.402781 14.609235
1919 14 2 0.5897 14.595546 2.708072 14.750311
1920 14 1 -1.1794 21.579260 9.691760 14.083240
1921 14 2 0.5897 21.865888 10.516781 14.536001
1922 14 2 0.5897 21.004218 10.043814 13.368433
1923 14 1 -1.1794 21.579260 2.195740 21.579260
1924 14 2 0.5897 21.041781 2.782308 20.992438
1925 14 2 0.5897 22.340371 2.782332 21.793426
1926 14 1 -1.1794 14.083240 9.691760 21.579260
1927 14 2 0.5897 13.321015 9.188865 21.937949
1928 14 2 0.5897 14.541573 9.949780 22.421470
1929 14 1 -1.1794 20.026990 8.139490 15.635510
1930 14 2 0.5897 19.942952 8.606915 16.488505
1931 14 2 0.5897 20.732952 8.644310 15.181649
1932 14 1 -1.1794 15.635510 3.748010 15.635510
1933 14 2 0.5897 15.889865 3.184788 16.407197
1934 14 2 0.5897 16.527481 3.970836 15.297872
1935 14 1 -1.1794 20.026990 3.748010 20.026990
1936 14 2 0.5897 19.240636 4.110945 20.497181
1937 14 2 0.5897 20.454714 4.572992 19.697698
1938 14 1 -1.1794 15.635510 8.139490 20.026990
1939 14 2 0.5897 15.123113 8.731546 20.629787
1940 14 2 0.5897 16.378956 7.869471 20.612999
1941 14 1 -1.1794 21.579260 9.691760 21.579260
1942 14 2 0.5897 21.833637 10.463442 21.016041
1943 14 2 0.5897 22.471221 9.354096 21.802092
1944 14 1 -1.1794 14.083240 2.195740 21.579260
1945 14 2 0.5897 13.296885 2.665929 21.942194
1946 14 2 0.5897 14.510964 1.866447 22.404242
1947 14 1 -1.1794 14.083240 9.691760 14.083240
1948 14 2 0.5897 13.999203 10.544755 14.550666
1949 14 2 0.5897 14.789202 9.237898 14.588060
1950 14 1 -1.1794 21.579260 2.195740 14.083240
1951 14 2 0.5897 21.066861 2.798535 14.675296
1952 14 2 0.5897 22.322705 2.781750 13.813222
1953 14 1 -1.1794 15.635510 3.748010 20.026990
1954 14 2 0.5897 15.098031 3.161188 20.613558
1955 14 2 0.5897 16.396620 3.962177 20.613582
1956 14 1 -1.1794 20.026990 8.139490 20.026990
1957 14 2 0.5897 19.761994 8.665484 19.234030
1958 14 2 0.5897 20.539295 8.806563 20.539321
1959 14 1 -1.1794 15.635510 8.139490 15.635510
1960 14 2 0.5897 15.922137 8.592251 16.460531
1961 14 2 0.5897 15.060469 7.424681 15.987563
1962 14 1 -1.1794 20.026990 3.748010 15.635510
1963 14 2 0.5897 19.264769 4.106705 15.132611
1964 14 2 0.5897 20.485326 4.590218 15.893531
1965 14 1 -1.1794 11.887500 3.679775 13.273107
1966 14 2 0.5897 11.922998 4.459067 13.876957
1967 14 2 0.5897 12.685985 3.179090 13.559256
1968 14 1 -1.1794 11.887500 8.207725 13.273107
1969 14 2 0.5897 11.128869 8.731842 13.624852
1970 14 2 0.5897 12.646872 8.779826 13.557876
1971 14 1 -1.1794 11.887500 3.679775 22.389393
1972 14 2 0.5897 11.843132 3.851890 23.356964
1973 14 2 0.5897 11.868941 4.578141 21.997446
1974 14 1 -1.1794 11.887500 8.207725 22.389393
1975 14 2 0.5897 12.093029 8.274438 23.357486
1976 14 2 0.5897 11.108049 7.629397 22.475442
1977 14 1 -1.1794 13.273107 0.000000 15.567275
1978 14 2 0.5897 12.305226 -0.094659 15.708634
1979 14 2 0.5897 13.642070 -0.099428 16.469468
1980 14 1 -1.1794 13.273107 0.000000 20.095225
1981 14 2 0.5897 13.604336 0.746754 20.645536
1982 14 2 0.5897 13.602206 -0.771043 20.614450
1983 14 1 -1.1794 22.389393 0.000000 15.567275
1984 14 2 0.5897 21.804308 0.006667 16.359979
1985 14 2 0.5897 22.071838 0.799264 15.089235
1986 14 1 -1.1794 22.389393 0.000000 20.095225
1987 14 2 0.5897 22.193138 0.798873 20.636625
1988 14 2 0.5897 23.368428 0.066494 20.004178
1989 14 1 -1.1794 15.567275 1.385607 11.887500
1990 14 2 0.5897 15.068986 1.660080 12.690727
1991 14 2 0.5897 16.352910 1.972311 11.925497
1992 14 1 -1.1794 20.095225 1.385607 11.887500
1993 14 2 0.5897 20.668354 1.614855 12.657015
1994 14 2 0.5897 20.679541 1.653488 11.139635
1995 14 1 -1.1794 15.567275 10.501893 11.887500
1996 14 2 0.5897 15.757086 11.452377 11.991847
1997 14 2 0.5897 16.433834 10.068458 11.999636
1998 14 1 -1.1794 20.095225 10.501893 11.887500
1999 14 2 0.5897 20.009784 11.478258 11.804074
2000 14 2 0.5897 20.575217 10.276857 11.060137
2001 14 1 -1.1794 21.511025 5.943750 16.445643
2002 14 2 0.5897 21.700835 6.048098 17.396127
2003 14 2 0.5897 22.377584 6.055885 16.012208
2004 14 1 -1.1794 14.151475 5.943750 16.445643
2005 14 2 0.5897 14.066031 5.860324 17.422008
2006 14 2 0.5897 14.631467 5.116387 16.220608
2007 14 1 -1.1794 21.511025 5.943750 19.216857
2008 14 2 0.5897 21.012738 6.746978 19.491333
2009 14 2 0.5897 22.296660 5.981743 19.803561
2010 14 1 -1.1794 14.151475 5.943750 19.216857
2011 14 2 0.5897 14.724602 6.713267 19.446105
2012 14 2 0.5897 14.735793 5.195886 19.484739
2013 14 1 -1.1794 17.831250 7.329357 14.151475
2014 14 2 0.5897 17.072622 7.681106 14.675593
2015 14 2 0.5897 18.590624 7.614122 14.723575
2016 14 1 -1.1794 17.831250 7.329357 21.511025
2017 14 2 0.5897 17.866750 7.933206 22.290318
2018 14 2 0.5897 18.629737 7.615502 21.010342
2019 14 1 -1.1794 17.831250 4.558143 14.151475
2020 14 2 0.5897 18.036764 5.526242 14.218161
2021 14 2 0.5897 17.051778 4.644161 13.573181
2022 14 1 -1.1794 17.831250 4.558143 21.511025
2023 14 2 0.5897 17.786883 5.525713 21.683144
2024 14 2 0.5897 17.812692 4.166192 22.409389
2025 14 1 -1.1794 19.216857 9.623525 17.831250
2026 14 2 0.5897 18.248976 9.764884 17.736590
2027 14 2 0.5897 19.585820 10.525718 17.731822
2028 14 1 -1.1794 19.216857 2.263975 17.831250
2029 14 2 0.5897 19.548088 2.814285 18.578003
2030 14 2 0.5897 19.545958 2.783199 17.060206
2031 14 1 -1.1794 16.445643 9.623525 17.831250
2032 14 2 0.5897 15.860556 10.416229 17.837916
2033 14 2 0.5897 16.128088 9.145485 18.630514
2034 14 1 -1.1794 16.445643 2.263975 17.831250
2035 14 2 0.5897 16.249390 2.805372 18.630125
2036 14 2 0.5897 17.424678 2.172928 17.897742
2037 14 3 0.0 11.887500 0.000000 11.887500
2038 14 3 0.0 17.831250 5.943750 17.831250
2039 14 3 0.0 11.887500 2.971875 17.831250
2040 14 3 0.0 11.887500 8.915625 17.831250
2041 14 3 0.0 17.831250 0.000000 14.859375
2042 14 3 0.0 17.831250 0.000000 20.803125
2043 14 3 0.0 14.859375 5.943750 11.887500
2044 14 3 0.0 20.803125 5.943750 11.887500
2045 15 1 -1.1794 11.887500 5.943750 26.746875
2046 15 2 0.5897 11.897156 6.746382 26.176692
2047 15 2 0.5897 12.706706 6.078805 27.275477
2048 15 1 -1.1794 11.887500 5.943750 32.690625
2049 15 2 0.5897 12.168567 6.808436 33.052971
2050 15 2 0.5897 12.610734 5.812773 32.029920
2051 15 1 -1.1794 14.859375 0.000000 29.718750
2052 15 2 0.5897 14.296866 0.112795 30.516859
2053 15 2 0.5897 15.393904 0.826096 29.730505
2054 15 1 -1.1794 20.803125 0.000000 29.718750
2055 15 2 0.5897 20.240617 0.798110 29.831546
2056 15 2 0.5897 21.337653 0.011753 30.544848
2057 15 1 -1.1794 17.831250 2.971875 23.775000
2058 15 2 0.5897 18.112323 3.334227 24.639683
2059 15 2 0.5897 18.554485 2.311172 23.644021
2060 15 1 -1.1794 17.831250 8.915625 23.775000
2061 15 2 0.5897 17.840909 8.345441 24.577632
2062 15 2 0.5897 18.650455 9.444227 23.910054
2063 15 1 -1.1794 14.083240 2.195740 25.970740
2064 15 2 0.5897 13.818243 1.402781 26.496735
2065 15 2 0.5897 14.595546 2.708072 26.637811
2066 15 1 -1.1794 21.579260 9.691760 25.970740
2067 15 2 0.5897 21.865888 10.516781 26.423501
2068 15 2 0.5897 21.004218 10.043814 25.255933
2069 15 1 -1.1794 21.579260 2.195740 33.466760
2070 15 2 0.5897 21.041781 2.782308 32.879938
2071 15 2 0.5897 22.340371 2.782332 33.680926
2072 15 1 -1.1794 14.083240 9.691760 33.466760
2073 15 2 0.5897 13.321015 9.188865 33.825449
2074 15 2 0.5897 14.541573 9.949780 34.308970
2075 15 1 -1.1794 20.026990 8.139490 27.523010
2076 15 2 0.5897 19.942952 8.606915 28.376005
2077 15 2 0.5897 20.732952 8.644310 27.069149
2078 15 1 -1.1794 15.635510 3.748010 27.523010
2079 15 2 0.5897 15.889865 3.184788 28.294697
2080 15 2 0.5897 16.527481 3.970836 27.185372
2081 15 1 -1.1794 20.026990 3.748010 31.914490
2082 15 2 0.5897 19.240636 4.110945 32.384681
2083 15 2 0.5897 20.454714 4.572992 31.585198
2084 15 1 -1.1794 15.635510 8.139490 31.914490
2085 15 2 0.5897 15.123113 8.731546 32.517287
2086 15 2 0.5897 16.378956 7.869471 32.500499
2087 15 1 -1.1794 21.579260 9.691760 33.466760
2088 15 2 0.5897 21.833637 10.463442 32.903541
2089 15 2 0.5897 22.471221 9.354096 33.689592
2090 15 1 -1.1794 14.083240 2.195740 33.466760
2091 15 2 0.5897 13.296885 2.665929 33.829694
2092 15 2 0.5897 14.510964 1.866447 34.291742
2093 15 1 -1.1794 14.083240 9.691760 25.970740
2094 15 2 0.5897 13.999203 10.544755 26.438166
2095 15 2 0.5897 14.789202 9.237898 26.475560
2096 15 1 -1.1794 21.579260 2.195740 25.970740
2097 15 2 0.5897 21.066861 2.798535 26.562796
2098 15 2 0.5897 22.322705 2.781750 25.700722
2099 15 1 -1.1794 15.635510 3.748010 31.914490
2100 15 2 0.5897 15.098031 3.161188 32.501058
2101 15 2 0.5897 16.396620 3.962177 32.501082
2102 15 1 -1.1794 20.026990 8.139490 31.914490
2103 15 2 0.5897 19.761994 8.665484 31.121530
2104 15 2 0.5897 20.539295 8.806563 32.426821
2105 15 1 -1.1794 15.635510 8.139490 27.523010
2106 15 2 0.5897 15.922137 8.592251 28.348031
2107 15 2 0.5897 15.060469 7.424681 27.875063
2108 15 1 -1.1794 20.026990 3.748010 27.523010
2109 15 2 0.5897 19.264769 4.106705 27.020111
2110 15 2 0.5897 20.485326 4.590218 27.781031
2111 15 1 -1.1794 11.887500 3.679775 25.160607
2112 15 2 0.5897 11.922998 4.459067 25.764457
2113 15 2 0.5897 12.685985 3.179090 25.446756
2114 15 1 -1.1794 11.887500 8.207725 25.160607
2115 15 2 0.5897 11.128869 8.731842 25.512352
2116 15 2 0.5897 12.646872 8.779826 25.445376
2117 15 1 -1.1794 11.887500 3.679775 34.276893
2118 15 2 0.5897 11.843132 3.851890 35.244464
2119 15 2 0.5897 11.868941 4.578141 33.884946
2120 15 1 -1.1794 11.887500 8.207725 34.276893
2121 15 2 0.5897 12.093029 8.274438 35.244986
2122 15 2 0.5897 11.108049 7.629397 34.362942
2123 15 1 -1.1794 13.273107 0.000000 27.454775
2124 15 2 0.5897 12.305226 -0.094659 27.596134
2125 15 2 0.5897 13.642070 -0.099428 28.356968
2126 15 1 -1.1794 13.273107 0.000000 31.982725
2127 15 2 0.5897 13.604336 0.746754 32.533036
2128 15 2 0.5897 13.602206 -0.771043 32.501950
2129 15 1 -1.1794 22.389393 0.000000 27.454775
2130 15 2 0.5897 21.804308 0.006667 28.247479
2131 15 2 0.5897 22.071838 0.799264 26.976735
2132 15 1 -1.1794 22.389393 0.000000 31.982725
2133 15 2 0.5897 22.193138 0.798873 32.524125
2134 15 2 0.5897 23.368428 0.066494 31.891678
2135 15 1 -1.1794 15.567275 1.385607 23.775000
2136 15 2 0.5897 15.068986 1.660080 24.578227
2137 15 2 0.5897 16.352910 1.972311 23.812997
2138 15 1 -1.1794 20.095225 1.385607 23.775000
2139 15 2 0.5897 20.668354 1.614855 24.544515
2140 15 2 0.5897 20.679541 1.653488 23.027135
2141 15 1 -1.1794 15.567275 10.501893 23.775000
2142 15 2 0.5897 15.757086 11.452377 23.879347
2143 15 2 0.5897 16.433834 10.068458 23.887136
2144 15 1 -1.1794 20.095225 10.501893 23.775000
2145 15 2 0.5897 20.009784 11.478258 23.691574
2146 15 2 0.5897 20.575217 10.276857 22.947637
2147 15 1 -1.1794 21.511025 5.943750 28.333143
2148 15 2 0.5897 21.700835 6.048098 29.283627
2149 15 2 0.5897 22.377584 6.055885 27.899708
2150 15 1 -1.1794 14.151475 5.943750 28.333143
2151 15 2 0.5897 14.066031 5.860324 29.309508
2152 15 2 0.5897 14.631467 5.116387 28.108108
2153 15 1 -1.1794 21.511025 5.943750 31.104357
2154 15 2 0.5897 21.012738 6.746978 31.378833
2155 15 2 0.5897 22.296660 5.981743 31.691061
2156 15 1 -1.1794 14.151475 5.943750 31.104357
2157 15 2 0.5897 14.724602 6.713267 31.333605
2158 15 2 0.5897 14.735793 5.195886 31.372239
2159 15 1 -1.1794 17.831250 7.329357 26.038975
2160 15 2 0.5897 17.072622 7.681106 26.563093
2161 15 2 0.5897 18.590624 7.614122 26.611075
2162 15 1 -1.1794 17.831250 7.329357 33.398525
2163 15 2 0.5897 17.866750 7.933206 34.177818
2164 15 2 0.5897 18.629737 7.615502 32.897842
2165 15 1 -1.1794 17.831250 4.558143 26.038975
2166 15 2 0.5897 18.036764 5.526242 26.105661
2167 15 2 0.5897 17.051778 4.644161 25.460681
2168 15 1 -1.1794 17.831250 4.558143 33.398525
2169 15 2 0.5897 17.786883 5.525713 33.570644
2170 15 2 0.5897 17.812692 4.166192 34.296889
2171 15 1 -1.1794 19.216857 9.623525 29.718750
2172 15 2 0.5897 18.248976 9.764884 29.624090
2173 15 2 0.5897 19.585820 10.525718 29.619322
2174 15 1 -1.1794 19.216857 2.263975 29.718750
2175 15 2 0.5897 19.548088 2.814285 30.465503
2176 15 2 0.5897 19.545958 2.783199 28.947706
2177 15 1 -1.1794 16.445643 9.623525 29.718750
2178 15 2 0.5897 15.860556 10.416229 29.725416
2179 15 2 0.5897 16.128088 9.145485 30.518014
2180 15 1 -1.1794 16.445643 2.263975 29.718750
2181 15 2 0.5897 16.249390 2.805372 30.517625
2182 15 2 0.5897 17.424678 2.172928 29.785242
2183 15 3 0.0 11.887500 0.000000 23.775000
2184 15 3 0.0 17.831250 5.943750 29.718750
2185 15 3 0.0 11.887500 2.971875 29.718750
2186 15 3 0.0 11.887500 8.915625 29.718750
2187 15 3 0.0 17.831250 0.000000 26.746875
2188 15 3 0.0 17.831250 0.000000 32.690625
2189 15 3 0.0 14.859375 5.943750 23.775000
2190 15 3 0.0 20.803125 5.943750 23.775000
2191 16 1 -1.1794 11.887500 17.831250 2.971875
2192 16 2 0.5897 11.897156 18.633882 2.401692
2193 16 2 0.5897 12.706706 17.966305 3.500477
2194 16 1 -1.1794 11.887500 17.831250 8.915625
2195 16 2 0.5897 12.168567 18.695936 9.277971
2196 16 2 0.5897 12.610734 17.700273 8.254920
2197 16 1 -1.1794 14.859375 11.887500 5.943750
2198 16 2 0.5897 14.296866 12.000295 6.741859
2199 16 2 0.5897 15.393904 12.713596 5.955505
2200 16 1 -1.1794 20.803125 11.887500 5.943750
2201 16 2 0.5897 20.240617 12.685610 6.056546
2202 16 2 0.5897 21.337653 11.899253 6.769848
2203 16 1 -1.1794 17.831250 14.859375 0.000000
2204 16 2 0.5897 18.112323 15.221727 0.864683
2205 16 2 0.5897 18.554485 14.198672 -0.130979
2206 16 1 -1.1794 17.831250 20.803125 0.000000
2207 16 2 0.5897 17.840909 20.232941 0.802632
2208 16 2 0.5897 18.650455 21.331727 0.135054
2209 16 1 -1.1794 14.083240 14.083240 2.195740
2210 16 2 0.5897 13.818243 13.290281 2.721735
2211 16 2 0.5897 14.595546 14.595572 2.862811
2212 16 1 -1.1794 21.579260 21.579260 2.195740
2213 16 2 0.5897 21.865888 22.404281 2.648501
2214 16 2 0.5897 21.004218 21.931314 1.480933
2215 16 1 -1.1794 21.579260 14.083240 9.691760
2216 16 2 0.5897 21.041781 14.669808 9.104938
2217 16 2 0.5897 22.340371 14.669832 9.905926
2218 16 1 -1.1794 14.083240 21.579260 9.691760
2219 16 2 0.5897 13.321015 21.076365 10.050449
2220 16 2 0.5897 14.541573 21.837280 10.533970
2221 16 1 -1.1794 20.026990 20.026990 3.748010
2222 16 2 0.5897 19.942952 20.494415 4.601005
2223 16 2 0.5897 20.732952 20.531810 3.294149
2224 16 1 -1.1794 15.635510 15.635510 3.748010
2225 16 2 0.5897 15.889865 15.072288 4.519697
2226 16 2 0.5897 16.527481 15.858336 3.410372
2227 16 1 -1.1794 20.026990 15.635510 8.139490
2228 16 2 0.5897 19.240636 15.998445 8.609681
2229 16 2 0.5897 20.454714 16.460492 7.810198
2230 16 1 -1.1794 15.635510 20.026990 8.139490
2231 16 2 0.5897 15.123113 20.619046 8.742287
2232 16 2 0.5897 16.378956 19.756971 8.725499
2233 16 1 -1.1794 21.579260 21.579260 9.691760
2234 16 2 0.5897 21.833637 22.350942 9.128541
2235 16 2 0.5897 22.471221 21.241596 9.914592
2236 16 1 -1.1794 14.083240 14.083240 9.691760
2237 16 2 0.5897 13.296885 14.553429 10.054694
2238 16 2 0.5897 14.510964 13.753947 10.516742
2239 16 1 -1.1794 14.083240 21.579260 2.195740
2240 16 2 0.5897 13.999203 22.432255 2.663166
2241 16 2 0.5897 14.789202 21.125398 2.700560
2242 16 1 -1.1794 21.579260 14.083240 2.195740
2243 16 2 0.5897 21.066861 14.686035 2.787796
2244 16 2 0.5897 22.322705 14.669250 1.925722
2245 16 1 -1.1794 15.635510 15.635510 8.139490
2246 16 2 0.5897 15.098031 15.048688 8.726058
2247 16 2 0.5897 16.396620 15.849677 8.726082
2248 16 1 -1.1794 20.026990 20.026990 8.139490
2249 16 2 0.5897 19.761994 20.552984 7.346530
2250 16 2 0.5897 20.539295 20.694063 8.651821
2251 16 1 -1.1794 15.635510 20.026990 3.748010
2252 16 2 0.5897 15.922137 20.479751 4.573031
2253 16 2 0.5897 15.060469 19.312181 4.100063
2254 16 1 -1.1794 20.026990 15.635510 3.748010
2255 16 2 0.5897 19.264769 15.994205 3.245111
2256 16 2 0.5897 20.485326 16.477718 4.006031
2257 16 1 -1.1794 11.887500 15.567275 1.385607
2258 16 2 0.5897 11.922998 16.346567 1.989457
2259 16 2 0.5897 12.685985 15.066590 1.671756
2260 16 1 -1.1794 11.887500 20.095225 1.385607
2261 16 2 0.5897 11.128869 20.619342 1.737352
2262 16 2 0.5897 12.646872 20.667326 1.670376
2263 16 1 -1.1794 11.887500 15.567275 10.501893
2264 16 2 0.5897 11.843132 15.739390 11.469464
2265 16 2 0.5897 11.868941 16.465641 10.109946
2266 16 1 -1.1794 11.887500 20.095225 10.501893
2267 16 2 0.5897 12.093029 20.161938 11.469986
2268 16 2 0.5897 11.108049 19.516897 10.587942
2269 16 1 -1.1794 13.273107 11.887500 3.679775
2270 16 2 0.5897 12.305226 11.792841 3.821134
2271 16 2 0.5897 13.642070 11.788072 4.581968
2272 16 1 -1.1794 13.273107 11.887500 8.207725
2273 16 2 0.5897 13.604336 12.634254 8.758036
2274 16 2 0.5897 13.602206 11.116457 8.726950
2275 16 1 -1.1794 22.389393 11.887500 3.679775
2276 16 2 0.5897 21.804308 11.894167 4.472479
2277 16 2 0.5897 22.071838 12.686764 3.201735
2278 16 1 -1.1794 22.389393 11.887500 8.207725
2279 16 2 0.5897 22.193138 12.686373 8.749125
2280 16 2 0.5897 23.368428 11.953994 8.116678
2281 16 1 -1.1794 15.567275 13.273107 0.000000
2282 16 2 0.5897 15.068986 13.547580 0.803227
2283 16 2 0.5897 16.352910 13.859811 0.037997
2284 16 1 -1.1794 20.095225 13.273107 0.000000
2285 16 2 0.5897 20.668354 13.502355 0.769515
2286 16 2 0.5897 20.679541 13.540988 -0.747865
2287 16 1 -1.1794 15.567275 22.389393 0.000000
2288 16 2 0.5897 15.757086 23.339877 0.104347
2289 16 2 0.5897 16.433834 21.955958 0.112136
2290 16 1 -1.1794 20.095225 22.389393 0.000000
2291 16 2 0.5897 20.009784 23.365758 -0.083426
2292 16 2 0.5897 20.575217 22.164357 -0.827363
2293 16 1 -1.1794 21.511025 17.831250 4.558143
2294 16 2 0.5897 21.700835 17.935598 5.508627
2295 16 2 0.5897 22.377584 17.943385 4.124708
2296 16 1 -1.1794 14.151475 17.831250 4.558143
2297 16 2 0.5897 14.066031 17.747824 5.534508
2298 16 2 0.5897 14.631467 17.003887 4.333108
2299 16 1 -1.1794 21.511025 17.831250 7.329357
2300 16 2 0.5897 21.012738 18.634478 7.603833
2301 16 2 0.5897 22.296660 17.869243 7.916061
2302 16 1 -1.1794 14.151475 17.831250 7.329357
2303 16 2 0.5897 14.724602 18.600767 7.558605
2304 16 2 0.5897 14.735793 17.083386 7.597239
2305 16 1 -1.1794 17.831250 19.216857 2.263975
2306 16 2 0.5897 17.072622 19.568606 2.788093
2307 16 2 0.5897 18.590624 19.501622 2.836075
2308 16 1 -1.1794 17.831250 19.216857 9.623525
2309 16 2 0.5897 17.866750 19.820706 10.402818
2310 16 2 0.5897 18.629737 19.503002 9.122842
2311 16 1 -1.1794 17.831250 16.445643 2.263975
2312 16 2 0.5897 18.036764 17.413742 2.330661
2313 16 2 0.5897 17.051778 16.531661 1.685681
2314 16 1 -1.1794 17.831250 16.445643 9.623525
2315 16 2 0.5897 17.786883 17.413213 9.795644
2316 16 2 0.5897 17.812692 16.053692 10.521889
2317 16 1 -1.1794 19.216857 21.511025 5.943750
2318 16 2 0.5897 18.248976 21.652384 5.849090
2319 16 2 0.5897 19.585820 22.413218 5.844322
2320 16 1 -1.1794 19.216857 14.151475 5.943750
2321 16 2 0.5897 19.548088 14.701785 6.690503
2322 16 2 0.5897 19.545958 14.670699 5.172706
2323 16 1 -1.1794 16.445643 21.511025 5.943750
2324 16 2 0.5897 15.860556 22.303729 5.950416
2325 16 2 0.5897 16.128088 21.032985 6.743014
2326 16 1 -1.1794 16.445643 14.151475 5.943750
2327 16 2 0.5897 16.249390 14.692872 6.742625
2328 16 2 0.5897 17.424678 14.060428 6.010242
2329 16 3 0.0 11.887500 11.887500 0.000000
2330 16 3 0.0 17.831250 17.831250 5.943750
2331 16 3 0.0 11.887500 14.859375 5.943750
2332 16 3 0.0 11.887500 20.803125 5.943750
2333 16 3 0.0 17.831250 11.887500 2.971875
2334 16 3 0.0 17.831250 11.887500 8.915625
2335 16 3 0.0 14.859375 17.831250 0.000000
2336 16 3 0.0 20.803125 17.831250 0.000000
2337 17 1 -1.1794 11.887500 17.831250 14.859375
2338 17 2 0.5897 11.897156 18.633882 14.289192
2339 17 2 0.5897 12.706706 17.966305 15.387977
2340 17 1 -1.1794 11.887500 17.831250 20.803125
2341 17 2 0.5897 12.168567 18.695936 21.165471
2342 17 2 0.5897 12.610734 17.700273 20.142420
2343 17 1 -1.1794 14.859375 11.887500 17.831250
2344 17 2 0.5897 14.296866 12.000295 18.629359
2345 17 2 0.5897 15.393904 12.713596 17.843005
2346 17 1 -1.1794 20.803125 11.887500 17.831250
2347 17 2 0.5897 20.240617 12.685610 17.944046
2348 17 2 0.5897 21.337653 11.899253 18.657348
2349 17 1 -1.1794 17.831250 14.859375 11.887500
2350 17 2 0.5897 18.112323 15.221727 12.752183
2351 17 2 0.5897 18.554485 14.198672 11.756521
2352 17 1 -1.1794 17.831250 20.803125 11.887500
2353 17 2 0.5897 17.840909 20.232941 12.690132
2354 17 2 0.5897 18.650455 21.331727 12.022554
2355 17 1 -1.1794 14.083240 14.083240 14.083240
2356 17 2 0.5897 13.818243 13.290281 14.609235
2357 17 2 0.5897 14.595546 14.595572 14.750311
2358 17 1 -1.1794 21.579260 21.579260 14.083240
2359 17 2 0.5897 21.865888 22.404281 14.536001
2360 17 2 0.5897 21.004218 21.931314 13.368433
2361 17 1 -1.1794 21.579260 14.083240 21.579260
2362 17 2 0.5897 21.041781 14.669808 20.992438
2363 17 2 0.5897 22.340371 14.669832 21.793426
2364 17 1 -1.1794 14.083240 21.579260 21.579260
2365 17 2 0.5897 13.321015 21.076365 21.937949
2366 17 2 0.5897 14.541573 21.837280 22.421470
2367 17 1 -1.1794 20.026990 20.026990 15.635510
2368 17 2 0.5897 19.942952 20.494415 16.488505
2369 17 2 0.5897 20.732952 20.531810 15.181649
2370 17 1 -1.1794 15.635510 15.635510 15.635510
2371 17 2 0.5897 15.889865 15.072288 16.407197
2372 17 2 0.5897 16.527481 15.858336 15.297872
2373 17 1 -1.1794 20.026990 15.635510 20.026990
2374 17 2 0.5897 19.240636 15.998445 20.497181
2375 17 2 0.5897 20.454714 16.460492 19.697698
2376 17 1 -1.1794 15.635510 20.026990 20.026990
2377 17 2 0.5897 15.123113 20.619046 20.629787
2378 17 2 0.5897 16.378956 19.756971 20.612999
2379 17 1 -1.1794 21.579260 21.579260 21.579260
2380 17 2 0.5897 21.833637 22.350942 21.016041
2381 17 2 0.5897 22.471221 21.241596 21.802092
2382 17 1 -1.1794 14.083240 14.083240 21.579260
2383 17 2 0.5897 13.296885 14.553429 21.942194
2384 17 2 0.5897 14.510964 13.753947 22.404242
2385 17 1 -1.1794 14.083240 21.579260 14.083240
2386 17 2 0.5897 13.999203 22.432255 14.550666
2387 17 2 0.5897 14.789202 21.125398 14.588060
2388 17 1 -1.1794 21.579260 14.083240 14.083240
2389 17 2 0.5897 21.066861 14.686035 14.675296
2390 17 2 0.5897 22.322705 14.669250 13.813222
2391 17 1 -1.1794 15.635510 15.635510 20.026990
2392 17 2 0.5897 15.098031 15.048688 20.613558
2393 17 2 0.5897 16.396620 15.849677 20.613582
2394 17 1 -1.1794 20.026990 20.026990 20.026990
2395 17 2 0.5897 19.761994 20.552984 19.234030
2396 17 2 0.5897 20.539295 20.694063 20.539321
2397 17 1 -1.1794 15.635510 20.026990 15.635510
2398 17 2 0.5897 15.922137 20.479751 16.460531
2399 17 2 0.5897 15.060469 19.312181 15.987563
2400 17 1 -1.1794 20.026990 15.635510 15.635510
2401 17 2 0.5897 19.264769 15.994205 15.132611
2402 17 2 0.5897 20.485326 16.477718 15.893531
2403 17 1 -1.1794 11.887500 15.567275 13.273107
2404 17 2 0.5897 11.922998 16.346567 13.876957
2405 17 2 0.5897 12.685985 15.066590 13.559256
2406 17 1 -1.1794 11.887500 20.095225 13.273107
2407 17 2 0.5897 11.128869 20.619342 13.624852
2408 17 2 0.5897 12.646872 20.667326 13.557876
2409 17 1 -1.1794 11.887500 15.567275 22.389393
2410 17 2 0.5897 11.843132 15.739390 23.356964
2411 17 2 0.5897 11.868941 16.465641 21.997446
2412 17 1 -1.1794 11.887500 20.095225 22.389393
2413 17 2 0.5897 12.093029 20.161938 23.357486
2414 17 2 0.5897 11.108049 19.516897 22.475442
2415 17 1 -1.1794 13.273107 11.887500 15.567275
2416 17 2 0.5897 12.305226 11.792841 15.708634
2417 17 2 0.5897 13.642070 11.788072 16.469468
2418 17 1 -1.1794 13.273107 11.887500 20.095225
2419 17 2 0.5897 13.604336 12.634254 20.645536
2420 17 2 0.5897 13.602206 11.116457 20.614450
2421 17 1 -1.1794 22.389393 11.887500 15.567275
2422 17 2 0.5897 21.804308 11.894167 16.359979
2423 17 2 0.5897 22.071838 12.686764 15.089235
2424 17 1 -1.1794 22.389393 11.887500 20.095225
2425 17 2 0.5897 22.193138 12.686373 20.636625
2426 17 2 0.5897 23.368428 11.953994 20.004178
2427 17 1 -1.1794 15.567275 13.273107 11.887500
2428 17 2 0.5897 15.068986 13.547580 12.690727
2429 17 2 0.5897 16.352910 13.859811 11.925497
2430 17 1 -1.1794 20.095225 13.273107 11.887500
2431 17 2 0.5897 20.668354 13.502355 12.657015
2432 17 2 0.5897 20.679541 13.540988 11.139635
2433 17 1 -1.1794 15.567275 22.389393 11.887500
2434 17 2 0.5897 15.757086 23.339877 11.991847
2435 17 2 0.5897 16.433834 21.955958 11.999636
2436 17 1 -1.1794 20.095225 22.389393 11.887500
2437 17 2 0.5897 20.009784 23.365758 11.804074
2438 17 2 0.5897 20.575217 22.164357 11.060137
2439 17 1 -1.1794 21.511025 17.831250 16.445643
2440 17 2 0.5897 21.700835 17.935598 17.396127
2441 17 2 0.5897 22.377584 17.943385 16.012208
2442 17 1 -1.1794 14.151475 17.831250 16.445643
2443 17 2 0.5897 14.066031 17.747824 17.422008
2444 17 2 0.5897 14.631467 17.003887 16.220608
2445 17 1 -1.1794 21.511025 17.831250 19.216857
2446 17 2 0.5897 21.012738 18.634478 19.491333
2447 17 2 0.5897 22.296660 17.869243 19.803561
2448 17 1 -1.1794 14.151475 17.831250 19.216857
2449 17 2 0.5897 14.724602 18.600767 19.446105
2450 17 2 0.5897 14.735793 17.083386 19.484739
2451 17 1 -1.1794 17.831250 19.216857 14.151475
2452 17 2 0.5897 17.072622 19.568606 14.675593
2453 17 2 0.5897 18.590624 19.501622 14.723575
2454 17 1 -1.1794 17.831250 19.216857 21.511025
2455 17 2 0.5897 17.866750 19.820706 22.290318
2456 17 2 0.5897 18.629737 19.503002 21.010342
2457 17 1 -1.1794 17.831250 16.445643 14.151475
2458 17 2 0.5897 18.036764 17.413742 14.218161
2459 17 2 0.5897 17.051778 16.531661 13.573181
2460 17 1 -1.1794 17.831250 16.445643 21.511025
2461 17 2 0.5897 17.786883 17.413213 21.683144
2462 17 2 0.5897 17.812692 16.053692 22.409389
2463 17 1 -1.1794 19.216857 21.511025 17.831250
2464 17 2 0.5897 18.248976 21.652384 17.736590
2465 17 2 0.5897 19.585820 22.413218 17.731822
2466 17 1 -1.1794 19.216857 14.151475 17.831250
2467 17 2 0.5897 19.548088 14.701785 18.578003
2468 17 2 0.5897 19.545958 14.670699 17.060206
2469 17 1 -1.1794 16.445643 21.511025 17.831250
2470 17 2 0.5897 15.860556 22.303729 17.837916
2471 17 2 0.5897 16.128088 21.032985 18.630514
2472 17 1 -1.1794 16.445643 14.151475 17.831250
2473 17 2 0.5897 16.249390 14.692872 18.630125
2474 17 2 0.5897 17.424678 14.060428 17.897742
2475 17 3 0.0 11.887500 11.887500 11.887500
2476 17 3 0.0 17.831250 17.831250 17.831250
2477 17 3 0.0 11.887500 14.859375 17.831250
2478 17 3 0.0 11.887500 20.803125 17.831250
2479 17 3 0.0 17.831250 11.887500 14.859375
2480 17 3 0.0 17.831250 11.887500 20.803125
2481 17 3 0.0 14.859375 17.831250 11.887500
2482 17 3 0.0 20.803125 17.831250 11.887500
2483 18 1 -1.1794 11.887500 17.831250 26.746875
2484 18 2 0.5897 11.897156 18.633882 26.176692
2485 18 2 0.5897 12.706706 17.966305 27.275477
2486 18 1 -1.1794 11.887500 17.831250 32.690625
2487 18 2 0.5897 12.168567 18.695936 33.052971
2488 18 2 0.5897 12.610734 17.700273 32.029920
2489 18 1 -1.1794 14.859375 11.887500 29.718750
2490 18 2 0.5897 14.296866 12.000295 30.516859
2491 18 2 0.5897 15.393904 12.713596 29.730505
2492 18 1 -1.1794 20.803125 11.887500 29.718750
2493 18 2 0.5897 20.240617 12.685610 29.831546
2494 18 2 0.5897 21.337653 11.899253 30.544848
2495 18 1 -1.1794 17.831250 14.859375 23.775000
2496 18 2 0.5897 18.112323 15.221727 24.639683
2497 18 2 0.5897 18.554485 14.198672 23.644021
2498 18 1 -1.1794 17.831250 20.803125 23.775000
2499 18 2 0.5897 17.840909 20.232941 24.577632
2500 18 2 0.5897 18.650455 21.331727 23.910054
2501 18 1 -1.1794 14.083240 14.083240 25.970740
2502 18 2 0.5897 13.818243 13.290281 26.496735
2503 18 2 0.5897 14.595546 14.595572 26.637811
2504 18 1 -1.1794 21.579260 21.579260 25.970740
2505 18 2 0.5897 21.865888 22.404281 26.423501
2506 18 2 0.5897 21.004218 21.931314 25.255933
2507 18 1 -1.1794 21.579260 14.083240 33.466760
2508 18 2 0.5897 21.041781 14.669808 32.879938
2509 18 2 0.5897 22.340371 14.669832 33.680926
2510 18 1 -1.1794 14.083240 21.579260 33.466760
2511 18 2 0.5897 13.321015 21.076365 33.825449
2512 18 2 0.5897 14.541573 21.837280 34.308970
2513 18 1 -1.1794 20.026990 20.026990 27.523010
2514 18 2 0.5897 19.942952 20.494415 28.376005
2515 18 2 0.5897 20.732952 20.531810 27.069149
2516 18 1 -1.1794 15.635510 15.635510 27.523010
2517 18 2 0.5897 15.889865 15.072288 28.294697
2518 18 2 0.5897 16.527481 15.858336 27.185372
2519 18 1 -1.1794 20.026990 15.635510 31.914490
2520 18 2 0.5897 19.240636 15.998445 32.384681
2521 18 2 0.5897 20.454714 16.460492 31.585198
2522 18 1 -1.1794 15.635510 20.026990 31.914490
2523 18 2 0.5897 15.123113 20.619046 32.517287
2524 18 2 0.5897 16.378956 19.756971 32.500499
2525 18 1 -1.1794 21.579260 21.579260 33.466760
2526 18 2 0.5897 21.833637 22.350942 32.903541
2527 18 2 0.5897 22.471221 21.241596 33.689592
2528 18 1 -1.1794 14.083240 14.083240 33.466760
2529 18 2 0.5897 13.296885 14.553429 33.829694
2530 18 2 0.5897 14.510964 13.753947 34.291742
2531 18 1 -1.1794 14.083240 21.579260 25.970740
2532 18 2 0.5897 13.999203 22.432255 26.438166
2533 18 2 0.5897 14.789202 21.125398 26.475560
2534 18 1 -1.1794 21.579260 14.083240 25.970740
2535 18 2 0.5897 21.066861 14.686035 26.562796
2536 18 2 0.5897 22.322705 14.669250 25.700722
2537 18 1 -1.1794 15.635510 15.635510 31.914490
2538 18 2 0.5897 15.098031 15.048688 32.501058
2539 18 2 0.5897 16.396620 15.849677 32.501082
2540 18 1 -1.1794 20.026990 20.026990 31.914490
2541 18 2 0.5897 19.761994 20.552984 31.121530
2542 18 2 0.5897 20.539295 20.694063 32.426821
2543 18 1 -1.1794 15.635510 20.026990 27.523010
2544 18 2 0.5897 15.922137 20.479751 28.348031
2545 18 2 0.5897 15.060469 19.312181 27.875063
2546 18 1 -1.1794 20.026990 15.635510 27.523010
2547 18 2 0.5897 19.264769 15.994205 27.020111
2548 18 2 0.5897 20.485326 16.477718 27.781031
2549 18 1 -1.1794 11.887500 15.567275 25.160607
2550 18 2 0.5897 11.922998 16.346567 25.764457
2551 18 2 0.5897 12.685985 15.066590 25.446756
2552 18 1 -1.1794 11.887500 20.095225 25.160607
2553 18 2 0.5897 11.128869 20.619342 25.512352
2554 18 2 0.5897 12.646872 20.667326 25.445376
2555 18 1 -1.1794 11.887500 15.567275 34.276893
2556 18 2 0.5897 11.843132 15.739390 35.244464
2557 18 2 0.5897 11.868941 16.465641 33.884946
2558 18 1 -1.1794 11.887500 20.095225 34.276893
2559 18 2 0.5897 12.093029 20.161938 35.244986
2560 18 2 0.5897 11.108049 19.516897 34.362942
2561 18 1 -1.1794 13.273107 11.887500 27.454775
2562 18 2 0.5897 12.305226 11.792841 27.596134
2563 18 2 0.5897 13.642070 11.788072 28.356968
2564 18 1 -1.1794 13.273107 11.887500 31.982725
2565 18 2 0.5897 13.604336 12.634254 32.533036
2566 18 2 0.5897 13.602206 11.116457 32.501950
2567 18 1 -1.1794 22.389393 11.887500 27.454775
2568 18 2 0.5897 21.804308 11.894167 28.247479
2569 18 2 0.5897 22.071838 12.686764 26.976735
2570 18 1 -1.1794 22.389393 11.887500 31.982725
2571 18 2 0.5897 22.193138 12.686373 32.524125
2572 18 2 0.5897 23.368428 11.953994 31.891678
2573 18 1 -1.1794 15.567275 13.273107 23.775000
2574 18 2 0.5897 15.068986 13.547580 24.578227
2575 18 2 0.5897 16.352910 13.859811 23.812997
2576 18 1 -1.1794 20.095225 13.273107 23.775000
2577 18 2 0.5897 20.668354 13.502355 24.544515
2578 18 2 0.5897 20.679541 13.540988 23.027135
2579 18 1 -1.1794 15.567275 22.389393 23.775000
2580 18 2 0.5897 15.757086 23.339877 23.879347
2581 18 2 0.5897 16.433834 21.955958 23.887136
2582 18 1 -1.1794 20.095225 22.389393 23.775000
2583 18 2 0.5897 20.009784 23.365758 23.691574
2584 18 2 0.5897 20.575217 22.164357 22.947637
2585 18 1 -1.1794 21.511025 17.831250 28.333143
2586 18 2 0.5897 21.700835 17.935598 29.283627
2587 18 2 0.5897 22.377584 17.943385 27.899708
2588 18 1 -1.1794 14.151475 17.831250 28.333143
2589 18 2 0.5897 14.066031 17.747824 29.309508
2590 18 2 0.5897 14.631467 17.003887 28.108108
2591 18 1 -1.1794 21.511025 17.831250 31.104357
2592 18 2 0.5897 21.012738 18.634478 31.378833
2593 18 2 0.5897 22.296660 17.869243 31.691061
2594 18 1 -1.1794 14.151475 17.831250 31.104357
2595 18 2 0.5897 14.724602 18.600767 31.333605
2596 18 2 0.5897 14.735793 17.083386 31.372239
2597 18 1 -1.1794 17.831250 19.216857 26.038975
2598 18 2 0.5897 17.072622 19.568606 26.563093
2599 18 2 0.5897 18.590624 19.501622 26.611075
2600 18 1 -1.1794 17.831250 19.216857 33.398525
2601 18 2 0.5897 17.866750 19.820706 34.177818
2602 18 2 0.5897 18.629737 19.503002 32.897842
2603 18 1 -1.1794 17.831250 16.445643 26.038975
2604 18 2 0.5897 18.036764 17.413742 26.105661
2605 18 2 0.5897 17.051778 16.531661 25.460681
2606 18 1 -1.1794 17.831250 16.445643 33.398525
2607 18 2 0.5897 17.786883 17.413213 33.570644
2608 18 2 0.5897 17.812692 16.053692 34.296889
2609 18 1 -1.1794 19.216857 21.511025 29.718750
2610 18 2 0.5897 18.248976 21.652384 29.624090
2611 18 2 0.5897 19.585820 22.413218 29.619322
2612 18 1 -1.1794 19.216857 14.151475 29.718750
2613 18 2 0.5897 19.548088 14.701785 30.465503
2614 18 2 0.5897 19.545958 14.670699 28.947706
2615 18 1 -1.1794 16.445643 21.511025 29.718750
2616 18 2 0.5897 15.860556 22.303729 29.725416
2617 18 2 0.5897 16.128088 21.032985 30.518014
2618 18 1 -1.1794 16.445643 14.151475 29.718750
2619 18 2 0.5897 16.249390 14.692872 30.517625
2620 18 2 0.5897 17.424678 14.060428 29.785242
2621 18 3 0.0 11.887500 11.887500 23.775000
2622 18 3 0.0 17.831250 17.831250 29.718750
2623 18 3 0.0 11.887500 14.859375 29.718750
2624 18 3 0.0 11.887500 20.803125 29.718750
2625 18 3 0.0 17.831250 11.887500 26.746875
2626 18 3 0.0 17.831250 11.887500 32.690625
2627 18 3 0.0 14.859375 17.831250 23.775000
2628 18 3 0.0 20.803125 17.831250 23.775000
2629 19 1 -1.1794 11.887500 29.718750 2.971875
2630 19 2 0.5897 11.897156 30.521382 2.401692
2631 19 2 0.5897 12.706706 29.853805 3.500477
2632 19 1 -1.1794 11.887500 29.718750 8.915625
2633 19 2 0.5897 12.168567 30.583436 9.277971
2634 19 2 0.5897 12.610734 29.587773 8.254920
2635 19 1 -1.1794 14.859375 23.775000 5.943750
2636 19 2 0.5897 14.296866 23.887795 6.741859
2637 19 2 0.5897 15.393904 24.601096 5.955505
2638 19 1 -1.1794 20.803125 23.775000 5.943750
2639 19 2 0.5897 20.240617 24.573110 6.056546
2640 19 2 0.5897 21.337653 23.786753 6.769848
2641 19 1 -1.1794 17.831250 26.746875 0.000000
2642 19 2 0.5897 18.112323 27.109227 0.864683
2643 19 2 0.5897 18.554485 26.086172 -0.130979
2644 19 1 -1.1794 17.831250 32.690625 0.000000
2645 19 2 0.5897 17.840909 32.120441 0.802632
2646 19 2 0.5897 18.650455 33.219227 0.135054
2647 19 1 -1.1794 14.083240 25.970740 2.195740
2648 19 2 0.5897 13.818243 25.177781 2.721735
2649 19 2 0.5897 14.595546 26.483072 2.862811
2650 19 1 -1.1794 21.579260 33.466760 2.195740
2651 19 2 0.5897 21.865888 34.291781 2.648501
2652 19 2 0.5897 21.004218 33.818814 1.480933
2653 19 1 -1.1794 21.579260 25.970740 9.691760
2654 19 2 0.5897 21.041781 26.557308 9.104938
2655 19 2 0.5897 22.340371 26.557332 9.905926
2656 19 1 -1.1794 14.083240 33.466760 9.691760
2657 19 2 0.5897 13.321015 32.963865 10.050449
2658 19 2 0.5897 14.541573 33.724780 10.533970
2659 19 1 -1.1794 20.026990 31.914490 3.748010
2660 19 2 0.5897 19.942952 32.381915 4.601005
2661 19 2 0.5897 20.732952 32.419310 3.294149
2662 19 1 -1.1794 15.635510 27.523010 3.748010
2663 19 2 0.5897 15.889865 26.959788 4.519697
2664 19 2 0.5897 16.527481 27.745836 3.410372
2665 19 1 -1.1794 20.026990 27.523010 8.139490
2666 19 2 0.5897 19.240636 27.885945 8.609681
2667 19 2 0.5897 20.454714 28.347992 7.810198
2668 19 1 -1.1794 15.635510 31.914490 8.139490
2669 19 2 0.5897 15.123113 32.506546 8.742287
2670 19 2 0.5897 16.378956 31.644471 8.725499
2671 19 1 -1.1794 21.579260 33.466760 9.691760
2672 19 2 0.5897 21.833637 34.238442 9.128541
2673 19 2 0.5897 22.471221 33.129096 9.914592
2674 19 1 -1.1794 14.083240 25.970740 9.691760
2675 19 2 0.5897 13.296885 26.440929 10.054694
2676 19 2 0.5897 14.510964 25.641447 10.516742
2677 19 1 -1.1794 14.083240 33.466760 2.195740
2678 19 2 0.5897 13.999203 34.319755 2.663166
2679 19 2 0.5897 14.789202 33.012898 2.700560
2680 19 1 -1.1794 21.579260 25.970740 2.195740
2681 19 2 0.5897 21.066861 26.573535 2.787796
2682 19 2 0.5897 22.322705 26.556750 1.925722
2683 19 1 -1.1794 15.635510 27.523010 8.139490
2684 19 2 0.5897 15.098031 26.936188 8.726058
2685 19 2 0.5897 16.396620 27.737177 8.726082
2686 19 1 -1.1794 20.026990 31.914490 8.139490
2687 19 2 0.5897 19.761994 32.440484 7.346530
2688 19 2 0.5897 20.539295 32.581563 8.651821
2689 19 1 -1.1794 15.635510 31.914490 3.748010
2690 19 2 0.5897 15.922137 32.367251 4.573031
2691 19 2 0.5897 15.060469 31.199681 4.100063
2692 19 1 -1.1794 20.026990 27.523010 3.748010
2693 19 2 0.5897 19.264769 27.881705 3.245111
2694 19 2 0.5897 20.485326 28.365218 4.006031
2695 19 1 -1.1794 11.887500 27.454775 1.385607
2696 19 2 0.5897 11.922998 28.234067 1.989457
2697 19 2 0.5897 12.685985 26.954090 1.671756
2698 19 1 -1.1794 11.887500 31.982725 1.385607
2699 19 2 0.5897 11.128869 32.506842 1.737352
2700 19 2 0.5897 12.646872 32.554826 1.670376
2701 19 1 -1.1794 11.887500 27.454775 10.501893
2702 19 2 0.5897 11.843132 27.626890 11.469464
2703 19 2 0.5897 11.868941 28.353141 10.109946
2704 19 1 -1.1794 11.887500 31.982725 10.501893
2705 19 2 0.5897 12.093029 32.049438 11.469986
2706 19 2 0.5897 11.108049 31.404397 10.587942
2707 19 1 -1.1794 13.273107 23.775000 3.679775
2708 19 2 0.5897 12.305226 23.680341 3.821134
2709 19 2 0.5897 13.642070 23.675572 4.581968
2710 19 1 -1.1794 13.273107 23.775000 8.207725
2711 19 2 0.5897 13.604336 24.521754 8.758036
2712 19 2 0.5897 13.602206 23.003957 8.726950
2713 19 1 -1.1794 22.389393 23.775000 3.679775
2714 19 2 0.5897 21.804308 23.781667 4.472479
2715 19 2 0.5897 22.071838 24.574264 3.201735
2716 19 1 -1.1794 22.389393 23.775000 8.207725
2717 19 2 0.5897 22.193138 24.573873 8.749125
2718 19 2 0.5897 23.368428 23.841494 8.116678
2719 19 1 -1.1794 15.567275 25.160607 0.000000
2720 19 2 0.5897 15.068986 25.435080 0.803227
2721 19 2 0.5897 16.352910 25.747311 0.037997
2722 19 1 -1.1794 20.095225 25.160607 0.000000
2723 19 2 0.5897 20.668354 25.389855 0.769515
2724 19 2 0.5897 20.679541 25.428488 -0.747865
2725 19 1 -1.1794 15.567275 34.276893 0.000000
2726 19 2 0.5897 15.757086 35.227377 0.104347
2727 19 2 0.5897 16.433834 33.843458 0.112136
2728 19 1 -1.1794 20.095225 34.276893 0.000000
2729 19 2 0.5897 20.009784 35.253258 -0.083426
2730 19 2 0.5897 20.575217 34.051857 -0.827363
2731 19 1 -1.1794 21.511025 29.718750 4.558143
2732 19 2 0.5897 21.700835 29.823098 5.508627
2733 19 2 0.5897 22.377584 29.830885 4.124708
2734 19 1 -1.1794 14.151475 29.718750 4.558143
2735 19 2 0.5897 14.066031 29.635324 5.534508
2736 19 2 0.5897 14.631467 28.891387 4.333108
2737 19 1 -1.1794 21.511025 29.718750 7.329357
2738 19 2 0.5897 21.012738 30.521978 7.603833
2739 19 2 0.5897 22.296660 29.756743 7.916061
2740 19 1 -1.1794 14.151475 29.718750 7.329357
2741 19 2 0.5897 14.724602 30.488267 7.558605
2742 19 2 0.5897 14.735793 28.970886 7.597239
2743 19 1 -1.1794 17.831250 31.104357 2.263975
2744 19 2 0.5897 17.072622 31.456106 2.788093
2745 19 2 0.5897 18.590624 31.389122 2.836075
2746 19 1 -1.1794 17.831250 31.104357 9.623525
2747 19 2 0.5897 17.866750 31.708206 10.402818
2748 19 2 0.5897 18.629737 31.390502 9.122842
2749 19 1 -1.1794 17.831250 28.333143 2.263975
2750 19 2 0.5897 18.036764 29.301242 2.330661
2751 19 2 0.5897 17.051778 28.419161 1.685681
2752 19 1 -1.1794 17.831250 28.333143 9.623525
2753 19 2 0.5897 17.786883 29.300713 9.795644
2754 19 2 0.5897 17.812692 27.941192 10.521889
2755 19 1 -1.1794 19.216857 33.398525 5.943750
2756 19 2 0.5897 18.248976 33.539884 5.849090
2757 19 2 0.5897 19.585820 34.300718 5.844322
2758 19 1 -1.1794 19.216857 26.038975 5.943750
2759 19 2 0.5897 19.548088 26.589285 6.690503
2760 19 2 0.5897 19.545958 26.558199 5.172706
2761 19 1 -1.1794 16.445643 33.398525 5.943750
2762 19 2 0.5897 15.860556 34.191229 5.950416
2763 19 2 0.5897 16.128088 32.920485 6.743014
2764 19 1 -1.1794 16.445643 26.038975 5.943750
2765 19 2 0.5897 16.249390 26.580372 6.742625
2766 19 2 0.5897 17.424678 25.947928 6.010242
2767 19 3 0.0 11.887500 23.775000 0.000000
2768 19 3 0.0 17.831250 29.718750 5.943750
2769 19 3 0.0 11.887500 26.746875 5.943750
2770 19 3 0.0 11.887500 32.690625 5.943750
2771 19 3 0.0 17.831250 23.775000 2.971875
2772 19 3 0.0 17.831250 23.775000 8.915625
2773 19 3 0.0 14.859375 29.718750 0.000000
2774 19 3 0.0 20.803125 29.718750 0.000000
2775 20 1 -1.1794 11.887500 29.718750 14.859375
2776 20 2 0.5897 11.897156 30.521382 14.289192
2777 20 2 0.5897 12.706706 29.853805 15.387977
2778 20 1 -1.1794 11.887500 29.718750 20.803125
2779 20 2 0.5897 12.168567 30.583436 21.165471
2780 20 2 0.5897 12.610734 29.587773 20.142420
2781 20 1 -1.1794 14.859375 23.775000 17.831250
2782 20 2 0.5897 14.296866 23.887795 18.629359
2783 20 2 0.5897 15.393904 24.601096 17.843005
2784 20 1 -1.1794 20.803125 23.775000 17.831250
2785 20 2 0.5897 20.240617 24.573110 17.944046
2786 20 2 0.5897 21.337653 23.786753 18.657348
2787 20 1 -1.1794 17.831250 26.746875 11.887500
2788 20 2 0.5897 18.112323 27.109227 12.752183
2789 20 2 0.5897 18.554485 26.086172 11.756521
2790 20 1 -1.1794 17.831250 32.690625 11.887500
2791 20 2 0.5897 17.840909 32.120441 12.690132
2792 20 2 0.5897 18.650455 33.219227 12.022554
2793 20 1 -1.1794 14.083240 25.970740 14.083240
2794 20 2 0.5897 13.818243 25.177781 14.609235
2795 20 2 0.5897 14.595546 26.483072 14.750311
2796 20 1 -1.1794 21.579260 33.466760 14.083240
2797 20 2 0.5897 21.865888 34.291781 14.536001
2798 20 2 0.5897 21.004218 33.818814 13.368433
2799 20 1 -1.1794 21.579260 25.970740 21.579260
2800 20 2 0.5897 21.041781 26.557308 20.992438
2801 20 2 0.5897 22.340371 26.557332 21.793426
2802 20 1 -1.1794 14.083240 33.466760 21.579260
2803 20 2 0.5897 13.321015 32.963865 21.937949
2804 20 2 0.5897 14.541573 33.724780 22.421470
2805 20 1 -1.1794 20.026990 31.914490 15.635510
2806 20 2 0.5897 19.942952 32.381915 16.488505
2807 20 2 0.5897 20.732952 32.419310 15.181649
2808 20 1 -1.1794 15.635510 27.523010 15.635510
2809 20 2 0.5897 15.889865 26.959788 16.407197
2810 20 2 0.5897 16.527481 27.745836 15.297872
2811 20 1 -1.1794 20.026990 27.523010 20.026990
2812 20 2 0.5897 19.240636 27.885945 20.497181
2813 20 2 0.5897 20.454714 28.347992 19.697698
2814 20 1 -1.1794 15.635510 31.914490 20.026990
2815 20 2 0.5897 15.123113 32.506546 20.629787
2816 20 2 0.5897 16.378956 31.644471 20.612999
2817 20 1 -1.1794 21.579260 33.466760 21.579260
2818 20 2 0.5897 21.833637 34.238442 21.016041
2819 20 2 0.5897 22.471221 33.129096 21.802092
2820 20 1 -1.1794 14.083240 25.970740 21.579260
2821 20 2 0.5897 13.296885 26.440929 21.942194
2822 20 2 0.5897 14.510964 25.641447 22.404242
2823 20 1 -1.1794 14.083240 33.466760 14.083240
2824 20 2 0.5897 13.999203 34.319755 14.550666
2825 20 2 0.5897 14.789202 33.012898 14.588060
2826 20 1 -1.1794 21.579260 25.970740 14.083240
2827 20 2 0.5897 21.066861 26.573535 14.675296
2828 20 2 0.5897 22.322705 26.556750 13.813222
2829 20 1 -1.1794 15.635510 27.523010 20.026990
2830 20 2 0.5897 15.098031 26.936188 20.613558
2831 20 2 0.5897 16.396620 27.737177 20.613582
2832 20 1 -1.1794 20.026990 31.914490 20.026990
2833 20 2 0.5897 19.761994 32.440484 19.234030
2834 20 2 0.5897 20.539295 32.581563 20.539321
2835 20 1 -1.1794 15.635510 31.914490 15.635510
2836 20 2 0.5897 15.922137 32.367251 16.460531
2837 20 2 0.5897 15.060469 31.199681 15.987563
2838 20 1 -1.1794 20.026990 27.523010 15.635510
2839 20 2 0.5897 19.264769 27.881705 15.132611
2840 20 2 0.5897 20.485326 28.365218 15.893531
2841 20 1 -1.1794 11.887500 27.454775 13.273107
2842 20 2 0.5897 11.922998 28.234067 13.876957
2843 20 2 0.5897 12.685985 26.954090 13.559256
2844 20 1 -1.1794 11.887500 31.982725 13.273107
2845 20 2 0.5897 11.128869 32.506842 13.624852
2846 20 2 0.5897 12.646872 32.554826 13.557876
2847 20 1 -1.1794 11.887500 27.454775 22.389393
2848 20 2 0.5897 11.843132 27.626890 23.356964
2849 20 2 0.5897 11.868941 28.353141 21.997446
2850 20 1 -1.1794 11.887500 31.982725 22.389393
2851 20 2 0.5897 12.093029 32.049438 23.357486
2852 20 2 0.5897 11.108049 31.404397 22.475442
2853 20 1 -1.1794 13.273107 23.775000 15.567275
2854 20 2 0.5897 12.305226 23.680341 15.708634
2855 20 2 0.5897 13.642070 23.675572 16.469468
2856 20 1 -1.1794 13.273107 23.775000 20.095225
2857 20 2 0.5897 13.604336 24.521754 20.645536
2858 20 2 0.5897 13.602206 23.003957 20.614450
2859 20 1 -1.1794 22.389393 23.775000 15.567275
2860 20 2 0.5897 21.804308 23.781667 16.359979
2861 20 2 0.5897 22.071838 24.574264 15.089235
2862 20 1 -1.1794 22.389393 23.775000 20.095225
2863 20 2 0.5897 22.193138 24.573873 20.636625
2864 20 2 0.5897 23.368428 23.841494 20.004178
2865 20 1 -1.1794 15.567275 25.160607 11.887500
2866 20 2 0.5897 15.068986 25.435080 12.690727
2867 20 2 0.5897 16.352910 25.747311 11.925497
2868 20 1 -1.1794 20.095225 25.160607 11.887500
2869 20 2 0.5897 20.668354 25.389855 12.657015
2870 20 2 0.5897 20.679541 25.428488 11.139635
2871 20 1 -1.1794 15.567275 34.276893 11.887500
2872 20 2 0.5897 15.757086 35.227377 11.991847
2873 20 2 0.5897 16.433834 33.843458 11.999636
2874 20 1 -1.1794 20.095225 34.276893 11.887500
2875 20 2 0.5897 20.009784 35.253258 11.804074
2876 20 2 0.5897 20.575217 34.051857 11.060137
2877 20 1 -1.1794 21.511025 29.718750 16.445643
2878 20 2 0.5897 21.700835 29.823098 17.396127
2879 20 2 0.5897 22.377584 29.830885 16.012208
2880 20 1 -1.1794 14.151475 29.718750 16.445643
2881 20 2 0.5897 14.066031 29.635324 17.422008
2882 20 2 0.5897 14.631467 28.891387 16.220608
2883 20 1 -1.1794 21.511025 29.718750 19.216857
2884 20 2 0.5897 21.012738 30.521978 19.491333
2885 20 2 0.5897 22.296660 29.756743 19.803561
2886 20 1 -1.1794 14.151475 29.718750 19.216857
2887 20 2 0.5897 14.724602 30.488267 19.446105
2888 20 2 0.5897 14.735793 28.970886 19.484739
2889 20 1 -1.1794 17.831250 31.104357 14.151475
2890 20 2 0.5897 17.072622 31.456106 14.675593
2891 20 2 0.5897 18.590624 31.389122 14.723575
2892 20 1 -1.1794 17.831250 31.104357 21.511025
2893 20 2 0.5897 17.866750 31.708206 22.290318
2894 20 2 0.5897 18.629737 31.390502 21.010342
2895 20 1 -1.1794 17.831250 28.333143 14.151475
2896 20 2 0.5897 18.036764 29.301242 14.218161
2897 20 2 0.5897 17.051778 28.419161 13.573181
2898 20 1 -1.1794 17.831250 28.333143 21.511025
2899 20 2 0.5897 17.786883 29.300713 21.683144
2900 20 2 0.5897 17.812692 27.941192 22.409389
2901 20 1 -1.1794 19.216857 33.398525 17.831250
2902 20 2 0.5897 18.248976 33.539884 17.736590
2903 20 2 0.5897 19.585820 34.300718 17.731822
2904 20 1 -1.1794 19.216857 26.038975 17.831250
2905 20 2 0.5897 19.548088 26.589285 18.578003
2906 20 2 0.5897 19.545958 26.558199 17.060206
2907 20 1 -1.1794 16.445643 33.398525 17.831250
2908 20 2 0.5897 15.860556 34.191229 17.837916
2909 20 2 0.5897 16.128088 32.920485 18.630514
2910 20 1 -1.1794 16.445643 26.038975 17.831250
2911 20 2 0.5897 16.249390 26.580372 18.630125
2912 20 2 0.5897 17.424678 25.947928 17.897742
2913 20 3 0.0 11.887500 23.775000 11.887500
2914 20 3 0.0 17.831250 29.718750 17.831250
2915 20 3 0.0 11.887500 26.746875 17.831250
2916 20 3 0.0 11.887500 32.690625 17.831250
2917 20 3 0.0 17.831250 23.775000 14.859375
2918 20 3 0.0 17.831250 23.775000 20.803125
2919 20 3 0.0 14.859375 29.718750 11.887500
2920 20 3 0.0 20.803125 29.718750 11.887500
2921 21 1 -1.1794 11.887500 29.718750 26.746875
2922 21 2 0.5897 11.897156 30.521382 26.176692
2923 21 2 0.5897 12.706706 29.853805 27.275477
2924 21 1 -1.1794 11.887500 29.718750 32.690625
2925 21 2 0.5897 12.168567 30.583436 33.052971
2926 21 2 0.5897 12.610734 29.587773 32.029920
2927 21 1 -1.1794 14.859375 23.775000 29.718750
2928 21 2 0.5897 14.296866 23.887795 30.516859
2929 21 2 0.5897 15.393904 24.601096 29.730505
2930 21 1 -1.1794 20.803125 23.775000 29.718750
2931 21 2 0.5897 20.240617 24.573110 29.831546
2932 21 2 0.5897 21.337653 23.786753 30.544848
2933 21 1 -1.1794 17.831250 26.746875 23.775000
2934 21 2 0.5897 18.112323 27.109227 24.639683
2935 21 2 0.5897 18.554485 26.086172 23.644021
2936 21 1 -1.1794 17.831250 32.690625 23.775000
2937 21 2 0.5897 17.840909 32.120441 24.577632
2938 21 2 0.5897 18.650455 33.219227 23.910054
2939 21 1 -1.1794 14.083240 25.970740 25.970740
2940 21 2 0.5897 13.818243 25.177781 26.496735
2941 21 2 0.5897 14.595546 26.483072 26.637811
2942 21 1 -1.1794 21.579260 33.466760 25.970740
2943 21 2 0.5897 21.865888 34.291781 26.423501
2944 21 2 0.5897 21.004218 33.818814 25.255933
2945 21 1 -1.1794 21.579260 25.970740 33.466760
2946 21 2 0.5897 21.041781 26.557308 32.879938
2947 21 2 0.5897 22.340371 26.557332 33.680926
2948 21 1 -1.1794 14.083240 33.466760 33.466760
2949 21 2 0.5897 13.321015 32.963865 33.825449
2950 21 2 0.5897 14.541573 33.724780 34.308970
2951 21 1 -1.1794 20.026990 31.914490 27.523010
2952 21 2 0.5897 19.942952 32.381915 28.376005
2953 21 2 0.5897 20.732952 32.419310 27.069149
2954 21 1 -1.1794 15.635510 27.523010 27.523010
2955 21 2 0.5897 15.889865 26.959788 28.294697
2956 21 2 0.5897 16.527481 27.745836 27.185372
2957 21 1 -1.1794 20.026990 27.523010 31.914490
2958 21 2 0.5897 19.240636 27.885945 32.384681
2959 21 2 0.5897 20.454714 28.347992 31.585198
2960 21 1 -1.1794 15.635510 31.914490 31.914490
2961 21 2 0.5897 15.123113 32.506546 32.517287
2962 21 2 0.5897 16.378956 31.644471 32.500499
2963 21 1 -1.1794 21.579260 33.466760 33.466760
2964 21 2 0.5897 21.833637 34.238442 32.903541
2965 21 2 0.5897 22.471221 33.129096 33.689592
2966 21 1 -1.1794 14.083240 25.970740 33.466760
2967 21 2 0.5897 13.296885 26.440929 33.829694
2968 21 2 0.5897 14.510964 25.641447 34.291742
2969 21 1 -1.1794 14.083240 33.466760 25.970740
2970 21 2 0.5897 13.999203 34.319755 26.438166
2971 21 2 0.5897 14.789202 33.012898 26.475560
2972 21 1 -1.1794 21.579260 25.970740 25.970740
2973 21 2 0.5897 21.066861 26.573535 26.562796
2974 21 2 0.5897 22.322705 26.556750 25.700722
2975 21 1 -1.1794 15.635510 27.523010 31.914490
2976 21 2 0.5897 15.098031 26.936188 32.501058
2977 21 2 0.5897 16.396620 27.737177 32.501082
2978 21 1 -1.1794 20.026990 31.914490 31.914490
2979 21 2 0.5897 19.761994 32.440484 31.121530
2980 21 2 0.5897 20.539295 32.581563 32.426821
2981 21 1 -1.1794 15.635510 31.914490 27.523010
2982 21 2 0.5897 15.922137 32.367251 28.348031
2983 21 2 0.5897 15.060469 31.199681 27.875063
2984 21 1 -1.1794 20.026990 27.523010 27.523010
2985 21 2 0.5897 19.264769 27.881705 27.020111
2986 21 2 0.5897 20.485326 28.365218 27.781031
2987 21 1 -1.1794 11.887500 27.454775 25.160607
2988 21 2 0.5897 11.922998 28.234067 25.764457
2989 21 2 0.5897 12.685985 26.954090 25.446756
2990 21 1 -1.1794 11.887500 31.982725 25.160607
2991 21 2 0.5897 11.128869 32.506842 25.512352
2992 21 2 0.5897 12.646872 32.554826 25.445376
2993 21 1 -1.1794 11.887500 27.454775 34.276893
2994 21 2 0.5897 11.843132 27.626890 35.244464
2995 21 2 0.5897 11.868941 28.353141 33.884946
2996 21 1 -1.1794 11.887500 31.982725 34.276893
2997 21 2 0.5897 12.093029 32.049438 35.244986
2998 21 2 0.5897 11.108049 31.404397 34.362942
2999 21 1 -1.1794 13.273107 23.775000 27.454775
3000 21 2 0.5897 12.305226 23.680341 27.596134
3001 21 2 0.5897 13.642070 23.675572 28.356968
3002 21 1 -1.1794 13.273107 23.775000 31.982725
3003 21 2 0.5897 13.604336 24.521754 32.533036
3004 21 2 0.5897 13.602206 23.003957 32.501950
3005 21 1 -1.1794 22.389393 23.775000 27.454775
3006 21 2 0.5897 21.804308 23.781667 28.247479
3007 21 2 0.5897 22.071838 24.574264 26.976735
3008 21 1 -1.1794 22.389393 23.775000 31.982725
3009 21 2 0.5897 22.193138 24.573873 32.524125
3010 21 2 0.5897 23.368428 23.841494 31.891678
3011 21 1 -1.1794 15.567275 25.160607 23.775000
3012 21 2 0.5897 15.068986 25.435080 24.578227
3013 21 2 0.5897 16.352910 25.747311 23.812997
3014 21 1 -1.1794 20.095225 25.160607 23.775000
3015 21 2 0.5897 20.668354 25.389855 24.544515
3016 21 2 0.5897 20.679541 25.428488 23.027135
3017 21 1 -1.1794 15.567275 34.276893 23.775000
3018 21 2 0.5897 15.757086 35.227377 23.879347
3019 21 2 0.5897 16.433834 33.843458 23.887136
3020 21 1 -1.1794 20.095225 34.276893 23.775000
3021 21 2 0.5897 20.009784 35.253258 23.691574
3022 21 2 0.5897 20.575217 34.051857 22.947637
3023 21 1 -1.1794 21.511025 29.718750 28.333143
3024 21 2 0.5897 21.700835 29.823098 29.283627
3025 21 2 0.5897 22.377584 29.830885 27.899708
3026 21 1 -1.1794 14.151475 29.718750 28.333143
3027 21 2 0.5897 14.066031 29.635324 29.309508
3028 21 2 0.5897 14.631467 28.891387 28.108108
3029 21 1 -1.1794 21.511025 29.718750 31.104357
3030 21 2 0.5897 21.012738 30.521978 31.378833
3031 21 2 0.5897 22.296660 29.756743 31.691061
3032 21 1 -1.1794 14.151475 29.718750 31.104357
3033 21 2 0.5897 14.724602 30.488267 31.333605
3034 21 2 0.5897 14.735793 28.970886 31.372239
3035 21 1 -1.1794 17.831250 31.104357 26.038975
3036 21 2 0.5897 17.072622 31.456106 26.563093
3037 21 2 0.5897 18.590624 31.389122 26.611075
3038 21 1 -1.1794 17.831250 31.104357 33.398525
3039 21 2 0.5897 17.866750 31.708206 34.177818
3040 21 2 0.5897 18.629737 31.390502 32.897842
3041 21 1 -1.1794 17.831250 28.333143 26.038975
3042 21 2 0.5897 18.036764 29.301242 26.105661
3043 21 2 0.5897 17.051778 28.419161 25.460681
3044 21 1 -1.1794 17.831250 28.333143 33.398525
3045 21 2 0.5897 17.786883 29.300713 33.570644
3046 21 2 0.5897 17.812692 27.941192 34.296889
3047 21 1 -1.1794 19.216857 33.398525 29.718750
3048 21 2 0.5897 18.248976 33.539884 29.624090
3049 21 2 0.5897 19.585820 34.300718 29.619322
3050 21 1 -1.1794 19.216857 26.038975 29.718750
3051 21 2 0.5897 19.548088 26.589285 30.465503
3052 21 2 0.5897 19.545958 26.558199 28.947706
3053 21 1 -1.1794 16.445643 33.398525 29.718750
3054 21 2 0.5897 15.860556 34.191229 29.725416
3055 21 2 0.5897 16.128088 32.920485 30.518014
3056 21 1 -1.1794 16.445643 26.038975 29.718750
3057 21 2 0.5897 16.249390 26.580372 30.517625
3058 21 2 0.5897 17.424678 25.947928 29.785242
3059 21 3 0.0 11.887500 23.775000 23.775000
3060 21 3 0.0 17.831250 29.718750 29.718750
3061 21 3 0.0 11.887500 26.746875 29.718750
3062 21 3 0.0 11.887500 32.690625 29.718750
3063 21 3 0.0 17.831250 23.775000 26.746875
3064 21 3 0.0 17.831250 23.775000 32.690625
3065 21 3 0.0 14.859375 29.718750 23.775000
3066 21 3 0.0 20.803125 29.718750 23.775000
3067 22 1 -1.1794 11.887500 41.606250 2.971875
3068 22 2 0.5897 11.897156 42.408882 2.401692
3069 22 2 0.5897 12.706706 41.741305 3.500477
3070 22 1 -1.1794 11.887500 41.606250 8.915625
3071 22 2 0.5897 12.168567 42.470936 9.277971
3072 22 2 0.5897 12.610734 41.475273 8.254920
3073 22 1 -1.1794 14.859375 35.662500 5.943750
3074 22 2 0.5897 14.296866 35.775295 6.741859
3075 22 2 0.5897 15.393904 36.488596 5.955505
3076 22 1 -1.1794 20.803125 35.662500 5.943750
3077 22 2 0.5897 20.240617 36.460610 6.056546
3078 22 2 0.5897 21.337653 35.674253 6.769848
3079 22 1 -1.1794 17.831250 38.634375 0.000000
3080 22 2 0.5897 18.112323 38.996727 0.864683
3081 22 2 0.5897 18.554485 37.973672 -0.130979
3082 22 1 -1.1794 17.831250 44.578125 0.000000
3083 22 2 0.5897 17.840909 44.007941 0.802632
3084 22 2 0.5897 18.650455 45.106727 0.135054
3085 22 1 -1.1794 14.083240 37.858240 2.195740
3086 22 2 0.5897 13.818243 37.065281 2.721735
3087 22 2 0.5897 14.595546 38.370572 2.862811
3088 22 1 -1.1794 21.579260 45.354260 2.195740
3089 22 2 0.5897 21.865888 46.179281 2.648501
3090 22 2 0.5897 21.004218 45.706314 1.480933
3091 22 1 -1.1794 21.579260 37.858240 9.691760
3092 22 2 0.5897 21.041781 38.444808 9.104938
3093 22 2 0.5897 22.340371 38.444832 9.905926
3094 22 1 -1.1794 14.083240 45.354260 9.691760
3095 22 2 0.5897 13.321015 44.851365 10.050449
3096 22 2 0.5897 14.541573 45.612280 10.533970
3097 22 1 -1.1794 20.026990 43.801990 3.748010
3098 22 2 0.5897 19.942952 44.269415 4.601005
3099 22 2 0.5897 20.732952 44.306810 3.294149
3100 22 1 -1.1794 15.635510 39.410510 3.748010
3101 22 2 0.5897 15.889865 38.847288 4.519697
3102 22 2 0.5897 16.527481 39.633336 3.410372
3103 22 1 -1.1794 20.026990 39.410510 8.139490
3104 22 2 0.5897 19.240636 39.773445 8.609681
3105 22 2 0.5897 20.454714 40.235492 7.810198
3106 22 1 -1.1794 15.635510 43.801990 8.139490
3107 22 2 0.5897 15.123113 44.394046 8.742287
3108 22 2 0.5897 16.378956 43.531971 8.725499
3109 22 1 -1.1794 21.579260 45.354260 9.691760
3110 22 2 0.5897 21.833637 46.125942 9.128541
3111 22 2 0.5897 22.471221 45.016596 9.914592
3112 22 1 -1.1794 14.083240 37.858240 9.691760
3113 22 2 0.5897 13.296885 38.328429 10.054694
3114 22 2 0.5897 14.510964 37.528947 10.516742
3115 22 1 -1.1794 14.083240 45.354260 2.195740
3116 22 2 0.5897 13.999203 46.207255 2.663166
3117 22 2 0.5897 14.789202 44.900398 2.700560
3118 22 1 -1.1794 21.579260 37.858240 2.195740
3119 22 2 0.5897 21.066861 38.461035 2.787796
3120 22 2 0.5897 22.322705 38.444250 1.925722
3121 22 1 -1.1794 15.635510 39.410510 8.139490
3122 22 2 0.5897 15.098031 38.823688 8.726058
3123 22 2 0.5897 16.396620 39.624677 8.726082
3124 22 1 -1.1794 20.026990 43.801990 8.139490
3125 22 2 0.5897 19.761994 44.327984 7.346530
3126 22 2 0.5897 20.539295 44.469063 8.651821
3127 22 1 -1.1794 15.635510 43.801990 3.748010
3128 22 2 0.5897 15.922137 44.254751 4.573031
3129 22 2 0.5897 15.060469 43.087181 4.100063
3130 22 1 -1.1794 20.026990 39.410510 3.748010
3131 22 2 0.5897 19.264769 39.769205 3.245111
3132 22 2 0.5897 20.485326 40.252718 4.006031
3133 22 1 -1.1794 11.887500 39.342275 1.385607
3134 22 2 0.5897 11.922998 40.121567 1.989457
3135 22 2 0.5897 12.685985 38.841590 1.671756
3136 22 1 -1.1794 11.887500 43.870225 1.385607
3137 22 2 0.5897 11.128869 44.394342 1.737352
3138 22 2 0.5897 12.646872 44.442326 1.670376
3139 22 1 -1.1794 11.887500 39.342275 10.501893
3140 22 2 0.5897 11.843132 39.514390 11.469464
3141 22 2 0.5897 11.868941 40.240641 10.109946
3142 22 1 -1.1794 11.887500 43.870225 10.501893
3143 22 2 0.5897 12.093029 43.936938 11.469986
3144 22 2 0.5897 11.108049 43.291897 10.587942
3145 22 1 -1.1794 13.273107 35.662500 3.679775
3146 22 2 0.5897 12.305226 35.567841 3.821134
3147 22 2 0.5897 13.642070 35.563072 4.581968
3148 22 1 -1.1794 13.273107 35.662500 8.207725
3149 22 2 0.5897 13.604336 36.409254 8.758036
3150 22 2 0.5897 13.602206 34.891457 8.726950
3151 22 1 -1.1794 22.389393 35.662500 3.679775
3152 22 2 0.5897 21.804308 35.669167 4.472479
3153 22 2 0.5897 22.071838 36.461764 3.201735
3154 22 1 -1.1794 22.389393 35.662500 8.207725
3155 22 2 0.5897 22.193138 36.461373 8.749125
3156 22 2 0.5897 23.368428 35.728994 8.116678
3157 22 1 -1.1794 15.567275 37.048107 0.000000
3158 22 2 0.5897 15.068986 37.322580 0.803227
3159 22 2 0.5897 16.352910 37.634811 0.037997
3160 22 1 -1.1794 20.095225 37.048107 0.000000
3161 22 2 0.5897 20.668354 37.277355 0.769515
3162 22 2 0.5897 20.679541 37.315988 -0.747865
3163 22 1 -1.1794 15.567275 46.164393 0.000000
3164 22 2 0.5897 15.757086 47.114877 0.104347
3165 22 2 0.5897 16.433834 45.730958 0.112136
3166 22 1 -1.1794 20.095225 46.164393 0.000000
3167 22 2 0.5897 20.009784 47.140758 -0.083426
3168 22 2 0.5897 20.575217 45.939357 -0.827363
3169 22 1 -1.1794 21.511025 41.606250 4.558143
3170 22 2 0.5897 21.700835 41.710598 5.508627
3171 22 2 0.5897 22.377584 41.718385 4.124708
3172 22 1 -1.1794 14.151475 41.606250 4.558143
3173 22 2 0.5897 14.066031 41.522824 5.534508
3174 22 2 0.5897 14.631467 40.778887 4.333108
3175 22 1 -1.1794 21.511025 41.606250 7.329357
3176 22 2 0.5897 21.012738 42.409478 7.603833
3177 22 2 0.5897 22.296660 41.644243 7.916061
3178 22 1 -1.1794 14.151475 41.606250 7.329357
3179 22 2 0.5897 14.724602 42.375767 7.558605
3180 22 2 0.5897 14.735793 40.858386 7.597239
3181 22 1 -1.1794 17.831250 42.991857 2.263975
3182 22 2 0.5897 17.072622 43.343606 2.788093
3183 22 2 0.5897 18.590624 43.276622 2.836075
3184 22 1 -1.1794 17.831250 42.991857 9.623525
3185 22 2 0.5897 17.866750 43.595706 10.402818
3186 22 2 0.5897 18.629737 43.278002 9.122842
3187 22 1 -1.1794 17.831250 40.220643 2.263975
3188 22 2 0.5897 18.036764 41.188742 2.330661
3189 22 2 0.5897 17.051778 40.306661 1.685681
3190 22 1 -1.1794 17.831250 40.220643 9.623525
3191 22 2 0.5897 17.786883 41.188213 9.795644
3192 22 2 0.5897 17.812692 39.828692 10.521889
3193 22 1 -1.1794 19.216857 45.286025 5.943750
3194 22 2 0.5897 18.248976 45.427384 5.849090
3195 22 2 0.5897 19.585820 46.188218 5.844322
3196 22 1 -1.1794 19.216857 37.926475 5.943750
3197 22 2 0.5897 19.548088 38.476785 6.690503
3198 22 2 0.5897 19.545958 38.445699 5.172706
3199 22 1 -1.1794 16.445643 45.286025 5.943750
3200 22 2 0.5897 15.860556 46.078729 5.950416
3201 22 2 0.5897 16.128088 44.807985 6.743014
3202 22 1 -1.1794 16.445643 37.926475 5.943750
3203 22 2 0.5897 16.249390 38.467872 6.742625
3204 22 2 0.5897 17.424678 37.835428 6.010242
3205 22 3 0.0 11.887500 35.662500 0.000000
3206 22 3 0.0 17.831250 41.606250 5.943750
3207 22 3 0.0 11.887500 38.634375 5.943750
3208 22 3 0.0 11.887500 44.578125 5.943750
3209 22 3 0.0 17.831250 35.662500 2.971875
3210 22 3 0.0 17.831250 35.662500 8.915625
3211 22 3 0.0 14.859375 41.606250 0.000000
3212 22 3 0.0 20.803125 41.606250 0.000000
3213 23 1 -1.1794 11.887500 41.606250 14.859375
3214 23 2 0.5897 11.897156 42.408882 14.289192
3215 23 2 0.5897 12.706706 41.741305 15.387977
3216 23 1 -1.1794 11.887500 41.606250 20.803125
3217 23 2 0.5897 12.168567 42.470936 21.165471
3218 23 2 0.5897 12.610734 41.475273 20.142420
3219 23 1 -1.1794 14.859375 35.662500 17.831250
3220 23 2 0.5897 14.296866 35.775295 18.629359
3221 23 2 0.5897 15.393904 36.488596 17.843005
3222 23 1 -1.1794 20.803125 35.662500 17.831250
3223 23 2 0.5897 20.240617 36.460610 17.944046
3224 23 2 0.5897 21.337653 35.674253 18.657348
3225 23 1 -1.1794 17.831250 38.634375 11.887500
3226 23 2 0.5897 18.112323 38.996727 12.752183
3227 23 2 0.5897 18.554485 37.973672 11.756521
3228 23 1 -1.1794 17.831250 44.578125 11.887500
3229 23 2 0.5897 17.840909 44.007941 12.690132
3230 23 2 0.5897 18.650455 45.106727 12.022554
3231 23 1 -1.1794 14.083240 37.858240 14.083240
3232 23 2 0.5897 13.818243 37.065281 14.609235
3233 23 2 0.5897 14.595546 38.370572 14.750311
3234 23 1 -1.1794 21.579260 45.354260 14.083240
3235 23 2 0.5897 21.865888 46.179281 14.536001
3236 23 2 0.5897 21.004218 45.706314 13.368433
3237 23 1 -1.1794 21.579260 37.858240 21.579260
3238 23 2 0.5897 21.041781 38.444808 20.992438
3239 23 2 0.5897 22.340371 38.444832 21.793426
3240 23 1 -1.1794 14.083240 45.354260 21.579260
3241 23 2 0.5897 13.321015 44.851365 21.937949
3242 23 2 0.5897 14.541573 45.612280 22.421470
3243 23 1 -1.1794 20.026990 43.801990 15.635510
3244 23 2 0.5897 19.942952 44.269415 16.488505
3245 23 2 0.5897 20.732952 44.306810 15.181649
3246 23 1 -1.1794 15.635510 39.410510 15.635510
3247 23 2 0.5897 15.889865 38.847288 16.407197
3248 23 2 0.5897 16.527481 39.633336 15.297872
3249 23 1 -1.1794 20.026990 39.410510 20.026990
3250 23 2 0.5897 19.240636 39.773445 20.497181
3251 23 2 0.5897 20.454714 40.235492 19.697698
3252 23 1 -1.1794 15.635510 43.801990 20.026990
3253 23 2 0.5897 15.123113 44.394046 20.629787
3254 23 2 0.5897 16.378956 43.531971 20.612999
3255 23 1 -1.1794 21.579260 45.354260 21.579260
3256 23 2 0.5897 21.833637 46.125942 21.016041
3257 23 2 0.5897 22.471221 45.016596 21.802092
3258 23 1 -1.1794 14.083240 37.858240 21.579260
3259 23 2 0.5897 13.296885 38.328429 21.942194
3260 23 2 0.5897 14.510964 37.528947 22.404242
3261 23 1 -1.1794 14.083240 45.354260 14.083240
3262 23 2 0.5897 13.999203 46.207255 14.550666
3263 23 2 0.5897 14.789202 44.900398 14.588060
3264 23 1 -1.1794 21.579260 37.858240 14.083240
3265 23 2 0.5897 21.066861 38.461035 14.675296
3266 23 2 0.5897 22.322705 38.444250 13.813222
3267 23 1 -1.1794 15.635510 39.410510 20.026990
3268 23 2 0.5897 15.098031 38.823688 20.613558
3269 23 2 0.5897 16.396620 39.624677 20.613582
3270 23 1 -1.1794 20.026990 43.801990 20.026990
3271 23 2 0.5897 19.761994 44.327984 19.234030
3272 23 2 0.5897 20.539295 44.469063 20.539321
3273 23 1 -1.1794 15.635510 43.801990 15.635510
3274 23 2 0.5897 15.922137 44.254751 16.460531
3275 23 2 0.5897 15.060469 43.087181 15.987563
3276 23 1 -1.1794 20.026990 39.410510 15.635510
3277 23 2 0.5897 19.264769 39.769205 15.132611
3278 23 2 0.5897 20.485326 40.252718 15.893531
3279 23 1 -1.1794 11.887500 39.342275 13.273107
3280 23 2 0.5897 11.922998 40.121567 13.876957
3281 23 2 0.5897 12.685985 38.841590 13.559256
3282 23 1 -1.1794 11.887500 43.870225 13.273107
3283 23 2 0.5897 11.128869 44.394342 13.624852
3284 23 2 0.5897 12.646872 44.442326 13.557876
3285 23 1 -1.1794 11.887500 39.342275 22.389393
3286 23 2 0.5897 11.843132 39.514390 23.356964
3287 23 2 0.5897 11.868941 40.240641 21.997446
3288 23 1 -1.1794 11.887500 43.870225 22.389393
3289 23 2 0.5897 12.093029 43.936938 23.357486
3290 23 2 0.5897 11.108049 43.291897 22.475442
3291 23 1 -1.1794 13.273107 35.662500 15.567275
3292 23 2 0.5897 12.305226 35.567841 15.708634
3293 23 2 0.5897 13.642070 35.563072 16.469468
3294 23 1 -1.1794 13.273107 35.662500 20.095225
3295 23 2 0.5897 13.604336 36.409254 20.645536
3296 23 2 0.5897 13.602206 34.891457 20.614450
3297 23 1 -1.1794 22.389393 35.662500 15.567275
3298 23 2 0.5897 21.804308 35.669167 16.359979
3299 23 2 0.5897 22.071838 36.461764 15.089235
3300 23 1 -1.1794 22.389393 35.662500 20.095225
3301 23 2 0.5897 22.193138 36.461373 20.636625
3302 23 2 0.5897 23.368428 35.728994 20.004178
3303 23 1 -1.1794 15.567275 37.048107 11.887500
3304 23 2 0.5897 15.068986 37.322580 12.690727
3305 23 2 0.5897 16.352910 37.634811 11.925497
3306 23 1 -1.1794 20.095225 37.048107 11.887500
3307 23 2 0.5897 20.668354 37.277355 12.657015
3308 23 2 0.5897 20.679541 37.315988 11.139635
3309 23 1 -1.1794 15.567275 46.164393 11.887500
3310 23 2 0.5897 15.757086 47.114877 11.991847
3311 23 2 0.5897 16.433834 45.730958 11.999636
3312 23 1 -1.1794 20.095225 46.164393 11.887500
3313 23 2 0.5897 20.009784 47.140758 11.804074
3314 23 2 0.5897 20.575217 45.939357 11.060137
3315 23 1 -1.1794 21.511025 41.606250 16.445643
3316 23 2 0.5897 21.700835 41.710598 17.396127
3317 23 2 0.5897 22.377584 41.718385 16.012208
3318 23 1 -1.1794 14.151475 41.606250 16.445643
3319 23 2 0.5897 14.066031 41.522824 17.422008
3320 23 2 0.5897 14.631467 40.778887 16.220608
3321 23 1 -1.1794 21.511025 41.606250 19.216857
3322 23 2 0.5897 21.012738 42.409478 19.491333
3323 23 2 0.5897 22.296660 41.644243 19.803561
3324 23 1 -1.1794 14.151475 41.606250 19.216857
3325 23 2 0.5897 14.724602 42.375767 19.446105
3326 23 2 0.5897 14.735793 40.858386 19.484739
3327 23 1 -1.1794 17.831250 42.991857 14.151475
3328 23 2 0.5897 17.072622 43.343606 14.675593
3329 23 2 0.5897 18.590624 43.276622 14.723575
3330 23 1 -1.1794 17.831250 42.991857 21.511025
3331 23 2 0.5897 17.866750 43.595706 22.290318
3332 23 2 0.5897 18.629737 43.278002 21.010342
3333 23 1 -1.1794 17.831250 40.220643 14.151475
3334 23 2 0.5897 18.036764 41.188742 14.218161
3335 23 2 0.5897 17.051778 40.306661 13.573181
3336 23 1 -1.1794 17.831250 40.220643 21.511025
3337 23 2 0.5897 17.786883 41.188213 21.683144
3338 23 2 0.5897 17.812692 39.828692 22.409389
3339 23 1 -1.1794 19.216857 45.286025 17.831250
3340 23 2 0.5897 18.248976 45.427384 17.736590
3341 23 2 0.5897 19.585820 46.188218 17.731822
3342 23 1 -1.1794 19.216857 37.926475 17.831250
3343 23 2 0.5897 19.548088 38.476785 18.578003
3344 23 2 0.5897 19.545958 38.445699 17.060206
3345 23 1 -1.1794 16.445643 45.286025 17.831250
3346 23 2 0.5897 15.860556 46.078729 17.837916
3347 23 2 0.5897 16.128088 44.807985 18.630514
3348 23 1 -1.1794 16.445643 37.926475 17.831250
3349 23 2 0.5897 16.249390 38.467872 18.630125
3350 23 2 0.5897 17.424678 37.835428 17.897742
3351 23 3 0.0 11.887500 35.662500 11.887500
3352 23 3 0.0 17.831250 41.606250 17.831250
3353 23 3 0.0 11.887500 38.634375 17.831250
3354 23 3 0.0 11.887500 44.578125 17.831250
3355 23 3 0.0 17.831250 35.662500 14.859375
3356 23 3 0.0 17.831250 35.662500 20.803125
3357 23 3 0.0 14.859375 41.606250 11.887500
3358 23 3 0.0 20.803125 41.606250 11.887500
3359 24 1 -1.1794 11.887500 41.606250 26.746875
3360 24 2 0.5897 11.897156 42.408882 26.176692
3361 24 2 0.5897 12.706706 41.741305 27.275477
3362 24 1 -1.1794 11.887500 41.606250 32.690625
3363 24 2 0.5897 12.168567 42.470936 33.052971
3364 24 2 0.5897 12.610734 41.475273 32.029920
3365 24 1 -1.1794 14.859375 35.662500 29.718750
3366 24 2 0.5897 14.296866 35.775295 30.516859
3367 24 2 0.5897 15.393904 36.488596 29.730505
3368 24 1 -1.1794 20.803125 35.662500 29.718750
3369 24 2 0.5897 20.240617 36.460610 29.831546
3370 24 2 0.5897 21.337653 35.674253 30.544848
3371 24 1 -1.1794 17.831250 38.634375 23.775000
3372 24 2 0.5897 18.112323 38.996727 24.639683
3373 24 2 0.5897 18.554485 37.973672 23.644021
3374 24 1 -1.1794 17.831250 44.578125 23.775000
3375 24 2 0.5897 17.840909 44.007941 24.577632
3376 24 2 0.5897 18.650455 45.106727 23.910054
3377 24 1 -1.1794 14.083240 37.858240 25.970740
3378 24 2 0.5897 13.818243 37.065281 26.496735
3379 24 2 0.5897 14.595546 38.370572 26.637811
3380 24 1 -1.1794 21.579260 45.354260 25.970740
3381 24 2 0.5897 21.865888 46.179281 26.423501
3382 24 2 0.5897 21.004218 45.706314 25.255933
3383 24 1 -1.1794 21.579260 37.858240 33.466760
3384 24 2 0.5897 21.041781 38.444808 32.879938
3385 24 2 0.5897 22.340371 38.444832 33.680926
3386 24 1 -1.1794 14.083240 45.354260 33.466760
3387 24 2 0.5897 13.321015 44.851365 33.825449
3388 24 2 0.5897 14.541573 45.612280 34.308970
3389 24 1 -1.1794 20.026990 43.801990 27.523010
3390 24 2 0.5897 19.942952 44.269415 28.376005
3391 24 2 0.5897 20.732952 44.306810 27.069149
3392 24 1 -1.1794 15.635510 39.410510 27.523010
3393 24 2 0.5897 15.889865 38.847288 28.294697
3394 24 2 0.5897 16.527481 39.633336 27.185372
3395 24 1 -1.1794 20.026990 39.410510 31.914490
3396 24 2 0.5897 19.240636 39.773445 32.384681
3397 24 2 0.5897 20.454714 40.235492 31.585198
3398 24 1 -1.1794 15.635510 43.801990 31.914490
3399 24 2 0.5897 15.123113 44.394046 32.517287
3400 24 2 0.5897 16.378956 43.531971 32.500499
3401 24 1 -1.1794 21.579260 45.354260 33.466760
3402 24 2 0.5897 21.833637 46.125942 32.903541
3403 24 2 0.5897 22.471221 45.016596 33.689592
3404 24 1 -1.1794 14.083240 37.858240 33.466760
3405 24 2 0.5897 13.296885 38.328429 33.829694
3406 24 2 0.5897 14.510964 37.528947 34.291742
3407 24 1 -1.1794 14.083240 45.354260 25.970740
3408 24 2 0.5897 13.999203 46.207255 26.438166
3409 24 2 0.5897 14.789202 44.900398 26.475560
3410 24 1 -1.1794 21.579260 37.858240 25.970740
3411 24 2 0.5897 21.066861 38.461035 26.562796
3412 24 2 0.5897 22.322705 38.444250 25.700722
3413 24 1 -1.1794 15.635510 39.410510 31.914490
3414 24 2 0.5897 15.098031 38.823688 32.501058
3415 24 2 0.5897 16.396620 39.624677 32.501082
3416 24 1 -1.1794 20.026990 43.801990 31.914490
3417 24 2 0.5897 19.761994 44.327984 31.121530
3418 24 2 0.5897 20.539295 44.469063 32.426821
3419 24 1 -1.1794 15.635510 43.801990 27.523010
3420 24 2 0.5897 15.922137 44.254751 28.348031
3421 24 2 0.5897 15.060469 43.087181 27.875063
3422 24 1 -1.1794 20.026990 39.410510 27.523010
3423 24 2 0.5897 19.264769 39.769205 27.020111
3424 24 2 0.5897 20.485326 40.252718 27.781031
3425 24 1 -1.1794 11.887500 39.342275 25.160607
3426 24 2 0.5897 11.922998 40.121567 25.764457
3427 24 2 0.5897 12.685985 38.841590 25.446756
3428 24 1 -1.1794 11.887500 43.870225 25.160607
3429 24 2 0.5897 11.128869 44.394342 25.512352
3430 24 2 0.5897 12.646872 44.442326 25.445376
3431 24 1 -1.1794 11.887500 39.342275 34.276893
3432 24 2 0.5897 11.843132 39.514390 35.244464
3433 24 2 0.5897 11.868941 40.240641 33.884946
3434 24 1 -1.1794 11.887500 43.870225 34.276893
3435 24 2 0.5897 12.093029 43.936938 35.244986
3436 24 2 0.5897 11.108049 43.291897 34.362942
3437 24 1 -1.1794 13.273107 35.662500 27.454775
3438 24 2 0.5897 12.305226 35.567841 27.596134
3439 24 2 0.5897 13.642070 35.563072 28.356968
3440 24 1 -1.1794 13.273107 35.662500 31.982725
3441 24 2 0.5897 13.604336 36.409254 32.533036
3442 24 2 0.5897 13.602206 34.891457 32.501950
3443 24 1 -1.1794 22.389393 35.662500 27.454775
3444 24 2 0.5897 21.804308 35.669167 28.247479
3445 24 2 0.5897 22.071838 36.461764 26.976735
3446 24 1 -1.1794 22.389393 35.662500 31.982725
3447 24 2 0.5897 22.193138 36.461373 32.524125
3448 24 2 0.5897 23.368428 35.728994 31.891678
3449 24 1 -1.1794 15.567275 37.048107 23.775000
3450 24 2 0.5897 15.068986 37.322580 24.578227
3451 24 2 0.5897 16.352910 37.634811 23.812997
3452 24 1 -1.1794 20.095225 37.048107 23.775000
3453 24 2 0.5897 20.668354 37.277355 24.544515
3454 24 2 0.5897 20.679541 37.315988 23.027135
3455 24 1 -1.1794 15.567275 46.164393 23.775000
3456 24 2 0.5897 15.757086 47.114877 23.879347
3457 24 2 0.5897 16.433834 45.730958 23.887136
3458 24 1 -1.1794 20.095225 46.164393 23.775000
3459 24 2 0.5897 20.009784 47.140758 23.691574
3460 24 2 0.5897 20.575217 45.939357 22.947637
3461 24 1 -1.1794 21.511025 41.606250 28.333143
3462 24 2 0.5897 21.700835 41.710598 29.283627
3463 24 2 0.5897 22.377584 41.718385 27.899708
3464 24 1 -1.1794 14.151475 41.606250 28.333143
3465 24 2 0.5897 14.066031 41.522824 29.309508
3466 24 2 0.5897 14.631467 40.778887 28.108108
3467 24 1 -1.1794 21.511025 41.606250 31.104357
3468 24 2 0.5897 21.012738 42.409478 31.378833
3469 24 2 0.5897 22.296660 41.644243 31.691061
3470 24 1 -1.1794 14.151475 41.606250 31.104357
3471 24 2 0.5897 14.724602 42.375767 31.333605
3472 24 2 0.5897 14.735793 40.858386 31.372239
3473 24 1 -1.1794 17.831250 42.991857 26.038975
3474 24 2 0.5897 17.072622 43.343606 26.563093
3475 24 2 0.5897 18.590624 43.276622 26.611075
3476 24 1 -1.1794 17.831250 42.991857 33.398525
3477 24 2 0.5897 17.866750 43.595706 34.177818
3478 24 2 0.5897 18.629737 43.278002 32.897842
3479 24 1 -1.1794 17.831250 40.220643 26.038975
3480 24 2 0.5897 18.036764 41.188742 26.105661
3481 24 2 0.5897 17.051778 40.306661 25.460681
3482 24 1 -1.1794 17.831250 40.220643 33.398525
3483 24 2 0.5897 17.786883 41.188213 33.570644
3484 24 2 0.5897 17.812692 39.828692 34.296889
3485 24 1 -1.1794 19.216857 45.286025 29.718750
3486 24 2 0.5897 18.248976 45.427384 29.624090
3487 24 2 0.5897 19.585820 46.188218 29.619322
3488 24 1 -1.1794 19.216857 37.926475 29.718750
3489 24 2 0.5897 19.548088 38.476785 30.465503
3490 24 2 0.5897 19.545958 38.445699 28.947706
3491 24 1 -1.1794 16.445643 45.286025 29.718750
3492 24 2 0.5897 15.860556 46.078729 29.725416
3493 24 2 0.5897 16.128088 44.807985 30.518014
3494 24 1 -1.1794 16.445643 37.926475 29.718750
3495 24 2 0.5897 16.249390 38.467872 30.517625
3496 24 2 0.5897 17.424678 37.835428 29.785242
3497 24 3 0.0 11.887500 35.662500 23.775000
3498 24 3 0.0 17.831250 41.606250 29.718750
3499 24 3 0.0 11.887500 38.634375 29.718750
3500 24 3 0.0 11.887500 44.578125 29.718750
3501 24 3 0.0 17.831250 35.662500 26.746875
3502 24 3 0.0 17.831250 35.662500 32.690625
3503 24 3 0.0 14.859375 41.606250 23.775000
3504 24 3 0.0 20.803125 41.606250 23.775000
3505 25 1 -1.1794 5.106254 85.844827 29.841046
3506 25 2 0.5897 5.883478 85.270119 29.584855
3507 25 2 0.5897 5.045837 86.622202 29.214916
3508 26 1 -1.1794 14.548411 56.105038 5.597449
3509 26 2 0.5897 14.289659 56.738452 6.326718
3510 26 2 0.5897 14.868509 55.247049 5.999186
3511 27 1 -1.1794 9.999097 62.085241 7.804976
3512 27 2 0.5897 9.391397 62.878181 7.849099
3513 27 2 0.5897 10.305850 61.952425 6.862500
3514 28 1 -1.1794 6.376744 52.023473 22.455420
3515 28 2 0.5897 6.924794 52.349418 23.225746
3516 28 2 0.5897 5.434383 52.341802 22.558481
3517 29 1 -1.1794 5.264717 82.237165 27.122402
3518 29 2 0.5897 4.460904 82.807108 27.292844
3519 29 2 0.5897 5.636349 82.446926 26.218030
3520 30 1 -1.1794 4.683574 95.461981 0.999776
3521 30 2 0.5897 4.682001 95.480553 -0.000051
3522 30 2 0.5897 3.753849 95.609151 1.337343
3523 31 1 -1.1794 19.665081 50.398106 6.077381
3524 31 2 0.5897 20.152854 50.845657 5.327864
3525 31 2 0.5897 20.324119 49.965844 6.692863
3526 32 1 -1.1794 0.963895 62.654871 28.048830
3527 32 2 0.5897 1.487564 62.786995 27.207216
3528 32 2 0.5897 0.000042 62.858598 27.877125
3529 33 1 -1.1794 17.785819 55.683976 2.302521
3530 33 2 0.5897 17.773235 56.519640 2.851617
3531 33 2 0.5897 17.751654 54.887726 2.906522
3532 34 1 -1.1794 4.771540 52.206316 27.028733
3533 34 2 0.5897 4.646177 52.116415 28.016762
3534 34 2 0.5897 4.693992 51.306382 26.599657
3535 35 1 -1.1794 18.648762 53.487460 12.286871
3536 35 2 0.5897 18.696513 54.213811 11.601208
3537 35 2 0.5897 19.276965 52.750830 12.036395
3538 36 1 -1.1794 2.475344 85.907570 12.923183
3539 36 2 0.5897 2.919813 85.735495 12.044071
3540 36 2 0.5897 2.415255 86.893533 13.078960
3541 37 1 -1.1794 3.957094 56.711114 21.482302
3542 37 2 0.5897 4.515890 56.489254 22.281380
3543 37 2 0.5897 2.999420 56.794123 21.757929
3544 38 1 -1.1794 21.559858 77.304526 10.096215
3545 38 2 0.5897 20.718995 77.412978 9.565943
3546 38 2 0.5897 21.532731 76.435389 10.590042
3547 39 1 -1.1794 6.144680 76.049841 16.423476
3548 39 2 0.5897 6.111875 75.812226 15.452671
3549 39 2 0.5897 5.588329 76.864706 16.586165
3550 40 1 -1.1794 12.527886 62.333205 1.830993
3551 40 2 0.5897 13.224041 61.879861 2.387632
3552 40 2 0.5897 12.019394 62.982298 2.396780
3553 41 1 -1.1794 0.130950 82.599982 21.811388
3554 41 2 0.5897 -0.000330 82.820309 22.777939
3555 41 2 0.5897 -0.000578 83.424311 21.260768
3556 42 1 -1.1794 5.487245 68.170447 8.942732
3557 42 2 0.5897 4.571853 67.974439 8.591110
3558 42 2 0.5897 5.545282 67.884210 9.899132
3559 43 1 -1.1794 15.905593 53.664900 8.197386
3560 43 2 0.5897 15.329089 54.473909 8.312049
3561 43 2 0.5897 16.125829 53.282645 9.094813
3562 44 1 -1.1794 0.420222 79.193634 23.943470
3563 44 2 0.5897 1.077643 79.553491 24.605512
3564 44 2 0.5897 -0.018617 78.377487 24.319404
3565 45 1 -1.1794 7.283525 72.069099 23.473921
3566 45 2 0.5897 6.837954 72.906265 23.156715
3567 45 2 0.5897 6.593532 71.438037 23.828420
3568 46 1 -1.1794 17.016730 51.262788 19.731324
3569 46 2 0.5897 17.592847 51.611427 18.992041
3570 46 2 0.5897 16.299745 50.680120 19.348663
3571 47 1 -1.1794 4.491862 92.027951 -0.016497
3572 47 2 0.5897 4.365892 91.525937 0.839139
3573 47 2 0.5897 4.941830 92.900807 0.172316
3574 48 1 -1.1794 21.196945 59.331944 22.133735
3575 48 2 0.5897 21.401250 58.780666 22.942655
3576 48 2 0.5897 20.977618 60.266484 22.413969
3577 49 1 -1.1794 3.416506 51.018191 9.862023
3578 49 2 0.5897 2.791898 51.757014 10.115016
3579 49 2 0.5897 3.593962 51.053843 8.878540
3580 50 1 -1.1794 20.212934 56.270469 29.564455
3581 50 2 0.5897 19.344221 56.228799 30.058015
3582 50 2 0.5897 20.962250 56.381182 30.217347
3583 51 1 -1.1794 0.161433 80.389935 22.095536
3584 51 2 0.5897 0.210105 80.377925 21.096793
3585 51 2 0.5897 1.034466 80.704676 22.468030
3586 52 1 -1.1794 12.593351 60.880176 21.977019
3587 52 2 0.5897 12.639695 59.903106 22.184832
3588 52 2 0.5897 13.368497 61.348314 22.401277
3589 53 1 -1.1794 0.315010 80.834697 18.784922
3590 53 2 0.5897 0.736427 80.158927 18.180155
3591 53 2 0.5897 0.104388 81.662266 18.264569
3592 54 1 -1.1794 1.916791 80.106091 1.405280
3593 54 2 0.5897 2.470362 79.493639 1.969604
3594 54 2 0.5897 1.308944 80.641350 1.991812
3595 55 1 -1.1794 7.341114 49.918613 12.538490
3596 55 2 0.5897 6.866204 50.727375 12.191554
3597 55 2 0.5897 7.096567 49.124318 11.982350
3598 56 1 -1.1794 11.589487 63.425152 10.437972
3599 56 2 0.5897 11.066146 63.232116 9.608002
3600 56 2 0.5897 12.317112 62.746594 10.538583
3601 57 1 -1.1794 5.174039 71.299108 26.708461
3602 57 2 0.5897 5.007973 70.580451 27.383704
3603 57 2 0.5897 4.299829 71.664795 26.389040
3604 58 1 -1.1794 2.798372 88.826375 30.258171
3605 58 2 0.5897 3.025428 88.454627 31.158310
3606 58 2 0.5897 2.000144 89.423693 30.335916
3607 59 1 -1.1794 9.257958 53.334171 22.933662
3608 59 2 0.5897 8.714968 53.632326 23.718688
3609 59 2 0.5897 10.065005 53.918045 22.845539
3610 60 1 -1.1794 8.643904 82.152605 5.730432
3611 60 2 0.5897 8.283970 81.560512 6.451455
3612 60 2 0.5897 9.044427 82.971841 6.140840
3613 61 1 -1.1794 0.294721 84.725550 18.816218
3614 61 2 0.5897 -0.000361 83.772127 18.878763
3615 61 2 0.5897 0.738085 84.994027 19.671406
3616 62 1 -1.1794 19.852496 71.749326 19.346356
3617 62 2 0.5897 20.509808 72.248813 19.910673
3618 62 2 0.5897 19.693891 72.251301 18.496141
3619 63 1 -1.1794 9.375697 59.804825 17.401454
3620 63 2 0.5897 8.676921 59.108930 17.567115
3621 63 2 0.5897 9.439929 59.985669 16.420042
3622 64 1 -1.1794 17.874720 72.358934 13.508795
3623 64 2 0.5897 16.990127 72.071904 13.876366
3624 64 2 0.5897 18.408987 72.798376 14.230910
3625 65 1 -1.1794 18.951513 98.045610 19.844925
3626 65 2 0.5897 19.835136 97.808402 19.441265
3627 65 2 0.5897 19.098411 98.550134 20.695735
3628 66 1 -1.1794 7.139439 68.720609 24.842590
3629 66 2 0.5897 7.166321 68.030673 24.119218
3630 66 2 0.5897 7.541234 69.572246 24.506027
3631 67 1 -1.1794 20.099678 80.094812 7.553399
3632 67 2 0.5897 19.470365 80.749992 7.135422
3633 67 2 0.5897 20.723446 79.740695 6.856610
3634 68 1 -1.1794 12.081407 76.217389 30.399784
3635 68 2 0.5897 11.794153 75.548900 29.713776
3636 68 2 0.5897 11.679286 75.981051 31.284342
3637 69 1 -1.1794 14.079701 81.188407 6.291128
3638 69 2 0.5897 13.306385 81.315170 6.912348
3639 69 2 0.5897 14.353244 80.226548 6.291368
3640 70 1 -1.1794 17.471009 53.273933 20.498361
3641 70 2 0.5897 18.213150 53.264962 21.168545
3642 70 2 0.5897 16.757119 53.905887 20.800014
3643 71 1 -1.1794 21.704136 60.485027 29.958709
3644 71 2 0.5897 21.775046 59.487851 29.934008
3645 71 2 0.5897 21.194896 60.802883 29.158933
3646 72 1 -1.1794 14.354531 93.476252 3.250504
3647 72 2 0.5897 14.264800 92.654351 3.813022
3648 72 2 0.5897 14.536965 94.264290 3.838479
3649 73 1 -1.1794 20.921079 97.331134 12.449415
3650 73 2 0.5897 21.775000 97.377102 12.967784
3651 73 2 0.5897 20.578921 98.256803 12.287969
3652 74 1 -1.1794 7.809649 69.079656 16.057938
3653 74 2 0.5897 6.919536 69.527041 15.971069
3654 74 2 0.5897 7.718377 68.263950 16.629159
3655 75 1 -1.1794 3.906106 75.948236 27.002622
3656 75 2 0.5897 4.638544 75.335606 26.705603
3657 75 2 0.5897 3.034140 75.630305 26.630339
3658 76 1 -1.1794 11.142347 54.812475 12.298194
3659 76 2 0.5897 11.059728 55.730510 11.910398
3660 76 2 0.5897 11.982199 54.384138 11.964763
3661 77 1 -1.1794 10.715413 69.218318 1.425265
3662 77 2 0.5897 10.393631 68.831329 0.561149
3663 77 2 0.5897 11.533198 68.727725 1.726172
3664 78 1 -1.1794 1.406698 88.530774 32.646272
3665 78 2 0.5897 2.101884 87.969316 33.095139
3666 78 2 0.5897 1.495482 89.478754 32.951969
3667 79 1 -1.1794 16.087697 77.734686 7.469897
3668 79 2 0.5897 15.682580 78.559479 7.075439
3669 79 2 0.5897 15.361113 77.103446 7.741211
3670 80 1 -1.1794 0.281566 69.722573 20.012441
3671 80 2 0.5897 -0.000074 68.766921 19.926377
3672 80 2 0.5897 1.099297 69.778771 20.585292
3673 81 1 -1.1794 1.325266 91.452070 12.931047
3674 81 2 0.5897 1.023501 91.026836 12.077752
3675 81 2 0.5897 0.990660 92.393589 12.970798
3676 82 1 -1.1794 2.564323 63.241607 2.320147
3677 82 2 0.5897 3.262810 62.709005 1.842182
3678 82 2 0.5897 2.812634 64.210102 2.301176
3679 83 1 -1.1794 12.590557 61.712168 4.487680
3680 83 2 0.5897 12.819753 61.491483 5.435714
3681 83 2 0.5897 11.856092 61.110565 4.173618
3682 84 1 -1.1794 2.823409 64.493358 25.548453
3683 84 2 0.5897 3.351885 63.959281 26.208358
3684 84 2 0.5897 1.875291 64.175453 25.545359
3685 85 1 -1.1794 20.121592 95.720604 15.339082
3686 85 2 0.5897 20.447796 95.287870 14.498647
3687 85 2 0.5897 20.717503 95.462905 16.099661
3688 86 1 -1.1794 14.148397 53.206285 6.956024
3689 86 2 0.5897 14.472306 52.910965 6.057209
3690 86 2 0.5897 13.175643 52.992805 7.046448
3691 87 1 -1.1794 6.328957 66.047242 4.451324
3692 87 2 0.5897 5.329541 66.050459 4.417317
3693 87 2 0.5897 6.688401 65.578032 3.644700
3694 88 1 -1.1794 3.296683 57.493154 16.168327
3695 88 2 0.5897 2.536059 56.874519 15.971496
3696 88 2 0.5897 3.607764 57.919681 15.319031
3697 89 1 -1.1794 4.137759 96.050239 14.147744
3698 89 2 0.5897 4.664011 95.491789 13.506502
3699 89 2 0.5897 3.274207 95.591904 14.357999
3700 90 1 -1.1794 17.531415 70.613312 7.594705
3701 90 2 0.5897 17.851782 69.881498 6.993196
3702 90 2 0.5897 17.420632 70.257531 8.522685
3703 91 1 -1.1794 7.141303 74.117591 14.324953
3704 91 2 0.5897 7.161183 73.300283 14.900812
3705 91 2 0.5897 6.228141 74.226442 13.932159
3706 92 1 -1.1794 11.028135 49.401072 14.672468
3707 92 2 0.5897 11.364585 50.329388 14.830685
3708 92 2 0.5897 11.727131 48.870381 14.193123
3709 93 1 -1.1794 17.033291 57.837185 16.127590
3710 93 2 0.5897 17.790701 57.542830 15.544765
3711 93 2 0.5897 16.272491 58.144113 15.555770
3712 94 1 -1.1794 15.724750 63.553423 31.032272
3713 94 2 0.5897 16.144456 62.898865 31.661080
3714 94 2 0.5897 16.440592 64.061421 30.553203
3715 95 1 -1.1794 8.274884 96.839274 2.011941
3716 95 2 0.5897 7.997889 97.391952 2.797957
3717 95 2 0.5897 7.475678 96.370299 1.635998
3718 96 1 -1.1794 10.523881 93.699406 11.239752
3719 96 2 0.5897 10.022388 94.560877 11.319584
3720 96 2 0.5897 11.024069 93.683903 10.373974
3721 97 1 -1.1794 21.705075 82.854776 25.983719
3722 97 2 0.5897 21.775021 82.949833 24.990708
3723 97 2 0.5897 21.777525 83.756101 26.410761
3724 98 1 -1.1794 11.861707 74.419562 33.432554
3725 98 2 0.5897 11.571062 74.157337 32.512356
3726 98 2 0.5897 12.855069 74.331197 33.506199
3727 99 1 -1.1794 21.734177 94.364209 31.184071
3728 99 2 0.5897 21.766079 93.654552 31.887896
3729 99 2 0.5897 21.775005 95.264838 31.616738
3730 100 1 -1.1794 1.388247 68.969970 13.678150
3731 100 2 0.5897 0.429086 69.208995 13.829399
3732 100 2 0.5897 1.824028 68.769043 14.555489
3733 101 1 -1.1794 6.424868 71.536062 0.846283
3734 101 2 0.5897 5.984792 70.732473 0.445561
3735 101 2 0.5897 7.317673 71.675496 0.417965
3736 102 1 -1.1794 8.444621 83.214165 3.814129
3737 102 2 0.5897 8.933380 84.034335 4.111510
3738 102 2 0.5897 8.156536 83.324353 2.862885
3739 103 1 -1.1794 20.667497 81.509657 9.941835
3740 103 2 0.5897 20.830233 81.619233 8.961269
3741 103 2 0.5897 19.805749 81.022742 10.084327
3742 104 1 -1.1794 7.333315 84.954287 33.670508
3743 104 2 0.5897 8.086130 84.525364 33.171215
3744 104 2 0.5897 7.124405 85.842084 33.260419
3745 105 1 -1.1794 4.996856 55.486592 26.471116
3746 105 2 0.5897 4.139530 55.996910 26.538692
3747 105 2 0.5897 4.890385 54.596019 26.913319
3748 106 1 -1.1794 14.893135 61.065535 13.502473
3749 106 2 0.5897 14.091258 60.517248 13.739906
3750 106 2 0.5897 14.838287 61.952363 13.961305
3751 107 1 -1.1794 7.501410 60.676040 23.928600
3752 107 2 0.5897 7.691492 61.308951 23.178072
3753 107 2 0.5897 8.288504 60.643457 24.544571
3754 108 1 -1.1794 21.114111 76.037847 12.740381
3755 108 2 0.5897 21.775052 75.577881 13.333330
3756 108 2 0.5897 20.959271 76.968256 13.072591
3757 109 1 -1.1794 20.085333 92.737443 29.183907
3758 109 2 0.5897 20.216303 93.501071 28.551674
3759 109 2 0.5897 20.383982 93.007573 30.099243
3760 110 1 -1.1794 12.634062 72.867782 26.080126
3761 110 2 0.5897 13.393136 73.078357 25.464119
3762 110 2 0.5897 11.791502 73.268126 25.719824
3763 111 1 -1.1794 0.795600 78.253722 21.883555
3764 111 2 0.5897 0.849207 77.339987 21.480796
3765 111 2 0.5897 1.675529 78.716851 21.777550
3766 112 1 -1.1794 15.126180 53.079504 2.764449
3767 112 2 0.5897 15.382066 53.835309 3.367178
3768 112 2 0.5897 14.912147 52.272289 3.314533
3769 113 1 -1.1794 4.985794 98.550791 25.064879
3770 113 2 0.5897 5.475528 98.220774 25.871879
3771 113 2 0.5897 4.010082 98.355495 25.164104
3772 114 1 -1.1794 0.711617 49.254021 5.115553
3773 114 2 0.5897 0.361960 49.620095 4.253155
3774 114 2 0.5897 1.477538 49.815014 5.429641
3775 115 1 -1.1794 13.442986 84.450130 14.881872
3776 115 2 0.5897 13.023406 84.556520 15.783334
3777 115 2 0.5897 14.431076 84.584914 14.956119
3778 116 1 -1.1794 0.348669 95.587054 29.619314
3779 116 2 0.5897 -0.000014 96.295465 29.005657
3780 116 2 0.5897 -0.000462 94.695305 29.331408
3781 117 1 -1.1794 21.775508 91.491723 15.510084
3782 117 2 0.5897 21.473763 92.290785 16.030133
3783 117 2 0.5897 20.993058 90.895012 15.332015
3784 118 1 -1.1794 16.609757 68.100776 29.514698
3785 118 2 0.5897 16.967253 68.150497 28.582108
3786 118 2 0.5897 17.101413 67.393647 30.022874
3787 119 1 -1.1794 4.456799 91.600286 12.367467
3788 119 2 0.5897 5.173071 90.991832 12.709137
3789 119 2 0.5897 3.561712 91.247572 12.640253
3790 120 1 -1.1794 7.613415 94.350366 -0.000545
3791 120 2 0.5897 8.407724 94.807037 0.400110
3792 120 2 0.5897 6.811154 94.511623 0.574235
3793 121 1 -1.1794 0.417106 53.010761 16.435376
3794 121 2 0.5897 1.405231 53.083812 16.570553
3795 121 2 0.5897 -0.000296 52.596946 17.244408
3796 122 1 -1.1794 5.906822 51.015965 8.778824
3797 122 2 0.5897 6.643913 50.711029 9.381909
3798 122 2 0.5897 5.920651 52.013749 8.713749
3799 123 1 -1.1794 9.141752 76.695742 19.488675
3800 123 2 0.5897 9.382828 75.869506 19.997808
3801 123 2 0.5897 8.777240 77.381197 20.118980
3802 124 1 -1.1794 6.342821 65.030327 29.608794
3803 124 2 0.5897 6.023788 64.879768 28.673085
3804 124 2 0.5897 7.092482 65.692123 29.602923
3805 125 1 -1.1794 -0.001611 95.005524 26.689254
3806 125 2 0.5897 0.070537 94.046525 26.963327
3807 125 2 0.5897 0.125676 95.079998 25.700187
3808 126 1 -1.1794 18.232966 53.416863 25.992177
3809 126 2 0.5897 17.699680 53.837805 26.725943
3810 126 2 0.5897 17.732696 52.633217 25.623898
3811 127 1 -1.1794 8.210544 48.663378 0.137164
3812 127 2 0.5897 7.520545 48.550000 0.852040
3813 127 2 0.5897 9.114127 48.749840 0.556763
3814 128 1 -1.1794 10.960194 70.652633 11.269831
3815 128 2 0.5897 10.923465 69.768430 11.735488
3816 128 2 0.5897 11.098543 71.378620 11.943480
3817 129 1 -1.1794 12.099512 78.382142 13.663464
3818 129 2 0.5897 11.422162 78.297831 14.394278
3819 129 2 0.5897 12.928110 78.809846 14.024703
3820 130 1 -1.1794 10.122614 89.365274 15.291015
3821 130 2 0.5897 9.577993 90.191342 15.146101
3822 130 2 0.5897 11.079129 89.617963 15.436711
3823 131 1 -1.1794 6.734850 96.625352 9.550630
3824 131 2 0.5897 6.871033 95.649523 9.379713
3825 131 2 0.5897 5.906457 96.933270 9.082707
3826 132 1 -1.1794 9.573685 72.914569 1.201696
3827 132 2 0.5897 9.978766 72.288520 1.868008
3828 132 2 0.5897 8.918507 73.513342 1.662363
3829 133 1 -1.1794 6.293467 59.524787 2.221895
3830 133 2 0.5897 5.662453 60.247772 2.503169
3831 133 2 0.5897 6.340994 58.827133 2.936752
3832 134 1 -1.1794 20.445868 56.917940 25.375060
3833 134 2 0.5897 21.182862 56.975348 26.048517
3834 134 2 0.5897 19.596915 57.257192 25.780259
3835 135 1 -1.1794 0.023905 59.085155 28.876414
3836 135 2 0.5897 0.000000 58.332118 28.218871
3837 135 2 0.5897 -0.000074 59.956491 28.386313
3838 136 1 -1.1794 3.644245 73.061950 11.065195
3839 136 2 0.5897 2.853609 73.379323 10.541583
3840 136 2 0.5897 4.457162 73.076318 10.482993
3841 137 1 -1.1794 14.663558 55.177923 22.625542
3842 137 2 0.5897 15.007003 55.945988 23.166025
3843 137 2 0.5897 14.340007 54.457206 23.238634
3844 138 1 -1.1794 20.803155 79.861870 15.142215
3845 138 2 0.5897 19.936308 79.628860 14.701441
3846 138 2 0.5897 21.505789 79.999120 14.444026
3847 139 1 -1.1794 14.081991 70.065536 11.295521
3848 139 2 0.5897 14.096594 69.352664 11.996663
3849 139 2 0.5897 13.188226 70.514071 11.294790
3850 140 1 -1.1794 0.577304 91.613998 2.606299
3851 140 2 0.5897 -0.000016 91.253130 1.873853
3852 140 2 0.5897 -0.000034 91.985437 3.333426
3853 141 1 -1.1794 8.394870 70.855854 2.805757
3854 141 2 0.5897 7.438776 70.629068 2.620142
3855 141 2 0.5897 8.985531 70.349965 2.177111
3856 142 1 -1.1794 20.054307 87.899657 3.644524
3857 142 2 0.5897 20.427384 87.989314 4.567982
3858 142 2 0.5897 20.609737 87.252770 3.121996
3859 143 1 -1.1794 12.270216 86.259082 20.314879
3860 143 2 0.5897 12.232169 85.367237 20.765616
3861 143 2 0.5897 12.383646 86.130091 19.329742
3862 144 1 -1.1794 7.684508 60.338766 12.568514
3863 144 2 0.5897 7.778198 59.581511 11.922149
3864 144 2 0.5897 6.943446 60.940872 12.271369
3865 145 1 -1.1794 17.357445 88.719255 6.300571
3866 145 2 0.5897 16.610642 88.059488 6.216941
3867 145 2 0.5897 17.883410 88.736888 5.450248
3868 146 1 -1.1794 17.695248 77.162861 16.238119
3869 146 2 0.5897 17.799109 78.064429 15.818134
3870 146 2 0.5897 16.996086 76.644375 15.745832
3871 147 1 -1.1794 13.435645 53.134617 9.678200
3872 147 2 0.5897 13.862112 53.057500 10.579410
3873 147 2 0.5897 13.791328 52.417631 9.078683
3874 148 1 -1.1794 21.776070 50.124458 19.022423
3875 148 2 0.5897 21.657941 50.560817 19.914407
3876 148 2 0.5897 21.761801 50.821725 18.305753
3877 149 1 -1.1794 16.602571 70.009780 1.404189
3878 149 2 0.5897 15.751618 69.657773 1.014354
3879 149 2 0.5897 17.103441 70.520073 0.705096
3880 150 1 -1.1794 18.197889 59.483398 14.591701
3881 150 2 0.5897 19.010182 59.611581 14.022712
3882 150 2 0.5897 17.395747 59.366741 14.006075
3883 151 1 -1.1794 18.066088 80.937071 28.184952
3884 151 2 0.5897 17.590554 81.182562 27.340203
3885 151 2 0.5897 17.409590 80.900234 28.938380
3886 152 1 -1.1794 11.137381 97.757120 33.556298
3887 152 2 0.5897 11.976831 97.226666 33.674375
3888 152 2 0.5897 11.324222 98.552942 32.980313
3889 153 1 -1.1794 12.152413 90.995099 33.599071
3890 153 2 0.5897 12.927384 91.559560 33.314811
3891 153 2 0.5897 11.331850 91.563126 33.662496
3892 154 1 -1.1794 20.311743 93.845139 17.963474
3893 154 2 0.5897 20.474187 94.806634 18.185148
3894 154 2 0.5897 20.981937 93.275547 18.439295
3895 155 1 -1.1794 16.165583 73.496308 7.196239
3896 155 2 0.5897 16.837958 74.053683 6.709161
3897 155 2 0.5897 16.637128 72.884229 7.831067
3898 156 1 -1.1794 2.392516 97.695877 1.613093
3899 156 2 0.5897 2.432163 98.550314 2.131133
3900 156 2 0.5897 2.245985 96.931724 2.241264
3901 157 1 -1.1794 5.093995 50.511538 6.751689
3902 157 2 0.5897 4.666172 49.857507 7.375556
3903 157 2 0.5897 4.749988 51.430427 6.944829
3904 158 1 -1.1794 17.966460 61.527004 7.720801
3905 158 2 0.5897 17.026244 61.866103 7.689084
3906 158 2 0.5897 18.020815 60.650106 7.243209
3907 159 1 -1.1794 9.199104 65.920852 14.359503
3908 159 2 0.5897 9.060006 66.469589 15.183844
3909 159 2 0.5897 8.683486 65.067476 14.436224
3910 160 1 -1.1794 17.596405 67.996511 3.191376
3911 160 2 0.5897 17.556825 68.991818 3.279684
3912 160 2 0.5897 17.013840 67.576710 3.887354
3913 161 1 -1.1794 14.570041 92.233369 7.469792
3914 161 2 0.5897 14.043421 92.464232 6.651640
3915 161 2 0.5897 15.541670 92.395400 7.297503
3916 162 1 -1.1794 6.993452 48.722820 6.045853
3917 162 2 0.5897 7.167060 48.549937 5.076331
3918 162 2 0.5897 6.029435 48.549984 6.247842
3919 163 1 -1.1794 5.826390 84.006626 32.378751
3920 163 2 0.5897 6.375667 83.226532 32.678328
3921 163 2 0.5897 6.331439 84.524301 31.688143
3922 164 1 -1.1794 17.508015 84.722327 1.513260
3923 164 2 0.5897 17.648428 83.782227 1.823897
3924 164 2 0.5897 16.956842 85.216666 2.185448
3925 165 1 -1.1794 13.755594 96.693053 1.172403
3926 165 2 0.5897 14.414382 96.661930 0.420719
3927 165 2 0.5897 12.937091 97.186418 0.878049
3928 166 1 -1.1794 0.254450 91.886074 25.273083
3929 166 2 0.5897 -0.000111 91.087382 24.727840
3930 166 2 0.5897 0.609907 92.601080 24.671073
3931 167 1 -1.1794 16.283849 61.847882 10.624909
3932 167 2 0.5897 15.936514 61.140375 11.240370
3933 167 2 0.5897 16.684664 61.418297 9.815710
3934 168 1 -1.1794 20.455790 66.961396 8.720298
3935 168 2 0.5897 21.228635 67.550235 8.956895
3936 168 2 0.5897 19.980022 66.684360 9.555101
3937 169 1 -1.1794 18.932413 78.432290 28.010235
3938 169 2 0.5897 18.670302 77.641683 27.456846
3939 169 2 0.5897 19.280647 79.155710 27.414084
3940 170 1 -1.1794 1.355917 90.683936 5.112209
3941 170 2 0.5897 2.054494 91.339444 5.399087
3942 170 2 0.5897 0.657472 90.608338 5.823869
3943 171 1 -1.1794 16.968809 54.512538 18.023010
3944 171 2 0.5897 17.911387 54.259537 18.241040
3945 171 2 0.5897 16.346091 53.814323 18.376165
3946 172 1 -1.1794 9.442190 81.643656 17.484598
3947 172 2 0.5897 9.671448 81.869130 16.537708
3948 172 2 0.5897 8.469185 81.813034 17.641357
3949 173 1 -1.1794 9.592031 68.044355 33.085500
3950 173 2 0.5897 9.872147 67.277439 33.662885
3951 173 2 0.5897 9.311896 68.811305 33.662832
3952 174 1 -1.1794 5.121784 87.111680 17.017955
3953 174 2 0.5897 4.641491 87.927728 16.696421
3954 174 2 0.5897 4.456036 86.400996 17.245347
3955 175 1 -1.1794 19.834087 83.806526 17.909836
3956 175 2 0.5897 19.678675 83.670648 18.888296
3957 175 2 0.5897 19.435558 84.678996 17.627045
3958 176 1 -1.1794 10.969580 90.917973 29.394462
3959 176 2 0.5897 10.247822 90.227842 29.341708
3960 176 2 0.5897 10.619908 91.792357 29.058037
3961 177 1 -1.1794 15.396974 73.820487 1.795786
3962 177 2 0.5897 16.125862 73.854486 2.479574
3963 177 2 0.5897 14.618594 74.363375 2.111060
3964 178 1 -1.1794 10.861281 60.628936 19.615956
3965 178 2 0.5897 10.982816 61.459754 19.072844
3966 178 2 0.5897 10.887074 60.859801 20.588600
3967 179 1 -1.1794 3.280049 72.521782 19.784851
3968 179 2 0.5897 2.424852 72.182562 20.176728
3969 179 2 0.5897 3.939356 72.689033 20.517886
3970 180 1 -1.1794 3.490678 67.584218 20.692109
3971 180 2 0.5897 4.352362 68.013279 20.421168
3972 180 2 0.5897 3.471897 66.639105 20.365906
3973 181 1 -1.1794 15.759826 75.382589 11.458733
3974 181 2 0.5897 15.899878 74.740719 10.704818
3975 181 2 0.5897 16.017955 74.945948 12.320542
3976 182 1 -1.1794 1.848826 96.764008 27.324336
3977 182 2 0.5897 1.558541 97.460951 27.980085
3978 182 2 0.5897 1.738796 95.857152 27.731160
3979 183 1 -1.1794 14.464028 95.404534 18.113320
3980 183 2 0.5897 14.827697 96.140668 18.684154
3981 183 2 0.5897 14.107501 94.675139 18.697162
3982 184 1 -1.1794 0.964665 91.610502 27.540282
3983 184 2 0.5897 1.524477 92.438330 27.504071
3984 184 2 0.5897 -0.000922 91.857239 27.458037
3985 185 1 -1.1794 8.241733 62.942690 26.057899
3986 185 2 0.5897 8.924898 62.546876 25.444208
3987 185 2 0.5897 7.409998 63.148605 25.542324
3988 186 1 -1.1794 13.253510 96.341067 4.140046
3989 186 2 0.5897 13.241372 97.338258 4.213961
3990 186 2 0.5897 13.117974 96.075926 3.185410
3991 187 1 -1.1794 5.775172 69.149187 4.730650
3992 187 2 0.5897 5.548729 69.180187 5.704180
3993 187 2 0.5897 5.584047 68.235128 4.372925
3994 188 1 -1.1794 0.000000 66.270457 1.850464
3995 188 2 0.5897 0.033724 65.883160 0.929126
3996 188 2 0.5897 0.296188 67.225155 1.821756
3997 189 1 -1.1794 3.338060 62.157211 14.396721
3998 189 2 0.5897 3.825908 62.830244 14.952627
3999 189 2 0.5897 3.966853 61.756685 13.730239
4000 190 1 -1.1794 16.244044 50.296941 26.148811
4001 190 2 0.5897 15.399321 49.859253 25.840798
4002 190 2 0.5897 16.771505 50.599237 25.354833
4003 191 1 -1.1794 14.939762 56.497044 17.799519
4004 191 2 0.5897 15.226282 57.318182 17.305922
4005 191 2 0.5897 14.794054 55.751231 17.149495
4006 192 1 -1.1794 15.479937 87.415212 18.791248
4007 192 2 0.5897 16.324892 87.430241 19.325875
4008 192 2 0.5897 14.698007 87.314561 19.406435
4009 193 1 -1.1794 19.634029 59.342260 8.926017
4010 193 2 0.5897 18.634705 59.378774 8.930469
4011 193 2 0.5897 19.986556 59.759834 9.763488
4012 194 1 -1.1794 17.740909 83.978255 27.639459
4013 194 2 0.5897 17.952881 84.709857 28.287399
4014 194 2 0.5897 17.262313 83.240154 28.115014
4015 195 1 -1.1794 15.574019 80.436746 21.398508
4016 195 2 0.5897 15.676951 80.099042 20.462900
4017 195 2 0.5897 14.846506 79.927672 21.858472
4018 196 1 -1.1794 21.775102 92.209647 24.786868
4019 196 2 0.5897 21.775162 91.339209 24.294590
4020 196 2 0.5897 21.613540 92.957031 24.142419
4021 197 1 -1.1794 7.732798 85.388649 0.590554
4022 197 2 0.5897 6.752597 85.584390 0.560684
4023 197 2 0.5897 8.219401 86.032438 0.000000
4024 198 1 -1.1794 2.267252 68.577819 22.937768
4025 198 2 0.5897 1.929962 67.878619 22.307407
4026 198 2 0.5897 1.579822 69.297362 23.036239
4027 199 1 -1.1794 9.815722 82.831370 13.530533
4028 199 2 0.5897 9.314836 83.680008 13.360454
4029 199 2 0.5897 9.961806 82.721875 14.513726
4030 200 1 -1.1794 20.448282 94.624349 20.873690
4031 200 2 0.5897 19.728495 94.814023 21.541470
4032 200 2 0.5897 21.229076 94.203681 21.335642
4033 201 1 -1.1794 4.894572 81.751689 3.935095
4034 201 2 0.5897 5.738925 82.007782 3.464473
4035 201 2 0.5897 4.318491 81.215597 3.318058
4036 202 1 -1.1794 11.036774 90.940222 13.679415
4037 202 2 0.5897 11.840422 90.605592 13.187304
4038 202 2 0.5897 10.313646 91.161741 13.025187
4039 203 1 -1.1794 20.778055 69.707578 25.245605
4040 203 2 0.5897 20.521780 68.804919 25.591336
4041 203 2 0.5897 21.766900 69.829087 25.331756
4042 204 1 -1.1794 18.834225 62.291564 15.775140
4043 204 2 0.5897 18.507091 61.735927 15.010776
4044 204 2 0.5897 18.084571 62.448230 16.418159
4045 205 1 -1.1794 -0.002345 67.876965 11.211190
4046 205 2 0.5897 0.785124 67.953418 11.822783
4047 205 2 0.5897 0.272379 67.409599 10.370895
4048 206 1 -1.1794 11.206968 80.727840 13.891290
4049 206 2 0.5897 10.964069 80.521892 14.839228
4050 206 2 0.5897 11.725510 81.582251 13.858171
4051 207 1 -1.1794 21.531638 83.837801 30.860752
4052 207 2 0.5897 21.071052 83.261210 31.535589
4053 207 2 0.5897 21.360446 84.800085 31.072185
4054 208 1 -1.1794 20.764097 65.284661 22.129235
4055 208 2 0.5897 20.348658 65.251335 23.038245
4056 208 2 0.5897 21.699850 65.629546 22.202862
4057 209 1 -1.1794 21.775280 88.146345 12.687978
4058 209 2 0.5897 21.539498 88.379849 13.631314
4059 209 2 0.5897 21.216891 87.373536 12.386371
4060 210 1 -1.1794 19.845099 49.144049 19.423106
4061 210 2 0.5897 19.575676 50.007393 18.996435
4062 210 2 0.5897 20.265128 48.549998 18.737045
4063 211 1 -1.1794 18.692093 87.094618 17.951908
4064 211 2 0.5897 19.190847 86.848623 17.120805
4065 211 2 0.5897 17.839871 87.555872 17.705004
4066 212 1 -1.1794 1.166950 82.726969 0.153365
4067 212 2 0.5897 0.397544 82.310931 0.638057
4068 212 2 0.5897 2.003099 82.604733 0.688075
4069 213 1 -1.1794 5.845744 62.046937 9.116070
4070 213 2 0.5897 5.837038 63.002216 9.411648
4071 213 2 0.5897 6.077666 61.460096 9.891847
4072 214 1 -1.1794 14.030194 92.840680 31.907028
4073 214 2 0.5897 14.934104 92.540153 31.602676
4074 214 2 0.5897 13.331834 92.468338 31.295755
4075 215 1 -1.1794 11.190571 54.140202 32.824326
4076 215 2 0.5897 10.942662 53.183486 32.976759
4077 215 2 0.5897 11.034034 54.662700 33.662475
4078 216 1 -1.1794 1.759505 94.535582 32.969932
4079 216 2 0.5897 2.350281 94.949515 33.662495
4080 216 2 0.5897 2.030285 94.860179 32.063668
4081 217 1 -1.1794 6.915385 76.387407 19.303273
4082 217 2 0.5897 6.958835 75.573986 19.883322
4083 217 2 0.5897 6.203599 76.265835 18.611477
4084 218 1 -1.1794 12.215772 78.418298 7.642245
4085 218 2 0.5897 12.737215 78.845267 6.903466
4086 218 2 0.5897 11.645561 77.686878 7.268232
4087 219 1 -1.1794 -0.000036 87.893423 30.876739
4088 219 2 0.5897 0.443437 87.910306 29.980610
4089 219 2 0.5897 0.313284 87.093576 31.388672
4090 220 1 -1.1794 15.717349 60.431121 33.270336
4091 220 2 0.5897 15.521002 60.867316 32.392166
4092 220 2 0.5897 16.439744 59.750169 33.150137
4093 221 1 -1.1794 6.138982 97.887279 31.463723
4094 221 2 0.5897 6.230920 98.551202 32.205850
4095 221 2 0.5897 6.861964 97.200566 31.539372
4096 222 1 -1.1794 7.066166 50.610342 3.389602
4097 222 2 0.5897 7.872962 50.094653 3.677951
4098 222 2 0.5897 6.608307 50.124178 2.645284
4099 223 1 -1.1794 0.892123 57.242347 6.112304
4100 223 2 0.5897 0.304059 56.820904 6.802642
4101 223 2 0.5897 1.459797 56.539354 5.683881
4102 224 1 -1.1794 21.011946 70.304092 28.064386
4103 224 2 0.5897 20.220647 69.972045 27.550975
4104 224 2 0.5897 21.776164 69.670140 27.945747
4105 225 1 -1.1794 11.832576 87.104051 22.339629
4106 225 2 0.5897 12.134477 87.883991 21.791404
4107 225 2 0.5897 10.947792 86.782259 22.002573
4108 226 1 -1.1794 1.653066 53.698543 5.734596
4109 226 2 0.5897 0.953675 53.790665 5.025818
4110 226 2 0.5897 2.262237 54.491093 5.706767
4111 227 1 -1.1794 19.254850 74.770990 8.684254
4112 227 2 0.5897 19.668888 75.511123 9.214137
4113 227 2 0.5897 18.886410 75.138199 7.830199
4114 228 1 -1.1794 2.145210 77.947051 19.771026
4115 228 2 0.5897 1.990152 76.983882 19.551339
4116 228 2 0.5897 1.960154 78.507090 18.963492
4117 229 1 -1.1794 10.861840 61.701150 26.055047
4118 229 2 0.5897 10.360840 61.447942 26.882625
4119 229 2 0.5897 11.725868 61.198816 26.021660
4120 230 1 -1.1794 18.859288 65.656635 24.828094
4121 230 2 0.5897 19.443366 65.418474 25.604066
4122 230 2 0.5897 17.950789 65.260366 24.960760
4123 231 1 -1.1794 11.901556 84.622445 30.350125
4124 231 2 0.5897 12.779904 84.530107 29.881107
4125 231 2 0.5897 11.204456 84.101095 29.857941
4126 232 1 -1.1794 8.790058 84.944371 23.511580
4127 232 2 0.5897 9.481411 85.573780 23.156790
4128 232 2 0.5897 8.352402 85.348337 24.314866
4129 233 1 -1.1794 4.753191 68.699004 13.826745
4130 233 2 0.5897 5.619894 69.053638 14.177546
4131 233 2 0.5897 4.015256 68.938440 14.457715
4132 234 1 -1.1794 1.214505 98.050643 6.724289
4133 234 2 0.5897 0.397780 98.552086 7.009797
4134 234 2 0.5897 1.673781 97.675521 7.529490
4135 235 1 -1.1794 8.750897 88.051421 24.119045
4136 235 2 0.5897 8.906236 87.408122 24.868736
4137 235 2 0.5897 8.470507 87.548814 23.301263
4138 236 1 -1.1794 16.711417 98.534341 23.757623
4139 236 2 0.5897 15.724938 98.550051 23.920759
4140 236 2 0.5897 16.994022 97.606907 23.512675
4141 237 1 -1.1794 8.247512 93.723257 32.222137
4142 237 2 0.5897 7.289203 93.449981 32.305579
4143 237 2 0.5897 8.314138 94.720377 32.258374
4144 238 1 -1.1794 7.704646 91.403868 18.465604
4145 238 2 0.5897 7.475965 92.253834 18.940223
4146 238 2 0.5897 7.632978 90.636579 19.102888
4147 239 1 -1.1794 4.265195 71.529600 30.375991
4148 239 2 0.5897 3.630669 72.274585 30.581839
4149 239 2 0.5897 5.080062 71.617945 30.948868
4150 240 1 -1.1794 17.032232 66.308760 22.958911
4151 240 2 0.5897 16.164809 66.484169 22.493284
4152 240 2 0.5897 17.761014 66.212764 22.280927
4153 241 1 -1.1794 5.199307 82.219857 19.230951
4154 241 2 0.5897 5.399571 82.765601 18.417281
4155 241 2 0.5897 4.888614 81.310524 18.954217
4156 242 1 -1.1794 14.698787 79.398155 9.037811
4157 242 2 0.5897 14.251888 80.101870 8.485482
4158 242 2 0.5897 15.686784 79.552625 9.038682
4159 243 1 -1.1794 16.389917 87.387148 33.661890
4160 243 2 0.5897 15.516849 86.899551 33.663075
4161 243 2 0.5897 16.442287 87.974999 32.854618
4162 244 1 -1.1794 0.962381 54.651801 14.879481
4163 244 2 0.5897 0.202568 54.398923 14.280534
4164 244 2 0.5897 1.820989 54.324458 14.484969
4165 245 1 -1.1794 13.155181 71.416282 32.086526
4166 245 2 0.5897 12.594068 72.226949 32.253775
4167 245 2 0.5897 13.011528 70.753985 32.821867
4168 246 1 -1.1794 4.957006 53.064224 13.554226
4169 246 2 0.5897 5.229544 52.170375 13.910256
4170 246 2 0.5897 3.999739 53.237481 13.785788
4171 247 1 -1.1794 8.353516 71.809395 16.276449
4172 247 2 0.5897 8.482421 72.320564 17.126208
4173 247 2 0.5897 8.901686 70.973478 16.303892
4174 248 1 -1.1794 21.220690 49.580379 22.945989
4175 248 2 0.5897 21.572934 48.832235 23.508309
4176 248 2 0.5897 21.444447 50.454805 23.376468
4177 249 1 -1.1794 21.749180 53.406714 32.658641
4178 249 2 0.5897 21.775057 54.327678 32.269854
4179 249 2 0.5897 21.774963 52.732491 31.920563
4180 250 1 -1.1794 16.381828 49.659083 3.761877
4181 250 2 0.5897 16.310885 49.541963 2.771296
4182 250 2 0.5897 15.757496 50.382108 4.057587
4183 251 1 -1.1794 11.931442 91.781512 0.846370
4184 251 2 0.5897 12.698591 92.087734 1.410027
4185 251 2 0.5897 11.340007 91.182040 1.385664
4186 252 1 -1.1794 21.185594 48.909587 27.038862
4187 252 2 0.5897 21.600924 49.814922 26.950154
4188 252 2 0.5897 20.972694 48.550070 26.130335
4189 253 1 -1.1794 0.554584 85.479420 21.815859
4190 253 2 0.5897 1.233438 85.528137 22.548515
4191 253 2 0.5897 0.017246 86.322685 21.802729
4192 254 1 -1.1794 2.321329 52.595328 7.959886
4193 254 2 0.5897 2.769374 52.376442 7.093085
4194 254 2 0.5897 1.397342 52.933549 7.781406
4195 255 1 -1.1794 11.949573 63.870055 24.334755
4196 255 2 0.5897 12.335249 63.936102 23.414488
4197 255 2 0.5897 11.143793 63.278113 24.316769
4198 256 1 -1.1794 12.813148 68.133002 6.219846
4199 256 2 0.5897 12.211125 68.923438 6.332894
4200 256 2 0.5897 12.294617 67.372204 5.829575
4201 257 1 -1.1794 13.326934 82.601554 12.054857
4202 257 2 0.5897 12.889180 81.704449 11.995080
4203 257 2 0.5897 12.995705 83.080558 12.867779
4204 258 1 -1.1794 1.740542 60.817541 31.125313
4205 258 2 0.5897 2.507613 60.294886 31.497381
4206 258 2 0.5897 1.596925 60.563583 30.168820
4207 259 1 -1.1794 20.355650 62.395487 5.132082
4208 259 2 0.5897 21.064685 62.013813 5.725036
4209 259 2 0.5897 19.454513 62.151926 5.490732
4210 260 1 -1.1794 0.011017 95.622056 13.384499
4211 260 2 0.5897 0.225569 94.666759 13.181091
4212 260 2 0.5897 -0.000606 96.149270 12.534847
4213 261 1 -1.1794 5.392122 84.581502 5.164795
4214 261 2 0.5897 4.727174 84.643906 4.420517
4215 261 2 0.5897 4.936393 84.767115 6.035346
4216 262 1 -1.1794 1.450689 60.830082 5.852564
4217 262 2 0.5897 0.870278 60.321681 6.488686
4218 262 2 0.5897 1.002175 61.689160 5.605946
4219 263 1 -1.1794 10.176076 81.180929 27.854612
4220 263 2 0.5897 9.890660 81.358983 26.912894
4221 263 2 0.5897 11.173512 81.121896 27.895089
4222 264 1 -1.1794 11.078153 65.903143 17.156353
4223 264 2 0.5897 11.928627 65.411246 17.342715
4224 264 2 0.5897 10.736715 66.311202 18.003058
4225 265 1 -1.1794 17.670733 80.358658 31.273045
4226 265 2 0.5897 17.456291 81.332526 31.347843
4227 265 2 0.5897 18.659966 80.240900 31.186148
4228 266 1 -1.1794 17.594645 59.376183 11.261670
4229 266 2 0.5897 16.687769 59.100834 11.580666
4230 266 2 0.5897 18.263792 59.225985 11.989463
4231 267 1 -1.1794 14.870550 56.535017 2.475979
4232 267 2 0.5897 14.748243 57.397006 1.984029
4233 267 2 0.5897 15.158654 55.823470 1.835122
4234 268 1 -1.1794 14.513624 98.413908 8.361523
4235 268 2 0.5897 15.368129 97.953490 8.121031
4236 268 2 0.5897 13.966482 98.553480 7.536201
4237 269 1 -1.1794 16.555355 60.653286 18.292181
4238 269 2 0.5897 17.408671 60.683110 18.812722
4239 269 2 0.5897 16.124656 61.555672 18.306198
4240 270 1 -1.1794 6.084669 53.520768 25.410895
4241 270 2 0.5897 7.042099 53.438892 25.134085
4242 270 2 0.5897 5.565795 52.746076 25.049480
4243 271 1 -1.1794 12.177356 84.417799 32.939252
4244 271 2 0.5897 12.657767 83.780458 32.336756
4245 271 2 0.5897 11.229757 84.514365 32.634737
4246 272 1 -1.1794 20.553616 83.397176 23.216476
4247 272 2 0.5897 20.774014 84.045853 22.488023
4248 272 2 0.5897 20.148577 82.574037 22.818499
4249 273 1 -1.1794 0.506470 90.458075 15.909310
4250 273 2 0.5897 -0.000768 89.629866 16.147594
4251 273 2 0.5897 -0.000641 90.972053 15.217453
4252 274 1 -1.1794 17.543869 94.951654 26.588973
4253 274 2 0.5897 17.015454 95.794385 26.691845
4254 274 2 0.5897 18.304628 94.953929 27.238003
4255 275 1 -1.1794 21.304285 59.374859 33.662529
4256 275 2 0.5897 20.317538 59.292600 33.522655
4257 275 2 0.5897 21.771650 59.321005 32.780106
4258 276 1 -1.1794 11.074556 75.304124 16.941256
4259 276 2 0.5897 11.942790 74.851193 16.738713
4260 276 2 0.5897 10.347298 74.620179 16.998837
4261 277 1 -1.1794 9.036580 85.649555 28.086292
4262 277 2 0.5897 9.702137 85.178376 28.665105
4263 277 2 0.5897 8.369778 86.122535 28.662195
4264 278 1 -1.1794 18.515120 78.746928 6.837121
4265 278 2 0.5897 18.210651 77.796232 6.896075
4266 278 2 0.5897 17.724444 79.341760 6.692186
4267 279 1 -1.1794 13.870001 76.224803 29.119409
4268 279 2 0.5897 14.850039 76.384894 29.001528
4269 279 2 0.5897 13.359630 76.789735 28.471047
4270 280 1 -1.1794 7.518789 81.542663 10.751305
4271 280 2 0.5897 7.807478 80.623356 11.018761
4272 280 2 0.5897 8.076035 82.219972 11.231647
4273 281 1 -1.1794 16.320389 98.550050 19.733414
4274 281 2 0.5897 16.037338 98.093129 18.890143
4275 281 2 0.5897 16.682831 97.872976 20.373888
4276 282 1 -1.1794 2.028921 60.992493 13.023289
4277 282 2 0.5897 1.496438 60.623454 13.785046
4278 282 2 0.5897 2.676108 60.300715 12.702989
4279 283 1 -1.1794 5.945212 90.009630 2.179893
4280 283 2 0.5897 6.585951 90.456547 1.555618
4281 283 2 0.5897 5.600729 89.170292 1.759366
4282 284 1 -1.1794 13.540638 89.993094 23.838229
4283 284 2 0.5897 13.685105 89.161218 24.374058
4284 284 2 0.5897 13.065595 89.764014 22.988608
4285 285 1 -1.1794 2.582513 94.499777 29.654741
4286 285 2 0.5897 3.231229 95.054137 29.133346
4287 285 2 0.5897 2.042796 93.939302 29.026591
4288 286 1 -1.1794 21.050411 56.048378 9.527112
4289 286 2 0.5897 21.775000 55.677477 8.946249
4290 286 2 0.5897 20.705914 56.898327 9.128478
4291 287 1 -1.1794 9.072100 55.824541 18.374169
4292 287 2 0.5897 8.755303 56.714834 18.701305
4293 287 2 0.5897 8.305101 55.183091 18.358219
4294 288 1 -1.1794 7.887750 50.379919 22.715132
4295 288 2 0.5897 8.583180 50.860279 23.249577
4296 288 2 0.5897 7.316759 49.832244 23.326705
4297 289 1 -1.1794 10.177468 61.175195 22.646879
4298 289 2 0.5897 9.820120 61.850611 23.291949
4299 289 2 0.5897 10.754212 60.520363 23.135305
4300 290 1 -1.1794 14.041133 83.335460 20.886133
4301 290 2 0.5897 13.782712 83.940530 20.133067
4302 290 2 0.5897 14.353713 82.459833 20.517931
4303 291 1 -1.1794 3.611450 48.811868 8.998577
4304 291 2 0.5897 4.301829 48.550000 9.672967
4305 291 2 0.5897 2.726310 48.917947 9.451649
4306 292 1 -1.1794 3.595850 91.744582 17.730657
4307 292 2 0.5897 3.424348 91.185555 16.919439
4308 292 2 0.5897 2.794837 91.718663 18.328743
4309 293 1 -1.1794 4.230315 94.990048 9.681760
4310 293 2 0.5897 4.437830 95.326710 8.763285
4311 293 2 0.5897 4.904832 95.347105 10.327932
4312 294 1 -1.1794 3.815516 62.359174 21.122252
4313 294 2 0.5897 4.164946 63.289107 21.236807
4314 294 2 0.5897 2.863275 62.395900 20.819121
4315 295 1 -1.1794 10.487600 98.264889 -0.000034
4316 295 2 0.5897 9.578917 98.549902 0.305027
4317 295 2 0.5897 11.169856 98.550033 0.673182
4318 296 1 -1.1794 10.940127 92.833228 3.988281
4319 296 2 0.5897 10.043963 93.275198 3.948880
4320 296 2 0.5897 10.835819 91.852727 3.821733
4321 297 1 -1.1794 0.594219 63.756102 23.543379
4322 297 2 0.5897 1.381330 63.218857 23.240352
4323 297 2 0.5897 0.230186 64.278209 22.772092
4324 298 1 -1.1794 18.902454 84.759472 21.275700
4325 298 2 0.5897 19.151592 83.825765 21.018557
4326 298 2 0.5897 18.106590 85.050340 20.744667
4327 299 1 -1.1794 13.416218 77.671269 1.369709
4328 299 2 0.5897 13.341382 76.675873 1.309822
4329 299 2 0.5897 14.003810 77.915535 2.141117
4330 300 1 -1.1794 6.899914 82.670954 15.645213
4331 300 2 0.5897 6.079222 82.173808 15.363591
4332 300 2 0.5897 7.691291 82.061407 15.598589
4333 301 1 -1.1794 3.416624 60.177773 3.567812
4334 301 2 0.5897 4.024413 59.394474 3.698329
4335 301 2 0.5897 2.604708 60.068867 4.141338
4336 302 1 -1.1794 11.678074 74.541349 3.272360
4337 302 2 0.5897 12.515836 74.360597 2.757109
4338 302 2 0.5897 10.942120 73.959083 2.926908
4339 303 1 -1.1794 10.246206 95.894191 0.927358
4340 303 2 0.5897 10.586646 96.057317 0.001350
4341 303 2 0.5897 10.577652 96.614980 1.536132
4342 304 1 -1.1794 1.388993 89.015518 20.655851
4343 304 2 0.5897 0.767493 88.595953 21.317442
4344 304 2 0.5897 2.103496 89.518457 21.142204
4345 305 1 -1.1794 21.451014 52.636618 14.173220
4346 305 2 0.5897 21.537685 53.606465 14.401004
4347 305 2 0.5897 21.764170 52.485154 13.235674
4348 306 1 -1.1794 18.346861 79.117515 8.999687
4349 306 2 0.5897 17.818971 79.781302 9.529516
4350 306 2 0.5897 18.792077 78.473158 9.621448
4351 307 1 -1.1794 13.718405 81.011937 3.766510
4352 307 2 0.5897 13.492518 80.176498 4.267526
4353 307 2 0.5897 14.483755 80.833177 3.148219
4354 308 1 -1.1794 0.710423 63.686859 13.899033
4355 308 2 0.5897 0.160447 63.540674 14.721320
4356 308 2 0.5897 1.350540 64.439028 14.055537
4357 309 1 -1.1794 3.560392 90.857327 29.744239
4358 309 2 0.5897 2.813442 91.337804 29.284665
4359 309 2 0.5897 4.403516 90.971800 29.218847
4360 310 1 -1.1794 0.013714 57.313364 31.022550
4361 310 2 0.5897 0.438831 56.497739 31.415018
4362 310 2 0.5897 0.725189 57.955308 30.736697
4363 311 1 -1.1794 10.332090 75.057635 4.933082
4364 311 2 0.5897 9.741434 74.268553 5.101827
4365 311 2 0.5897 9.844990 75.896565 5.175838
4366 312 1 -1.1794 20.811271 90.182980 6.437764
4367 312 2 0.5897 20.494348 89.238933 6.529064
4368 312 2 0.5897 21.775003 90.186709 6.170915
4369 313 1 -1.1794 3.439090 76.745485 33.649159
4370 313 2 0.5897 4.047136 77.384357 33.177859
4371 313 2 0.5897 2.510994 77.117555 33.663360
4372 314 1 -1.1794 9.219982 64.588236 11.830922
4373 314 2 0.5897 8.397439 64.964612 12.257260
4374 314 2 0.5897 9.512424 63.773893 12.332243
4375 315 1 -1.1794 15.119994 92.796433 11.654891
4376 315 2 0.5897 15.881255 92.156224 11.757922
4377 315 2 0.5897 15.198750 93.520915 12.339671
4378 316 1 -1.1794 15.221581 77.154692 19.075839
4379 316 2 0.5897 15.046716 77.930407 19.682212
4380 316 2 0.5897 15.829819 76.505310 19.532293
4381 317 1 -1.1794 14.361326 65.824448 24.981007
4382 317 2 0.5897 14.235745 66.813281 24.900772
4383 317 2 0.5897 13.626698 65.354376 24.491768
4384 318 1 -1.1794 16.512723 57.375581 13.508527
4385 318 2 0.5897 16.008766 57.300979 12.648026
4386 318 2 0.5897 16.898995 56.484531 13.746903
4387 319 1 -1.1794 12.566788 71.360627 17.427527
4388 319 2 0.5897 13.359972 71.632316 17.972545
4389 319 2 0.5897 11.806510 71.132952 18.035919
4390 320 1 -1.1794 20.788940 84.609262 33.254906
4391 320 2 0.5897 20.368823 83.798205 33.661956
4392 320 2 0.5897 21.780870 84.487942 33.218094
4393 321 1 -1.1794 6.910879 76.648717 13.581854
4394 321 2 0.5897 7.765664 76.175824 13.795666
4395 321 2 0.5897 6.946970 77.581242 13.941153
4396 322 1 -1.1794 10.790099 53.149736 17.905586
4397 322 2 0.5897 10.036854 52.822957 17.334763
4398 322 2 0.5897 11.487982 53.571818 17.326962
4399 323 1 -1.1794 18.721495 83.504230 30.782006
4400 323 2 0.5897 19.417324 84.020061 30.282266
4401 323 2 0.5897 18.118123 83.042246 30.131996
4402 324 1 -1.1794 10.808140 71.062325 7.450489
4403 324 2 0.5897 11.443137 70.528235 8.008634
4404 324 2 0.5897 10.247180 71.639573 8.043877
4405 325 1 -1.1794 4.912159 65.443384 1.680248
4406 325 2 0.5897 4.972503 64.624995 2.251734
4407 325 2 0.5897 5.075663 66.254682 2.241552
4408 326 1 -1.1794 7.318848 89.220155 17.125011
4409 326 2 0.5897 7.843310 89.607074 16.366569
4410 326 2 0.5897 6.943866 88.333908 16.853062
4411 327 1 -1.1794 21.174712 75.889023 18.572914
4412 327 2 0.5897 20.370696 75.297345 18.513965
4413 327 2 0.5897 21.607104 75.775669 19.467447
4414 328 1 -1.1794 19.346092 59.251556 23.570614
4415 328 2 0.5897 19.805481 59.440352 24.438553
4416 328 2 0.5897 18.801379 58.417328 23.656359
4417 329 1 -1.1794 9.581626 56.889702 27.401111
4418 329 2 0.5897 9.673808 57.342683 26.514370
4419 329 2 0.5897 8.741176 56.347941 27.412876
4420 330 1 -1.1794 7.919556 83.151849 25.153952
4421 330 2 0.5897 8.365991 82.468470 25.731610
4422 330 2 0.5897 7.476436 83.837892 25.731004
4423 331 1 -1.1794 15.516268 48.807988 17.139837
4424 331 2 0.5897 15.169117 49.743211 17.209442
4425 331 2 0.5897 15.595594 48.552753 16.176218
4426 332 1 -1.1794 16.676005 74.573538 16.847628
4427 332 2 0.5897 15.912328 74.795037 16.241215
4428 332 2 0.5897 17.530194 74.591047 16.327960
4429 333 1 -1.1794 21.702419 87.965560 18.978822
4430 333 2 0.5897 21.775578 88.248149 19.935269
4431 333 2 0.5897 21.446483 88.752515 18.417396
4432 334 1 -1.1794 4.247839 95.589007 6.065589
4433 334 2 0.5897 3.730294 96.215031 6.648892
4434 334 2 0.5897 4.887731 95.063316 6.626113
4435 335 1 -1.1794 3.783643 57.992421 6.077401
4436 335 2 0.5897 3.077033 58.592415 5.702288
4437 335 2 0.5897 4.338147 57.623557 5.331435
4438 336 1 -1.1794 21.724689 75.861511 6.993218
4439 336 2 0.5897 21.774996 75.177258 6.265711
4440 336 2 0.5897 20.766739 76.078085 7.181437
4441 337 1 -1.1794 16.752925 63.667753 12.978884
4442 337 2 0.5897 17.604780 63.726312 13.499377
4443 337 2 0.5897 16.541693 62.708319 12.792155
4444 338 1 -1.1794 1.802947 84.402295 5.901136
4445 338 2 0.5897 2.737162 84.747454 5.991184
4446 338 2 0.5897 1.590392 84.264293 4.933781
4447 339 1 -1.1794 19.495635 97.462031 5.622076
4448 339 2 0.5897 19.409842 98.314398 5.106218
4449 339 2 0.5897 19.323726 96.686246 5.014948
4450 340 1 -1.1794 16.288930 77.255321 21.548886
4451 340 2 0.5897 15.530692 76.713168 21.911027
4452 340 2 0.5897 17.063640 76.654662 21.351319
4453 341 1 -1.1794 8.288541 64.478520 9.641822
4454 341 2 0.5897 8.935827 63.737901 9.822109
4455 341 2 0.5897 7.631620 64.185341 8.947200
4456 342 1 -1.1794 14.060123 71.252758 3.039172
4457 342 2 0.5897 14.244949 72.102992 2.546281
4458 342 2 0.5897 14.148093 70.478376 2.412598
4459 343 1 -1.1794 13.146781 83.495952 4.176101
4460 343 2 0.5897 13.556585 83.920138 3.368558
4461 343 2 0.5897 13.008396 84.189609 4.882988
4462 344 1 -1.1794 16.634423 65.216767 18.670384
4463 344 2 0.5897 16.566060 66.161388 18.991346
4464 344 2 0.5897 16.122748 64.617640 19.286205
4465 345 1 -1.1794 20.154818 55.648014 3.148573
4466 345 2 0.5897 21.056564 55.321289 2.865546
4467 345 2 0.5897 19.969024 56.530208 2.715890
4468 346 1 -1.1794 11.671855 81.761868 2.530863
4469 346 2 0.5897 11.948726 82.719949 2.457209
4470 346 2 0.5897 12.339783 81.184820 2.060877
4471 347 1 -1.1794 10.571381 60.499665 0.377720
4472 347 2 0.5897 10.605792 59.517550 0.192608
4473 347 2 0.5897 9.628312 60.821687 0.294518
4474 348 1 -1.1794 6.942935 93.021565 11.097014
4475 348 2 0.5897 6.612294 92.372795 11.782416
4476 348 2 0.5897 6.277713 93.760375 10.989129
4477 349 1 -1.1794 19.349475 71.223048 3.760669
4478 349 2 0.5897 19.651790 70.282503 3.605816
4479 349 2 0.5897 19.148380 71.352940 4.731591
4480 350 1 -1.1794 11.707048 96.968266 18.667706
4481 350 2 0.5897 11.516448 96.706805 19.613914
4482 350 2 0.5897 12.692582 96.928459 18.502966
4483 351 1 -1.1794 4.206667 71.265285 6.070178
4484 351 2 0.5897 3.810796 70.518367 5.535949
4485 351 2 0.5897 5.181715 71.343386 5.862372
4486 352 1 -1.1794 19.260783 73.888279 29.434387
4487 352 2 0.5897 18.888398 74.622895 30.001546
4488 352 2 0.5897 18.630697 73.696003 28.682043
4489 353 1 -1.1794 3.468098 76.580108 17.391221
4490 353 2 0.5897 3.864334 76.752472 18.293046
4491 353 2 0.5897 2.485986 76.416486 17.484407
4492 354 1 -1.1794 3.674881 92.911368 20.347814
4493 354 2 0.5897 3.161686 93.754703 20.507244
4494 354 2 0.5897 4.323854 93.052393 19.600187
4495 355 1 -1.1794 7.315023 60.523455 16.232756
4496 355 2 0.5897 6.988920 60.464504 17.176250
4497 355 2 0.5897 7.216509 59.632364 15.789754
4498 356 1 -1.1794 6.662772 81.300306 24.645861
4499 356 2 0.5897 7.554307 81.011661 24.296791
4500 356 2 0.5897 6.225388 81.906935 23.982011
4501 357 1 -1.1794 17.055010 79.114841 26.764141
4502 357 2 0.5897 16.612151 78.240222 26.961418
4503 357 2 0.5897 16.655310 79.511978 25.937992
4504 358 1 -1.1794 6.260064 65.813667 9.502254
4505 358 2 0.5897 5.654448 65.277646 8.914112
4506 358 2 0.5897 6.846116 66.393909 8.936691
4507 359 1 -1.1794 10.023853 82.095394 33.665357
4508 359 2 0.5897 9.205601 82.598551 33.387334
4509 359 2 0.5897 10.446005 81.675530 32.861926
4510 360 1 -1.1794 15.259685 91.454125 28.903041
4511 360 2 0.5897 16.236904 91.276782 29.019630
4512 360 2 0.5897 14.790474 91.322140 29.776208
4513 361 1 -1.1794 11.873390 72.740545 5.148225
4514 361 2 0.5897 12.647192 73.112450 4.635471
4515 361 2 0.5897 12.211566 72.142502 5.874849
4516 362 1 -1.1794 3.654988 54.981463 15.906130
4517 362 2 0.5897 4.144039 55.509483 16.600410
4518 362 2 0.5897 3.323732 54.128001 16.308465
4519 363 1 -1.1794 5.800776 75.487384 32.844132
4520 363 2 0.5897 5.926709 74.507874 32.686966
4521 363 2 0.5897 5.330216 75.892912 32.060474
4522 364 1 -1.1794 12.211253 86.743178 15.504274
4523 364 2 0.5897 12.044507 87.460857 16.180390
4524 364 2 0.5897 12.522566 87.157006 14.648802
4525 365 1 -1.1794 4.652258 69.305616 2.237627
4526 365 2 0.5897 5.621589 69.083976 2.343799
4527 365 2 0.5897 4.269706 69.561655 3.125376
4528 366 1 -1.1794 4.143367 72.809814 1.067775
4529 366 2 0.5897 3.265305 72.398997 1.313206
4530 366 2 0.5897 4.289235 72.720752 0.082488
4531 367 1 -1.1794 16.342289 63.598151 21.910962
4532 367 2 0.5897 17.041427 63.040751 21.463178
4533 367 2 0.5897 16.314553 64.502861 21.485837
4534 368 1 -1.1794 6.556430 92.772899 26.104958
4535 368 2 0.5897 6.392998 92.332966 26.987992
4536 368 2 0.5897 5.918191 92.407537 25.427343
4537 369 1 -1.1794 7.360386 56.604000 33.431770
4538 369 2 0.5897 7.309135 56.705197 32.438225
4539 369 2 0.5897 8.064029 55.931951 33.662500
4540 370 1 -1.1794 1.480795 89.217138 10.713961
4541 370 2 0.5897 2.325831 88.821041 10.354764
4542 370 2 0.5897 0.755338 89.130070 10.031223
4543 371 1 -1.1794 -0.000023 72.247096 13.364736
4544 371 2 0.5897 0.284449 72.764210 12.557476
4545 371 2 0.5897 0.035372 71.268277 13.163092
4546 372 1 -1.1794 20.872165 87.279742 33.662563
4547 372 2 0.5897 21.770439 87.195618 33.231255
4548 372 2 0.5897 20.167985 87.346755 32.955711
4549 373 1 -1.1794 14.702573 89.908566 8.364761
4550 373 2 0.5897 13.875021 89.465077 8.708963
4551 373 2 0.5897 15.123400 90.443489 9.097401
4552 374 1 -1.1794 7.805546 86.420271 19.126906
4553 374 2 0.5897 7.621949 86.676525 20.075919
4554 374 2 0.5897 8.762379 86.612472 18.908896
4555 375 1 -1.1794 20.672231 81.203784 12.120480
4556 375 2 0.5897 21.584260 80.793895 12.134427
4557 375 2 0.5897 20.208556 81.014709 12.986076
4558 376 1 -1.1794 16.045297 81.687571 7.797049
4559 376 2 0.5897 16.778723 81.347164 8.385444
4560 376 2 0.5897 15.297755 82.034817 8.363264
4561 377 1 -1.1794 12.013412 81.025420 20.445398
4562 377 2 0.5897 11.621217 80.666942 19.598240
4563 377 2 0.5897 11.639912 80.522227 21.224688
4564 378 1 -1.1794 13.576911 66.228877 26.996164
4565 378 2 0.5897 14.271587 66.592045 27.617078
4566 378 2 0.5897 12.823456 65.842610 27.528239
4567 379 1 -1.1794 0.544735 69.257435 7.904189
4568 379 2 0.5897 0.187618 70.140456 7.599656
4569 379 2 0.5897 -0.001246 68.924264 8.672891
4570 380 1 -1.1794 15.670265 92.032095 14.110315
4571 380 2 0.5897 16.614328 92.353283 14.185032
4572 380 2 0.5897 15.615571 91.082968 14.420423
4573 381 1 -1.1794 17.942994 79.165213 19.787430
4574 381 2 0.5897 17.264360 78.458261 19.986618
4575 381 2 0.5897 17.886294 79.885820 20.478451
4576 382 1 -1.1794 0.010386 81.717406 25.134708
4577 382 2 0.5897 0.096967 82.455891 25.803397
4578 382 2 0.5897 0.796524 81.733342 24.516863
4579 383 1 -1.1794 4.249549 59.341917 23.529204
4580 383 2 0.5897 4.521157 58.600747 22.915284
4581 383 2 0.5897 5.047028 59.905547 23.744490
4582 384 1 -1.1794 5.636258 69.949057 11.069899
4583 384 2 0.5897 5.472778 70.074454 10.091354
4584 384 2 0.5897 5.185430 70.681743 11.579728
4585 385 1 -1.1794 11.213278 83.864819 27.252799
4586 385 2 0.5897 10.573079 83.344412 27.817885
4587 385 2 0.5897 11.998642 84.140827 27.806895
4588 386 1 -1.1794 14.984089 55.174416 11.328481
4589 386 2 0.5897 13.990657 55.159799 11.214997
4590 386 2 0.5897 15.422575 54.968811 10.453577
4591 387 1 -1.1794 17.802740 87.447097 22.056515
4592 387 2 0.5897 17.830448 87.263753 21.073857
4593 387 2 0.5897 18.731020 87.418216 22.427274
4594 388 1 -1.1794 8.504911 51.722427 33.274998
4595 388 2 0.5897 8.207650 50.772803 33.175746
4596 388 2 0.5897 9.426487 51.744433 33.662570
4597 389 1 -1.1794 11.736621 52.961003 15.223628
4598 389 2 0.5897 12.125574 52.190556 15.728729
4599 389 2 0.5897 10.800223 52.741422 14.949873
4600 390 1 -1.1794 11.747804 61.641199 16.644398
4601 390 2 0.5897 10.943833 61.549751 16.056803
4602 390 2 0.5897 12.569689 61.412375 16.122723
4603 391 1 -1.1794 17.566206 48.549688 22.543980
4604 391 2 0.5897 16.587765 48.724939 22.653244
4605 391 2 0.5897 18.084769 49.188855 23.111923
4606 392 1 -1.1794 18.756718 97.672729 7.685711
4607 392 2 0.5897 18.487892 98.550040 8.083275
4608 392 2 0.5897 19.740340 97.539296 7.806881
4609 393 1 -1.1794 12.947808 56.130923 19.829360
4610 393 2 0.5897 12.070264 55.865923 20.228974
4611 393 2 0.5897 13.611181 56.293431 20.559790
4612 394 1 -1.1794 9.307580 75.409804 25.333926
4613 394 2 0.5897 10.174729 75.606620 25.791437
4614 394 2 0.5897 8.583830 75.315874 26.017565
4615 395 1 -1.1794 11.893925 70.888303 3.217298
4616 395 2 0.5897 12.174962 70.752913 4.167397
4617 395 2 0.5897 11.795195 71.866593 3.035090
4618 396 1 -1.1794 0.551377 59.255587 11.863515
4619 396 2 0.5897 0.000042 58.835461 11.142735
4620 396 2 0.5897 0.000036 59.350452 12.692384
4621 397 1 -1.1794 21.692202 73.618250 24.218880
4622 397 2 0.5897 21.532220 72.656842 23.995049
4623 397 2 0.5897 21.775096 73.720356 25.210194
4624 398 1 -1.1794 8.542960 88.930208 2.363702
4625 398 2 0.5897 7.653542 88.474901 2.404092
4626 398 2 0.5897 9.266694 88.264678 2.546127
4627 399 1 -1.1794 2.526625 83.093914 2.768122
4628 399 2 0.5897 2.625275 84.064289 2.988664
4629 399 2 0.5897 2.333993 82.580019 3.604068
4630 400 1 -1.1794 20.061624 83.469225 5.379585
4631 400 2 0.5897 20.435021 84.370795 5.161075
4632 400 2 0.5897 19.112678 83.417139 5.068474
4633 401 1 -1.1794 5.967434 97.813178 6.539894
4634 401 2 0.5897 5.963260 98.460270 7.302295
4635 401 2 0.5897 6.091510 96.885127 6.891072
4636 402 1 -1.1794 9.377639 51.476344 1.952550
4637 402 2 0.5897 8.602827 51.886245 1.471253
4638 402 2 0.5897 9.273133 51.620979 2.936500
4639 403 1 -1.1794 16.894043 55.964836 6.976809
4640 403 2 0.5897 17.157945 55.616270 7.876174
4641 403 2 0.5897 16.352846 56.798343 7.088046
4642 404 1 -1.1794 19.048985 89.641418 24.123000
4643 404 2 0.5897 19.818828 89.013502 24.237298
4644 404 2 0.5897 18.589602 89.451096 23.255392
4645 405 1 -1.1794 1.994069 63.662899 16.076438
4646 405 2 0.5897 2.534399 63.110557 16.711231
4647 405 2 0.5897 2.415974 64.563992 15.976296
4648 406 1 -1.1794 5.026687 58.824600 9.169788
4649 406 2 0.5897 4.288641 58.352379 9.651758
4650 406 2 0.5897 5.644237 59.244229 9.835027
4651 407 1 -1.1794 10.600187 93.742049 26.729720
4652 407 2 0.5897 9.775147 94.105260 26.296836
4653 407 2 0.5897 10.396428 93.488552 27.675353
4654 408 1 -1.1794 16.470337 52.108925 6.637000
4655 408 2 0.5897 16.079392 51.408693 6.039641
4656 408 2 0.5897 17.287507 51.746408 7.085124
4657 409 1 -1.1794 17.303793 97.541426 2.915743
4658 409 2 0.5897 18.164088 97.701376 3.399798
4659 409 2 0.5897 16.888200 98.418775 2.675867
4660 410 1 -1.1794 12.348644 56.096673 27.389019
4661 410 2 0.5897 12.775857 55.398470 26.814560
4662 410 2 0.5897 11.925195 56.792374 26.808768
4663 411 1 -1.1794 1.385737 62.127928 33.117484
4664 411 2 0.5897 1.801176 62.856157 33.662546
4665 411 2 0.5897 1.810499 61.253223 33.350870
4666 412 1 -1.1794 8.288276 49.346837 8.799375
4667 412 2 0.5897 8.207907 49.225134 7.810068
4668 412 2 0.5897 9.121688 49.859610 9.005506
4669 413 1 -1.1794 8.268448 50.572079 16.857684
4670 413 2 0.5897 8.079963 51.528398 17.081129
4671 413 2 0.5897 7.914371 49.983872 17.584762
4672 414 1 -1.1794 5.497703 83.896855 24.569443
4673 414 2 0.5897 4.666382 84.329102 24.918827
4674 414 2 0.5897 6.102731 84.596522 24.189433
4675 415 1 -1.1794 5.430624 55.655517 24.290419
4676 415 2 0.5897 6.279454 55.216615 23.995713
4677 415 2 0.5897 4.651342 55.092222 24.015795
4678 416 1 -1.1794 18.059246 65.114741 10.709814
4679 416 2 0.5897 18.668495 64.321784 10.715845
4680 416 2 0.5897 17.558793 65.157150 11.574538
4681 417 1 -1.1794 19.143986 81.734195 17.133573
4682 417 2 0.5897 19.705381 81.188774 16.511197
4683 417 2 0.5897 18.610087 82.396123 16.607451
4684 418 1 -1.1794 19.225656 68.460998 4.763408
4685 418 2 0.5897 18.382720 68.605462 5.281663
4686 418 2 0.5897 20.011742 68.542335 5.376150
4687 419 1 -1.1794 20.852089 90.600651 13.106846
4688 419 2 0.5897 20.181851 90.170874 12.501806
4689 419 2 0.5897 21.775022 90.395188 12.781301
4690 420 1 -1.1794 10.272494 52.451766 10.793941
4691 420 2 0.5897 9.585240 51.922618 10.296262
4692 420 2 0.5897 10.907435 52.868720 10.143557
4693 421 1 -1.1794 20.019908 91.211248 17.279470
4694 421 2 0.5897 20.762198 90.756844 17.771936
4695 421 2 0.5897 19.478660 91.755379 17.920541
4696 422 1 -1.1794 3.045503 82.239837 12.616974
4697 422 2 0.5897 3.560888 82.960150 12.152724
4698 422 2 0.5897 2.222469 82.026668 12.090501
4699 423 1 -1.1794 10.875327 83.614652 8.466509
4700 423 2 0.5897 10.861420 83.382895 9.439183
4701 423 2 0.5897 9.969433 83.932473 8.186607
4702 424 1 -1.1794 19.712988 89.872973 19.506811
4703 424 2 0.5897 19.348036 89.316468 18.760411
4704 424 2 0.5897 19.056286 90.590279 19.739653
4705 425 1 -1.1794 11.010535 64.021990 6.616626
4706 425 2 0.5897 11.402325 63.767251 7.500711
4707 425 2 0.5897 10.496448 64.874295 6.713015
4708 426 1 -1.1794 15.226573 81.172423 24.430934
4709 426 2 0.5897 14.267513 81.393515 24.253956
4710 426 2 0.5897 15.593105 81.802667 25.115365
4711 427 1 -1.1794 17.128581 71.667780 16.612110
4712 427 2 0.5897 16.890370 71.081166 15.838068
4713 427 2 0.5897 17.733674 72.400667 16.301083
4714 428 1 -1.1794 18.148741 48.984184 28.900016
4715 428 2 0.5897 17.675803 48.550001 29.666706
4716 428 2 0.5897 19.040002 48.549984 28.769163
4717 429 1 -1.1794 6.471501 55.360464 2.826830
4718 429 2 0.5897 6.675461 54.604454 3.448803
4719 429 2 0.5897 6.864039 56.205657 3.189546
4720 430 1 -1.1794 9.626534 81.201270 23.582403
4721 430 2 0.5897 10.392377 80.990993 22.974728
4722 430 2 0.5897 9.908489 81.893509 24.246712
4723 431 1 -1.1794 0.286338 98.551485 30.133794
4724 431 2 0.5897 -0.000270 98.488680 29.177807
4725 431 2 0.5897 1.282091 98.477635 30.188775
4726 432 1 -1.1794 14.656342 51.299696 28.163482
4727 432 2 0.5897 15.571142 51.537877 27.837276
4728 432 2 0.5897 14.286610 50.556542 27.605789
4729 433 1 -1.1794 15.852235 50.780184 22.382462
4730 433 2 0.5897 15.110688 50.257325 21.962074
4731 433 2 0.5897 16.166894 51.483721 21.745261
4732 434 1 -1.1794 15.334261 72.733505 4.385136
4733 434 2 0.5897 16.011277 73.342416 4.798509
4734 434 2 0.5897 15.033245 72.061480 5.061724
4735 435 1 -1.1794 15.554231 58.560799 20.041262
4736 435 2 0.5897 15.275178 57.731725 20.525788
4737 435 2 0.5897 15.089199 58.602545 19.156953
4738 436 1 -1.1794 21.426063 88.489056 9.608936
4739 436 2 0.5897 21.758056 87.825254 10.279121
4740 436 2 0.5897 20.930367 89.218764 10.079905
4741 437 1 -1.1794 1.003188 56.630762 0.849805
4742 437 2 0.5897 1.143865 56.122788 -0.000002
4743 437 2 0.5897 0.740590 55.996995 1.577391
4744 438 1 -1.1794 18.552360 86.693719 2.570511
4745 438 2 0.5897 18.693577 86.639860 1.581998
4746 438 2 0.5897 18.019910 87.512015 2.787048
4747 439 1 -1.1794 1.893581 66.705078 26.306767
4748 439 2 0.5897 2.194288 67.636218 26.100484
4749 439 2 0.5897 2.585379 66.247446 26.865327
4750 440 1 -1.1794 11.902067 56.293416 30.914238
4751 440 2 0.5897 11.993124 55.326983 31.154479
4752 440 2 0.5897 10.935011 56.547960 30.917334
4753 441 1 -1.1794 0.809727 91.465666 22.264192
4754 441 2 0.5897 1.197523 91.512929 21.343659
4755 441 2 0.5897 0.000167 90.878700 22.255096
4756 442 1 -1.1794 0.158573 74.751096 16.372120
4757 442 2 0.5897 -0.000091 74.198196 15.554118
4758 442 2 0.5897 -0.000104 74.193744 17.187093
4759 443 1 -1.1794 19.161928 58.420781 30.884955
4760 443 2 0.5897 19.485402 58.198783 31.804782
4761 443 2 0.5897 19.920202 58.344443 30.237504
4762 444 1 -1.1794 11.598766 88.830725 3.159008
4763 444 2 0.5897 11.722133 88.396275 4.051216
4764 444 2 0.5897 11.482818 89.816407 3.281424
4765 445 1 -1.1794 16.819510 57.000994 19.139938
4766 445 2 0.5897 16.408775 56.154287 19.478145
4767 445 2 0.5897 17.313453 56.815710 18.290415
4768 446 1 -1.1794 9.453384 66.091883 0.964095
4769 446 2 0.5897 9.481108 66.312895 1.938972
4770 446 2 0.5897 8.543687 65.752314 0.725046
4771 447 1 -1.1794 12.681209 82.545067 22.424177
4772 447 2 0.5897 12.426617 81.822859 23.067294
4773 447 2 0.5897 12.861678 83.390534 22.926786
4774 448 1 -1.1794 7.972585 50.417840 20.243413
4775 448 2 0.5897 6.990439 50.508591 20.408198
4776 448 2 0.5897 8.460791 51.140727 20.732381
4777 449 1 -1.1794 17.010623 81.277723 18.643477
4778 449 2 0.5897 16.968006 81.367077 17.648389
4779 449 2 0.5897 17.940222 81.472871 18.956147
4780 450 1 -1.1794 21.672010 94.408237 11.821621
4781 450 2 0.5897 20.803788 94.165002 12.254087
4782 450 2 0.5897 21.775303 95.402880 11.817690
4783 451 1 -1.1794 20.646385 93.725075 0.915511
4784 451 2 0.5897 20.850129 94.682201 1.121422
4785 451 2 0.5897 21.442132 93.300315 0.483809
4786 452 1 -1.1794 16.192041 89.143414 22.681003
4787 452 2 0.5897 15.197202 89.069966 22.610995
4788 452 2 0.5897 16.427969 89.848437 23.349793
4789 453 1 -1.1794 5.663497 55.979762 9.536612
4790 453 2 0.5897 5.506816 56.700025 8.860837
4791 453 2 0.5897 5.862563 55.119650 9.066952
4792 454 1 -1.1794 13.406062 58.845232 15.020736
4793 454 2 0.5897 12.689613 58.193218 14.772586
4794 454 2 0.5897 14.283856 58.528763 14.661118
4795 455 1 -1.1794 18.536918 82.143239 33.571838
4796 455 2 0.5897 18.307910 82.743123 32.805226
4797 455 2 0.5897 19.469818 81.800894 33.460052
4798 456 1 -1.1794 9.060764 55.110633 16.293696
4799 456 2 0.5897 9.446041 55.680577 15.567936
4800 456 2 0.5897 8.887995 54.191564 15.939490
4801 457 1 -1.1794 20.911449 87.133868 22.494883
4802 457 2 0.5897 20.997048 86.309318 21.935607
4803 457 2 0.5897 20.836859 87.934027 21.899752
4804 458 1 -1.1794 20.863334 68.489692 15.750531
4805 458 2 0.5897 21.533938 69.196289 15.976389
4806 458 2 0.5897 20.100138 68.901468 15.252561
4807 459 1 -1.1794 21.775450 73.758790 16.909090
4808 459 2 0.5897 21.372104 73.480905 17.780922
4809 459 2 0.5897 21.591454 74.728898 16.750861
4810 460 1 -1.1794 9.675328 78.348316 24.591268
4811 460 2 0.5897 9.667669 78.151518 23.610854
4812 460 2 0.5897 9.808621 79.329161 24.733314
4813 461 1 -1.1794 7.585314 55.736194 6.244659
4814 461 2 0.5897 7.571639 56.219460 5.369293
4815 461 2 0.5897 7.067989 54.884291 6.163197
4816 462 1 -1.1794 2.681261 59.891410 28.132989
4817 462 2 0.5897 2.174244 59.031440 28.074812
4818 462 2 0.5897 2.051178 60.658600 28.012925
4819 463 1 -1.1794 16.549706 65.399970 15.144544
4820 463 2 0.5897 17.310328 65.839257 15.622541
4821 463 2 0.5897 15.899450 65.039463 15.813276
4822 464 1 -1.1794 19.477747 81.005636 25.859135
4823 464 2 0.5897 20.160969 81.342541 25.211290
4824 464 2 0.5897 19.774436 81.208902 26.792227
4825 465 1 -1.1794 5.099294 74.667234 21.859947
4826 465 2 0.5897 6.054329 74.778942 22.134591
4827 465 2 0.5897 4.541596 74.469466 22.666086
4828 466 1 -1.1794 9.480083 70.035217 20.988418
4829 466 2 0.5897 8.620418 69.883397 21.476194
4830 466 2 0.5897 9.593811 69.331964 20.286634
4831 467 1 -1.1794 13.480162 60.926236 18.677729
4832 467 2 0.5897 13.941409 61.539044 18.036076
4833 467 2 0.5897 12.736173 60.450751 18.208268
4834 468 1 -1.1794 3.328104 98.551065 6.375294
4835 468 2 0.5897 3.753452 98.517863 7.279715
4836 468 2 0.5897 4.007535 98.320405 5.678753
4837 469 1 -1.1794 5.028639 55.995310 18.957815
4838 469 2 0.5897 5.732640 56.261141 19.616386
4839 469 2 0.5897 4.138897 55.968822 19.413510
4840 470 1 -1.1794 5.562234 53.630234 19.057539
4841 470 2 0.5897 5.552964 53.996253 18.126978
4842 470 2 0.5897 4.710314 53.135665 19.229682
4843 471 1 -1.1794 1.647614 66.928426 31.955902
4844 471 2 0.5897 1.127063 66.357220 32.590528
4845 471 2 0.5897 2.302615 67.484029 32.468034
4846 472 1 -1.1794 3.534546 93.228741 6.378629
4847 472 2 0.5897 4.052336 92.378351 6.285198
4848 472 2 0.5897 3.138796 93.278981 7.295612
4849 473 1 -1.1794 9.453420 57.767824 32.761844
4850 473 2 0.5897 9.478566 58.201531 33.662547
4851 473 2 0.5897 9.870355 56.860563 32.817009
4852 474 1 -1.1794 11.564236 80.527789 25.752566
4853 474 2 0.5897 12.182408 80.334979 24.990537
4854 474 2 0.5897 11.367555 79.679922 26.244947
4855 475 1 -1.1794 17.958587 82.708341 11.410006
4856 475 2 0.5897 17.329688 82.761812 12.185651
4857 475 2 0.5897 18.830576 83.130278 11.658210
4858 476 1 -1.1794 9.378780 70.945652 28.481184
4859 476 2 0.5897 8.633922 71.272176 29.063050
4860 476 2 0.5897 10.133400 70.625562 29.053976
4861 477 1 -1.1794 11.640272 64.085128 15.208809
4862 477 2 0.5897 11.307598 63.721145 16.078777
4863 477 2 0.5897 10.905479 64.590125 14.755977
4864 478 1 -1.1794 7.632076 50.818556 6.245614
4865 478 2 0.5897 6.907762 51.002668 5.581181
4866 478 2 0.5897 8.496606 50.673147 5.764527
4867 479 1 -1.1794 11.037793 88.732917 24.773682
4868 479 2 0.5897 10.947494 87.938721 24.172767
4869 479 2 0.5897 11.200536 89.551214 24.222406
4870 480 1 -1.1794 12.919841 86.297308 0.967131
4871 480 2 0.5897 12.757288 87.173276 1.421285
4872 480 2 0.5897 12.736813 85.551032 1.607111
4873 481 1 -1.1794 2.803559 86.833541 19.992461
4874 481 2 0.5897 3.648990 86.942899 20.515230
4875 481 2 0.5897 2.087807 86.469653 20.588518
4876 482 1 -1.1794 12.961595 50.356847 9.990604
4877 482 2 0.5897 12.277349 50.753402 9.378599
4878 482 2 0.5897 13.137565 50.987047 10.746833
4879 483 1 -1.1794 19.753856 62.786736 22.527661
4880 483 2 0.5897 20.693404 63.127870 22.557272
4881 483 2 0.5897 19.485086 62.632435 21.576897
4882 484 1 -1.1794 1.037899 55.401556 17.992344
4883 484 2 0.5897 0.734581 55.901192 17.180949
4884 484 2 0.5897 2.013077 55.195374 17.911628
4885 485 1 -1.1794 16.699705 54.510495 33.662622
4886 485 2 0.5897 16.237698 54.091903 32.880745
4887 485 2 0.5897 17.684007 54.544030 33.489349
4888 486 1 -1.1794 7.423694 89.795258 12.548090
4889 486 2 0.5897 7.621940 89.967885 11.583259
4890 486 2 0.5897 6.564326 89.289958 12.626568
4891 487 1 -1.1794 14.057809 69.944711 27.825763
4892 487 2 0.5897 13.612532 69.147773 27.417572
4893 487 2 0.5897 13.401925 70.435776 28.399060
4894 488 1 -1.1794 14.773428 72.515947 14.277197
4895 488 2 0.5897 15.041748 71.734091 14.839963
4896 488 2 0.5897 14.235586 72.196206 13.497138
4897 489 1 -1.1794 14.793055 88.470855 3.874511
4898 489 2 0.5897 15.697452 88.223601 4.222262
4899 489 2 0.5897 14.377951 87.676587 3.430859
4900 490 1 -1.1794 10.368563 84.268186 0.623701
4901 490 2 0.5897 10.701352 84.297406 1.566249
4902 490 2 0.5897 11.143136 84.164256 -0.000188
4903 491 1 -1.1794 11.071349 86.033033 5.941244
4904 491 2 0.5897 10.630881 86.913097 5.763830
4905 491 2 0.5897 10.525690 85.513795 6.599003
4906 492 1 -1.1794 9.899016 83.218405 31.392864
4907 492 2 0.5897 8.980839 83.613790 31.367939
4908 492 2 0.5897 9.968115 82.492706 30.708331
4909 493 1 -1.1794 17.125238 71.260973 18.987142
4910 493 2 0.5897 17.183175 70.322645 19.327998
4911 493 2 0.5897 17.667280 71.862740 19.573715
4912 494 1 -1.1794 18.656668 59.444540 28.811587
4913 494 2 0.5897 18.665760 60.310974 28.312377
4914 494 2 0.5897 18.690819 58.685137 28.161863
4915 495 1 -1.1794 20.712131 98.492284 29.202411
4916 495 2 0.5897 20.491472 97.615912 29.630526
4917 495 2 0.5897 20.263310 98.549994 28.310655
4918 496 1 -1.1794 0.539290 65.702654 24.567073
4919 496 2 0.5897 0.000000 65.474711 25.377756
4920 496 2 0.5897 -0.000001 66.288149 23.961796
4921 497 1 -1.1794 15.715973 63.891594 33.662363
4922 497 2 0.5897 15.505311 64.578428 32.966747
4923 497 2 0.5897 16.694111 63.684731 33.641053
4924 498 1 -1.1794 10.789962 65.822071 3.692196
4925 498 2 0.5897 10.598798 64.945443 3.250631
4926 498 2 0.5897 11.336361 65.668432 4.515508
4927 499 1 -1.1794 11.200294 84.797660 13.170704
4928 499 2 0.5897 11.462465 84.228509 13.950020
4929 499 2 0.5897 11.405537 85.755181 13.373257
4930 500 1 -1.1794 16.868345 97.548563 6.563956
4931 500 2 0.5897 16.947116 98.522525 6.351369
4932 500 2 0.5897 17.313160 97.013583 5.845669
4933 501 1 -1.1794 18.201855 52.394684 4.400026
4934 501 2 0.5897 19.144362 52.576724 4.119774
4935 501 2 0.5897 18.014445 52.863164 5.263393
4936 502 1 -1.1794 14.089834 58.649410 33.202105
4937 502 2 0.5897 13.987657 59.290620 32.441572
4938 502 2 0.5897 13.209475 58.535376 33.662501
4939 503 1 -1.1794 1.413864 58.240239 23.084202
4940 503 2 0.5897 1.175061 58.844911 23.844034
4941 503 2 0.5897 1.063261 57.321607 23.266392
4942 504 1 -1.1794 12.790602 74.481602 0.577889
4943 504 2 0.5897 13.605581 74.542580 0.001617
4944 504 2 0.5897 11.977150 74.420787 -0.000555
4945 505 1 -1.1794 20.796600 85.070405 28.178156
4946 505 2 0.5897 20.059755 85.735552 28.299147
4947 505 2 0.5897 21.470329 85.182789 28.908539
4948 506 1 -1.1794 17.671211 91.848177 32.810397
4949 506 2 0.5897 17.172821 92.689300 32.600349
4950 506 2 0.5897 17.458163 91.153976 32.122869
4951 507 1 -1.1794 9.943812 77.206499 28.188410
4952 507 2 0.5897 10.702810 77.070604 27.551657
4953 507 2 0.5897 9.323009 76.424100 28.138861
4954 508 1 -1.1794 5.761064 54.802980 21.609518
4955 508 2 0.5897 6.451610 54.222472 22.040977
4956 508 2 0.5897 4.924541 54.274505 21.464801
4957 509 1 -1.1794 18.911503 93.752587 15.031599
4958 509 2 0.5897 19.708570 93.527914 15.592141
4959 509 2 0.5897 18.147825 94.007109 15.624906
4960 510 1 -1.1794 6.968169 66.066107 21.608449
4961 510 2 0.5897 6.943304 66.662750 22.410571
4962 510 2 0.5897 7.398308 65.197015 21.852701
4963 511 1 -1.1794 14.533244 65.883558 20.312171
4964 511 2 0.5897 14.484041 66.561508 19.578711
4965 511 2 0.5897 14.089907 65.037980 20.014768
4966 512 1 -1.1794 16.788323 93.194725 29.945601
4967 512 2 0.5897 15.936012 93.505657 29.525022
4968 512 2 0.5897 17.564987 93.532492 29.413899
4969 513 1 -1.1794 15.432533 49.589895 29.361044
4970 513 2 0.5897 16.227008 50.190923 29.448090
4971 513 2 0.5897 15.632173 48.867272 28.699259
4972 514 1 -1.1794 11.215941 72.239300 23.268183
4973 514 2 0.5897 11.539428 71.375673 22.881526
4974 514 2 0.5897 11.892974 72.955211 23.097602
4975 515 1 -1.1794 18.478914 64.640822 8.547383
4976 515 2 0.5897 17.734758 65.307657 8.507860
4977 515 2 0.5897 18.249564 63.851295 7.978132
4978 516 1 -1.1794 6.995463 96.901129 19.831438
4979 516 2 0.5897 7.521353 96.804435 20.676477
4980 516 2 0.5897 6.024048 96.989719 20.051676
4981 517 1 -1.1794 17.745674 82.138345 21.145866
4982 517 2 0.5897 17.503660 81.523607 21.896550
4983 517 2 0.5897 16.916085 82.414554 20.660591
4984 518 1 -1.1794 2.039509 83.543051 25.198725
4985 518 2 0.5897 2.184476 83.978380 24.310202
4986 518 2 0.5897 2.489850 84.081345 25.911067
4987 519 1 -1.1794 18.229098 67.751865 14.833808
4988 519 2 0.5897 18.849257 67.248539 14.232089
4989 519 2 0.5897 17.642750 68.347704 14.285017
4990 520 1 -1.1794 5.092694 67.158712 33.578882
4991 520 2 0.5897 5.139228 68.154116 33.662579
4992 520 2 0.5897 4.135669 66.872563 33.531743
4993 521 1 -1.1794 20.383697 75.586229 28.600828
4994 521 2 0.5897 19.502466 75.678830 28.137301
4995 521 2 0.5897 21.061634 75.227223 27.959333
4996 522 1 -1.1794 14.320195 59.673716 7.543369
4997 522 2 0.5897 14.579925 58.921231 6.938138
4998 522 2 0.5897 14.027199 60.456780 6.994768
4999 523 1 -1.1794 7.557568 95.166056 13.918106
5000 523 2 0.5897 7.558917 95.998613 14.472043
5001 523 2 0.5897 7.295751 94.387054 14.487850
5002 524 1 -1.1794 7.216848 60.322904 31.797363
5003 524 2 0.5897 8.037059 60.663458 31.337714
5004 524 2 0.5897 7.480962 59.687951 32.523365
5005 525 1 -1.1794 6.078784 91.638623 33.424262
5006 525 2 0.5897 5.995507 91.420665 32.451863
5007 525 2 0.5897 7.045120 91.735738 33.662511
5008 526 1 -1.1794 7.022640 77.790929 29.064613
5009 526 2 0.5897 7.363291 78.548962 28.508427
5010 526 2 0.5897 6.298759 77.312087 28.567916
5011 527 1 -1.1794 20.147259 95.692178 28.367602
5012 527 2 0.5897 19.351454 95.853460 28.951282
5013 527 2 0.5897 20.953514 95.537440 28.938573
5014 528 1 -1.1794 3.978024 69.010685 24.548279
5015 528 2 0.5897 3.069488 69.291122 24.857984
5016 528 2 0.5897 4.553836 68.811813 25.341305
5017 529 1 -1.1794 19.662012 86.482782 20.138495
5018 529 2 0.5897 20.031663 85.898364 19.416129
5019 529 2 0.5897 19.730726 87.440768 19.860033
5020 530 1 -1.1794 2.338996 75.118307 32.107354
5021 530 2 0.5897 2.011994 76.019648 31.823358
5022 530 2 0.5897 2.206037 75.010711 33.092617
5023 531 1 -1.1794 10.569278 72.261996 15.673205
5024 531 2 0.5897 10.721222 73.086230 15.127721
5025 531 2 0.5897 10.748830 71.453551 15.112689
5026 532 1 -1.1794 -0.000176 91.966246 33.049003
5027 532 2 0.5897 0.147083 91.153343 32.485529
5028 532 2 0.5897 0.820282 92.537657 33.030602
5029 533 1 -1.1794 20.606461 71.559816 16.615901
5030 533 2 0.5897 21.375228 71.102584 17.063044
5031 533 2 0.5897 20.301203 71.013078 15.836225
5032 534 1 -1.1794 0.002062 70.987328 10.624586
5033 534 2 0.5897 0.054991 69.989107 10.597157
5034 534 2 0.5897 0.016131 71.347610 9.691849
5035 535 1 -1.1794 10.712416 67.889984 14.880968
5036 535 2 0.5897 10.862430 68.845241 14.626059
5037 535 2 0.5897 10.889789 67.302510 14.091402
5038 536 1 -1.1794 16.911039 52.765732 23.587408
5039 536 2 0.5897 16.546529 53.640511 23.268198
5040 536 2 0.5897 16.176299 52.230732 24.004459
5041 537 1 -1.1794 0.505592 92.574870 8.032501
5042 537 2 0.5897 -0.000265 91.947390 7.440574
5043 537 2 0.5897 0.946357 93.277584 7.474003
5044 538 1 -1.1794 8.477306 59.259209 2.388723
5045 538 2 0.5897 8.370148 60.248085 2.285563
5046 538 2 0.5897 9.123161 58.920744 1.704389
5047 539 1 -1.1794 13.010738 73.043604 16.081815
5048 539 2 0.5897 12.769848 72.337926 15.415489
5049 539 2 0.5897 13.976290 72.955237 16.326560
5050 540 1 -1.1794 19.626378 84.202021 26.528448
5051 540 2 0.5897 19.656903 84.896485 25.809567
5052 540 2 0.5897 19.456996 83.305585 26.118922
5053 541 1 -1.1794 2.978842 66.168459 14.292696
5054 541 2 0.5897 3.777246 65.801610 14.770161
5055 541 2 0.5897 2.320058 66.513442 14.961269
5056 542 1 -1.1794 4.120257 89.493856 11.435416
5057 542 2 0.5897 3.808274 89.061633 12.281495
5058 542 2 0.5897 4.504634 88.798624 10.828039
5059 543 1 -1.1794 13.463761 93.558823 28.515202
5060 543 2 0.5897 12.492542 93.744890 28.366497
5061 543 2 0.5897 13.934821 94.410327 28.745512
5062 544 1 -1.1794 5.950236 96.500559 4.450934
5063 544 2 0.5897 6.607239 97.252498 4.505101
5064 544 2 0.5897 6.390945 95.651280 4.741623
5065 545 1 -1.1794 18.704753 68.210716 8.258625
5066 545 2 0.5897 19.202332 68.767782 8.923526
5067 545 2 0.5897 19.207051 68.195639 7.394063
5068 546 1 -1.1794 13.563286 89.764945 2.568353
5069 546 2 0.5897 13.966624 90.679062 2.527031
5070 546 2 0.5897 13.189504 89.524744 1.672479
5071 547 1 -1.1794 5.919267 49.007666 24.818382
5072 547 2 0.5897 5.764133 49.750351 25.469806
5073 547 2 0.5897 6.782499 48.550818 25.033139
5074 548 1 -1.1794 19.904196 61.898680 24.534817
5075 548 2 0.5897 19.542214 62.749958 24.914677
5076 548 2 0.5897 20.753839 61.658847 25.004483
5077 549 1 -1.1794 7.845841 66.076745 26.522116
5078 549 2 0.5897 7.443110 65.287607 26.058361
5079 549 2 0.5897 7.672567 66.010093 27.504732
5080 550 1 -1.1794 5.135837 60.222344 15.385946
5081 550 2 0.5897 4.145195 60.181623 15.255682
5082 550 2 0.5897 5.453192 61.159106 15.238424
5083 551 1 -1.1794 11.873028 56.418580 22.936759
5084 551 2 0.5897 10.980739 56.140950 22.580750
5085 551 2 0.5897 12.592698 55.904255 22.470344
5086 552 1 -1.1794 15.144361 82.736211 4.697924
5087 552 2 0.5897 15.562764 83.455006 4.142701
5088 552 2 0.5897 14.842968 83.121612 5.570065
5089 553 1 -1.1794 6.162325 88.392315 32.924942
5090 553 2 0.5897 6.311459 89.223863 32.389883
5091 553 2 0.5897 5.514684 88.582402 33.662795
5092 554 1 -1.1794 19.275921 83.901612 9.582789
5093 554 2 0.5897 20.158459 83.904662 10.053020
5094 554 2 0.5897 18.962191 82.958956 9.468890
5095 555 1 -1.1794 8.484546 63.924798 23.786655
5096 555 2 0.5897 9.343091 63.997796 23.279140
5097 555 2 0.5897 7.787532 63.506634 23.204151
5098 556 1 -1.1794 21.775313 77.674463 15.912127
5099 556 2 0.5897 21.735642 77.866174 14.931477
5100 556 2 0.5897 20.953598 78.032764 16.355304
5101 557 1 -1.1794 20.221214 61.397589 0.846731
5102 557 2 0.5897 20.073287 60.416306 0.970027
5103 557 2 0.5897 19.591727 61.905985 1.434336
5104 558 1 -1.1794 16.839936 78.349798 29.146463
5105 558 2 0.5897 16.026429 78.116118 29.679004
5106 558 2 0.5897 17.513832 78.787163 29.741927
5107 559 1 -1.1794 16.801683 78.779286 23.050030
5108 559 2 0.5897 17.633973 79.246761 22.752102
5109 559 2 0.5897 16.356898 79.315413 23.767480
5110 560 1 -1.1794 17.776110 83.530394 23.752697
5111 560 2 0.5897 18.623806 83.867768 24.162074
5112 560 2 0.5897 17.166567 83.199721 24.473192
5113 561 1 -1.1794 8.543331 67.364537 19.707495
5114 561 2 0.5897 8.903656 66.590656 19.186655
5115 561 2 0.5897 8.247226 68.081848 19.076792
5116 562 1 -1.1794 3.115260 88.106546 22.491765
5117 562 2 0.5897 2.686752 87.206631 22.572597
5118 562 2 0.5897 3.991480 88.102989 22.973664
5119 563 1 -1.1794 6.889614 93.998731 29.465281
5120 563 2 0.5897 6.585267 93.956859 28.513641
5121 563 2 0.5897 6.332563 93.381445 30.020845
5122 564 1 -1.1794 19.424183 89.238022 16.036584
5123 564 2 0.5897 20.062410 88.868193 16.711782
5124 564 2 0.5897 18.633643 88.630733 15.957552
5125 565 1 -1.1794 12.640510 56.194455 33.080497
5126 565 2 0.5897 13.282160 55.692043 33.660037
5127 565 2 0.5897 11.997153 56.699696 33.655670
5128 566 1 -1.1794 6.587423 69.591395 22.264271
5129 566 2 0.5897 6.753359 68.751584 21.747373
5130 566 2 0.5897 5.867284 69.430576 22.939207
5131 567 1 -1.1794 11.922281 94.515165 1.538383
5132 567 2 0.5897 11.372540 93.769187 1.914282
5133 567 2 0.5897 11.964030 94.429601 0.542926
5134 568 1 -1.1794 4.643374 86.966997 3.030426
5135 568 2 0.5897 5.207780 86.585234 2.298510
5136 568 2 0.5897 4.083726 87.711315 2.666028
5137 569 1 -1.1794 5.628914 54.010419 15.928338
5138 569 2 0.5897 6.184606 54.802779 16.180077
5139 569 2 0.5897 6.199670 53.189300 15.928910
5140 570 1 -1.1794 18.229629 91.026991 15.577713
5141 570 2 0.5897 18.592066 91.585281 14.831421
5142 570 2 0.5897 17.544671 90.393516 15.217794
5143 571 1 -1.1794 17.360184 51.909336 10.483242
5144 571 2 0.5897 17.988673 52.437290 9.912044
5145 571 2 0.5897 17.275597 50.982613 10.117141
5146 572 1 -1.1794 8.559858 75.657175 22.027303
5147 572 2 0.5897 9.164398 76.253429 22.555520
5148 572 2 0.5897 8.284493 74.878236 22.590711
5149 573 1 -1.1794 7.542419 75.111980 27.944351
5150 573 2 0.5897 7.641184 74.311941 28.536114
5151 573 2 0.5897 6.699131 75.031441 27.412957
5152 574 1 -1.1794 9.492357 75.315266 -0.005755
5153 574 2 0.5897 8.538284 75.153123 0.246148
5154 574 2 0.5897 10.075302 75.187381 0.796629
5155 575 1 -1.1794 13.601937 59.196356 28.333038
5156 575 2 0.5897 12.953162 59.656378 28.939232
5157 575 2 0.5897 13.101328 58.704533 27.620648
5158 576 1 -1.1794 20.143942 64.574780 30.442994
5159 576 2 0.5897 20.886505 64.832809 29.824915
5160 576 2 0.5897 19.981693 65.314439 31.096125
5161 577 1 -1.1794 19.768812 53.679093 33.576974
5162 577 2 0.5897 19.617771 53.949478 32.626144
5163 577 2 0.5897 19.660851 52.688669 33.663029
5164 578 1 -1.1794 9.162876 79.796914 -0.000006
5165 578 2 0.5897 8.493563 80.487315 0.274522
5166 578 2 0.5897 9.489879 79.309265 0.809480
5167 579 1 -1.1794 8.417562 56.467862 30.316050
5168 579 2 0.5897 7.587019 56.038193 29.961673
5169 579 2 0.5897 9.079947 56.574786 29.574556
5170 580 1 -1.1794 9.513053 76.438944 2.515864
5171 580 2 0.5897 9.354556 75.509720 2.849661
5172 580 2 0.5897 10.478897 76.672910 2.627241
5173 581 1 -1.1794 9.969166 56.457727 24.522088
5174 581 2 0.5897 9.659611 55.539069 24.276642
5175 581 2 0.5897 10.891424 56.407381 24.905369
5176 582 1 -1.1794 8.096383 80.949849 2.697125
5177 582 2 0.5897 7.947573 80.849056 3.680841
5178 582 2 0.5897 7.435238 80.387357 2.200647
5179 583 1 -1.1794 14.053668 86.378729 23.318103
5180 583 2 0.5897 13.231922 86.183579 23.853500
5181 583 2 0.5897 13.959553 87.270883 22.876286
5182 584 1 -1.1794 13.106943 98.552500 10.645624
5183 584 2 0.5897 13.398097 97.681741 10.249382
5184 584 2 0.5897 13.128842 98.488594 11.643340
5185 585 1 -1.1794 4.473174 85.931547 26.603026
5186 585 2 0.5897 3.968814 86.433061 27.305952
5187 585 2 0.5897 5.054987 85.243714 27.037052
5188 586 1 -1.1794 6.204316 98.421145 28.154824
5189 586 2 0.5897 6.439942 98.550536 29.118015
5190 586 2 0.5897 5.220363 98.550649 28.032081
5191 587 1 -1.1794 10.291787 51.017187 24.774020
5192 587 2 0.5897 9.559870 50.529859 25.250263
5193 587 2 0.5897 10.115809 52.000912 24.810307
5194 588 1 -1.1794 0.333941 65.810680 28.567252
5195 588 2 0.5897 1.301725 65.563952 28.517061
5196 588 2 0.5897 0.000000 66.037840 27.652439
5197 589 1 -1.1794 18.100232 67.906713 11.635379
5198 589 2 0.5897 17.640221 67.254022 12.237362
5199 589 2 0.5897 18.385731 68.705117 12.165511
5200 590 1 -1.1794 19.072871 90.452511 10.055496
5201 590 2 0.5897 19.760486 91.019517 9.601966
5202 590 2 0.5897 18.374363 90.181877 9.393043
5203 591 1 -1.1794 17.180157 89.698474 12.223288
5204 591 2 0.5897 17.449205 90.393884 11.556941
5205 591 2 0.5897 16.183529 89.681723 12.303610
5206 592 1 -1.1794 5.453984 96.033110 26.463928
5207 592 2 0.5897 5.961302 95.625972 27.223446
5208 592 2 0.5897 6.051918 96.108122 25.665901
5209 593 1 -1.1794 14.779467 89.623356 6.072551
5210 593 2 0.5897 14.112703 89.964169 5.409774
5211 593 2 0.5897 15.554065 90.253991 6.120481
5212 594 1 -1.1794 20.530249 55.954523 33.080307
5213 594 2 0.5897 21.347873 56.016387 33.652726
5214 594 2 0.5897 19.720036 55.887257 33.662569
5215 595 1 -1.1794 10.250649 74.209328 13.295348
5216 595 2 0.5897 9.436883 74.628543 13.697896
5217 595 2 0.5897 11.068214 74.671724 13.638536
5218 596 1 -1.1794 0.382046 75.568679 25.932564
5219 596 2 0.5897 0.285035 76.370241 25.342574
5220 596 2 0.5897 1.168117 75.027771 25.633381
5221 597 1 -1.1794 13.153007 78.813127 18.901638
5222 597 2 0.5897 13.572768 79.545133 19.438265
5223 597 2 0.5897 12.858371 78.078610 19.512926
5224 598 1 -1.1794 7.325175 48.579392 15.323889
5225 598 2 0.5897 6.592931 48.549855 16.004290
5226 598 2 0.5897 8.208309 48.650838 15.787537
5227 599 1 -1.1794 17.316544 88.842783 -0.000144
5228 599 2 0.5897 16.422224 88.417463 0.138765
5229 599 2 0.5897 17.297076 89.780594 0.346458
5230 600 1 -1.1794 1.277533 77.026709 14.843464
5231 600 2 0.5897 1.468697 76.270181 15.468862
5232 600 2 0.5897 1.107704 77.859692 15.370054
5233 601 1 -1.1794 10.142735 65.697588 31.337366
5234 601 2 0.5897 9.841724 65.386720 30.435838
5235 601 2 0.5897 9.353070 65.766334 31.947042
5236 602 1 -1.1794 16.239088 48.549548 32.985570
5237 602 2 0.5897 15.385242 48.838990 33.418201
5238 602 2 0.5897 16.973489 48.549958 33.664286
5239 603 1 -1.1794 4.441658 79.016738 2.821578
5240 603 2 0.5897 5.156949 79.189784 3.498641
5241 603 2 0.5897 4.838492 79.040421 1.903993
5242 604 1 -1.1794 5.918238 50.346662 14.929717
5243 604 2 0.5897 6.504059 50.845028 15.568815
5244 604 2 0.5897 5.083616 50.057626 15.398613
5245 605 1 -1.1794 16.181085 58.280900 29.929159
5246 605 2 0.5897 15.773514 57.391669 30.136893
5247 605 2 0.5897 16.212962 58.835388 30.760740
5248 606 1 -1.1794 6.583744 58.270713 7.256522
5249 606 2 0.5897 5.832584 58.545935 6.656512
5250 606 2 0.5897 7.452410 58.374370 6.772088
5251 607 1 -1.1794 17.830293 49.233353 6.950471
5252 607 2 0.5897 16.979429 48.873771 7.333527
5253 607 2 0.5897 18.237331 48.550674 6.343618
5254 608 1 -1.1794 15.598385 90.028294 32.460112
5255 608 2 0.5897 15.390554 89.542986 31.610828
5256 608 2 0.5897 14.770320 90.473554 32.800777
5257 609 1 -1.1794 12.185660 52.716623 3.259651
5258 609 2 0.5897 11.579420 51.921378 3.252029
5259 609 2 0.5897 12.879150 52.613922 2.546542
5260 610 1 -1.1794 2.199677 71.957547 27.546559
5261 610 2 0.5897 1.659000 71.270814 28.032426
5262 610 2 0.5897 3.006541 72.191441 28.089020
5263 611 1 -1.1794 14.067318 66.457296 17.421076
5264 611 2 0.5897 14.239000 67.315978 16.938179
5265 611 2 0.5897 14.029975 65.706027 16.762137
5266 612 1 -1.1794 11.825856 96.883146 8.934560
5267 612 2 0.5897 12.087614 96.046815 8.452862
5268 612 2 0.5897 12.154192 97.678192 8.424564
5269 613 1 -1.1794 19.685674 86.747838 30.249918
5270 613 2 0.5897 19.197608 86.129665 30.866077
5271 613 2 0.5897 20.370655 87.261353 30.766740
5272 614 1 -1.1794 12.597785 81.295149 29.564520
5273 614 2 0.5897 11.965501 81.537545 30.300360
5274 614 2 0.5897 12.987442 80.391834 29.743934
5275 615 1 -1.1794 15.195985 97.104861 22.348675
5276 615 2 0.5897 15.823875 96.362364 22.115324
5277 615 2 0.5897 14.833895 97.511220 21.509769
5278 616 1 -1.1794 15.785918 71.423661 31.019216
5279 616 2 0.5897 14.980257 72.016021 31.014922
5280 616 2 0.5897 15.500115 70.471474 30.911248
5281 617 1 -1.1794 10.378270 72.850625 28.988444
5282 617 2 0.5897 10.596704 72.718699 28.021551
5283 617 2 0.5897 9.605968 73.480256 29.072788
5284 618 1 -1.1794 4.070352 70.537034 21.958204
5285 618 2 0.5897 4.371745 70.102664 21.109390
5286 618 2 0.5897 3.071086 70.536193 21.996502
5287 619 1 -1.1794 3.708681 97.729419 31.616333
5288 619 2 0.5897 4.173563 96.921134 31.255000
5289 619 2 0.5897 4.061961 98.547690 31.162874
5290 620 1 -1.1794 14.458363 60.297251 16.295170
5291 620 2 0.5897 14.936190 61.152329 16.093867
5292 620 2 0.5897 15.104888 59.635542 16.674836
5293 621 1 -1.1794 7.329572 54.267443 14.379432
5294 621 2 0.5897 6.965200 54.145671 13.456174
5295 621 2 0.5897 7.564757 55.229057 14.520801
5296 622 1 -1.1794 17.032981 59.631349 2.856577
5297 622 2 0.5897 17.051477 60.626235 2.955871
5298 622 2 0.5897 17.047487 59.392969 1.885513
5299 623 1 -1.1794 8.089372 90.656135 6.613959
5300 623 2 0.5897 7.163650 90.341738 6.824181
5301 623 2 0.5897 8.113380 91.024069 5.684417
5302 624 1 -1.1794 13.379126 96.582833 6.754793
5303 624 2 0.5897 14.161023 96.390762 6.161711
5304 624 2 0.5897 12.547752 96.640473 6.202077
5305 625 1 -1.1794 4.313547 49.638905 22.533687
5306 625 2 0.5897 4.704873 50.344853 23.124027
5307 625 2 0.5897 3.326995 49.584687 22.687879
5308 626 1 -1.1794 0.753785 94.223021 2.983254
5309 626 2 0.5897 -0.000119 93.967133 2.378151
5310 626 2 0.5897 1.072471 95.141394 2.748671
5311 627 1 -1.1794 18.636922 89.134836 31.241891
5312 627 2 0.5897 19.621762 89.249578 31.371978
5313 627 2 0.5897 18.373179 89.504008 30.350739
5314 628 1 -1.1794 0.702388 97.976634 3.862391
5315 628 2 0.5897 0.426898 97.031913 3.684610
5316 628 2 0.5897 0.448798 98.550007 3.083331
5317 629 1 -1.1794 16.783110 88.567328 25.102621
5318 629 2 0.5897 16.075456 88.072103 24.598659
5319 629 2 0.5897 16.617272 88.477936 26.084714
5320 630 1 -1.1794 7.836385 83.560071 28.003218
5321 630 2 0.5897 7.332446 82.771999 27.649682
5322 630 2 0.5897 7.213901 84.336319 28.102974
5323 631 1 -1.1794 7.533677 65.560328 17.334568
5324 631 2 0.5897 6.890913 66.321407 17.247305
5325 631 2 0.5897 7.756223 65.206183 16.426243
5326 632 1 -1.1794 5.230069 97.961014 18.244591
5327 632 2 0.5897 4.477914 97.946020 17.585775
5328 632 2 0.5897 6.081796 98.189256 17.772926
5329 633 1 -1.1794 0.575174 63.915157 30.434323
5330 633 2 0.5897 0.181609 64.751532 30.815878
5331 633 2 0.5897 0.854431 63.308495 31.178618
5332 634 1 -1.1794 8.955762 87.098065 33.657605
5333 634 2 0.5897 9.153033 86.574270 32.828917
5334 634 2 0.5897 8.210853 87.740211 33.476609
5335 635 1 -1.1794 19.526008 72.179641 7.501412
5336 635 2 0.5897 19.654247 71.190127 7.567870
5337 635 2 0.5897 19.664300 72.470832 6.554795
5338 636 1 -1.1794 10.402667 63.169333 21.535378
5339 636 2 0.5897 11.354210 63.474826 21.500158
5340 636 2 0.5897 10.100338 62.914075 20.616988
5341 637 1 -1.1794 21.288810 66.340477 24.736356
5342 637 2 0.5897 21.774997 66.765960 25.499630
5343 637 2 0.5897 20.645371 66.997380 24.343335
5344 638 1 -1.1794 12.863496 93.279576 14.427369
5345 638 2 0.5897 13.830755 93.240145 14.176660
5346 638 2 0.5897 12.332397 92.713559 13.796846
5347 639 1 -1.1794 13.260641 62.468792 8.248875
5348 639 2 0.5897 13.361432 63.355185 8.700703
5349 639 2 0.5897 13.379814 62.582011 7.262478
5350 640 1 -1.1794 3.607193 82.016741 25.425941
5351 640 2 0.5897 2.844633 81.394481 25.249035
5352 640 2 0.5897 4.124042 82.159003 24.581768
5353 641 1 -1.1794 13.522821 52.186683 24.999861
5354 641 2 0.5897 13.421768 52.431896 25.964049
5355 641 2 0.5897 14.071094 51.353884 24.923428
5356 642 1 -1.1794 -0.006541 85.373428 25.420836
5357 642 2 0.5897 0.318043 85.125885 24.507946
5358 642 2 0.5897 0.422030 86.230806 25.705845
5359 643 1 -1.1794 8.350228 91.095109 2.704238
5360 643 2 0.5897 8.656619 92.045069 2.765068
5361 643 2 0.5897 7.805661 90.868174 3.511670
5362 644 1 -1.1794 0.950498 48.727894 8.166980
5363 644 2 0.5897 0.974479 48.550000 7.183222
5364 644 2 0.5897 0.000000 48.791722 8.471084
5365 645 1 -1.1794 17.920141 55.817695 22.116521
5366 645 2 0.5897 18.246777 55.463572 21.240219
5367 645 2 0.5897 16.967453 55.545497 22.251775
5368 646 1 -1.1794 17.994997 69.427194 32.692780
5369 646 2 0.5897 17.931038 68.725400 33.402284
5370 646 2 0.5897 18.263704 70.296680 33.107257
5371 647 1 -1.1794 11.825623 68.372696 24.248426
5372 647 2 0.5897 12.408648 69.124089 24.557443
5373 647 2 0.5897 11.478450 68.575075 23.332722
5374 648 1 -1.1794 7.280343 85.969526 26.581407
5375 648 2 0.5897 7.776628 86.833478 26.666773
5376 648 2 0.5897 6.688541 86.003256 25.776029
5377 649 1 -1.1794 16.816362 68.157347 20.906973
5378 649 2 0.5897 17.618743 68.441416 20.382102
5379 649 2 0.5897 16.080378 67.903348 20.279428
5380 650 1 -1.1794 12.923575 50.905386 21.629270
5381 650 2 0.5897 12.192753 51.447375 22.044174
5382 650 2 0.5897 12.530598 50.267620 20.966832
5383 651 1 -1.1794 17.277927 90.019187 18.515070
5384 651 2 0.5897 17.744048 90.401963 17.717441
5385 651 2 0.5897 16.516324 89.445959 18.212793
5386 652 1 -1.1794 18.664514 70.321087 25.205453
5387 652 2 0.5897 18.767613 70.758797 26.098639
5388 652 2 0.5897 18.386129 69.368865 25.331054
5389 653 1 -1.1794 19.018689 76.526500 11.932482
5390 653 2 0.5897 19.431726 77.345990 11.535196
5391 653 2 0.5897 19.356209 75.716864 11.452305
5392 654 1 -1.1794 7.196018 64.733929 19.619191
5393 654 2 0.5897 6.861899 64.145820 18.882650
5394 654 2 0.5897 6.918436 65.678428 19.443492
5395 655 1 -1.1794 11.676396 74.871986 27.221020
5396 655 2 0.5897 12.422341 74.409624 27.700382
5397 655 2 0.5897 10.865641 74.891432 27.806082
5398 656 1 -1.1794 10.170148 83.435711 22.699723
5399 656 2 0.5897 10.683504 83.450396 21.841672
5400 656 2 0.5897 10.755209 83.758443 23.443731
5401 657 1 -1.1794 10.904656 57.758060 21.091139
5402 657 2 0.5897 10.406838 57.300057 20.354654
5403 657 2 0.5897 11.144177 58.685790 20.804877
5404 658 1 -1.1794 4.214403 53.501726 5.481001
5405 658 2 0.5897 4.732513 53.595783 6.331127
5406 658 2 0.5897 4.343128 52.581122 5.112328
5407 659 1 -1.1794 13.403144 68.266819 0.662784
5408 659 2 0.5897 13.714835 68.479632 1.588828
5409 659 2 0.5897 13.979338 68.744021 -0.000751
5410 660 1 -1.1794 15.851028 69.333708 13.474226
5411 660 2 0.5897 15.615535 70.286963 13.284889
5412 660 2 0.5897 16.252004 68.920694 12.656524
5413 661 1 -1.1794 10.276488 81.722326 11.363898
5414 661 2 0.5897 10.793735 81.195859 10.689148
5415 661 2 0.5897 10.732402 82.597774 11.524311
5416 662 1 -1.1794 9.145999 79.594616 32.769761
5417 662 2 0.5897 9.272245 80.002045 33.674230
5418 662 2 0.5897 8.333254 79.012043 32.777114
5419 663 1 -1.1794 1.022325 80.078722 26.741187
5420 663 2 0.5897 1.472077 79.242450 27.054832
5421 663 2 0.5897 0.496759 80.476659 27.493135
5422 664 1 -1.1794 17.921188 86.732102 24.682638
5423 664 2 0.5897 18.400091 86.055969 24.122732
5424 664 2 0.5897 18.546218 87.095824 25.373321
5425 665 1 -1.1794 5.883060 93.038292 17.641263
5426 665 2 0.5897 6.641890 93.032749 16.989998
5427 665 2 0.5897 5.277236 93.808175 17.440620
5428 666 1 -1.1794 5.630136 88.878990 28.804438
5429 666 2 0.5897 5.748509 88.309792 27.990803
5430 666 2 0.5897 4.691482 88.792257 29.138213
5431 667 1 -1.1794 2.274091 93.884319 25.322367
5432 667 2 0.5897 2.121884 94.311073 26.213834
5433 667 2 0.5897 1.937793 94.489918 24.601150
5434 668 1 -1.1794 3.296194 89.057057 25.979355
5435 668 2 0.5897 3.909569 88.490022 26.529121
5436 668 2 0.5897 3.468335 88.889868 25.008575
5437 669 1 -1.1794 8.919979 61.559534 11.218307
5438 669 2 0.5897 8.275315 61.325487 10.490549
5439 669 2 0.5897 9.747759 61.951580 10.816959
5440 670 1 -1.1794 14.376070 96.449373 27.174933
5441 670 2 0.5897 15.071002 96.341751 27.885909
5442 670 2 0.5897 14.564867 97.277357 26.646919
5443 671 1 -1.1794 4.341367 62.822745 33.662690
5444 671 2 0.5897 5.092101 63.464038 33.504128
5445 671 2 0.5897 3.825296 62.697623 32.815332
5446 672 1 -1.1794 2.389430 54.975644 20.342128
5447 672 2 0.5897 2.478467 54.634345 21.277856
5448 672 2 0.5897 1.669769 55.669096 20.307329
5449 673 1 -1.1794 10.431031 73.246157 21.037871
5450 673 2 0.5897 9.541982 73.630651 21.286379
5451 673 2 0.5897 10.425623 72.259928 21.203171
5452 674 1 -1.1794 2.672240 85.096134 31.575400
5453 674 2 0.5897 3.277789 84.644247 32.230463
5454 674 2 0.5897 2.883457 86.073109 31.545276
5455 675 1 -1.1794 14.249937 74.802509 5.843302
5456 675 2 0.5897 14.797115 75.284668 6.527495
5457 675 2 0.5897 13.916872 73.942047 6.228884
5458 676 1 -1.1794 17.513327 60.636598 31.334915
5459 676 2 0.5897 17.655461 61.294801 32.074216
5460 676 2 0.5897 16.876261 61.019300 30.665822
5461 677 1 -1.1794 7.825091 87.163194 31.025159
5462 677 2 0.5897 7.123601 86.914744 30.357188
5463 677 2 0.5897 8.727567 87.103577 30.598566
5464 678 1 -1.1794 4.554531 92.627424 22.348457
5465 678 2 0.5897 3.627274 92.788366 22.686528
5466 678 2 0.5897 5.009039 93.504268 22.191719
5467 679 1 -1.1794 3.807394 51.486105 1.539245
5468 679 2 0.5897 4.232400 51.305097 0.652337
5469 679 2 0.5897 2.848472 51.735776 1.404589
5470 680 1 -1.1794 6.208952 74.612342 -0.003036
5471 680 2 0.5897 5.293510 74.968240 0.184854
5472 680 2 0.5897 6.265862 73.661492 0.301342
5473 681 1 -1.1794 4.948072 90.435194 25.520085
5474 681 2 0.5897 5.495106 90.426541 26.357150
5475 681 2 0.5897 5.512613 90.138393 24.749889
5476 682 1 -1.1794 15.906863 84.503504 10.350525
5477 682 2 0.5897 15.382664 85.148284 9.794222
5478 682 2 0.5897 16.782643 84.315117 9.906093
5479 683 1 -1.1794 20.107542 62.032439 7.705816
5480 683 2 0.5897 20.244092 61.671219 8.628245
5481 683 2 0.5897 20.268141 63.019457 7.707212
5482 684 1 -1.1794 7.110928 62.996293 21.162098
5483 684 2 0.5897 7.816598 62.481828 20.674905
5484 684 2 0.5897 6.258183 62.968435 20.640515
5485 685 1 -1.1794 14.670891 56.994395 9.052540
5486 685 2 0.5897 14.172337 56.337657 8.486731
5487 685 2 0.5897 14.322668 56.959219 9.989291
5488 686 1 -1.1794 19.547655 62.232675 27.537524
5489 686 2 0.5897 18.769145 62.465362 26.954619
5490 686 2 0.5897 19.825257 63.038665 28.060322
5491 687 1 -1.1794 1.602164 70.705846 15.801335
5492 687 2 0.5897 0.945561 70.027736 16.131544
5493 687 2 0.5897 2.046932 71.146436 16.581118
5494 688 1 -1.1794 10.010751 73.571005 18.902930
5495 688 2 0.5897 10.574213 72.919830 18.394519
5496 688 2 0.5897 9.103143 73.179394 19.054220
5497 689 1 -1.1794 9.624472 88.687226 9.828492
5498 689 2 0.5897 9.482618 88.304326 10.741326
5499 689 2 0.5897 9.233387 88.071601 9.144345
5500 690 1 -1.1794 20.066613 97.372780 17.297349
5501 690 2 0.5897 21.015645 97.413431 17.609895
5502 690 2 0.5897 19.737877 98.298176 17.108735
5503 691 1 -1.1794 13.721819 64.060954 4.176188
5504 691 2 0.5897 14.134490 63.272642 4.632551
5505 691 2 0.5897 12.725481 63.988299 4.221266
5506 692 1 -1.1794 8.097449 71.672447 13.384709
5507 692 2 0.5897 8.815074 71.658523 14.080999
5508 692 2 0.5897 7.228194 71.398798 13.796427
5509 693 1 -1.1794 9.119233 62.959424 2.154080
5510 693 2 0.5897 8.902469 63.933739 2.093062
5511 693 2 0.5897 9.718584 62.799792 2.938488
5512 694 1 -1.1794 0.709733 84.234514 32.130964
5513 694 2 0.5897 0.426574 84.942676 32.777746
5514 694 2 0.5897 1.361237 83.619129 32.574635
5515 695 1 -1.1794 5.357003 98.423755 10.622797
5516 695 2 0.5897 6.168617 98.550260 11.193129
5517 695 2 0.5897 4.535699 98.551115 11.178889
5518 696 1 -1.1794 16.800441 88.547715 28.275787
5519 696 2 0.5897 16.346510 88.505218 29.165809
5520 696 2 0.5897 17.121956 89.479954 28.109780
5521 697 1 -1.1794 3.370843 80.594082 31.987246
5522 697 2 0.5897 2.945626 81.241443 31.354700
5523 697 2 0.5897 3.785398 79.845657 31.469554
5524 698 1 -1.1794 4.517306 82.120123 33.080396
5525 698 2 0.5897 4.941008 81.425664 33.661948
5526 698 2 0.5897 4.088729 82.818566 33.653545
5527 699 1 -1.1794 8.235240 92.086277 -0.001241
5528 699 2 0.5897 7.415742 92.230498 0.553398
5529 699 2 0.5897 9.021400 91.936445 0.598344
5530 700 1 -1.1794 3.985136 57.836020 29.429175
5531 700 2 0.5897 4.264497 57.875552 28.469803
5532 700 2 0.5897 4.150049 58.722694 29.861161
5533 701 1 -1.1794 10.704415 82.053921 0.576991
5534 701 2 0.5897 11.513938 81.947055 -0.000289
5535 701 2 0.5897 9.894998 82.160738 -0.000447
5536 702 1 -1.1794 8.403492 82.376644 8.490151
5537 702 2 0.5897 9.215437 82.009972 8.944350
5538 702 2 0.5897 7.657063 81.714452 8.556068
5539 703 1 -1.1794 8.372047 75.470745 16.535636
5540 703 2 0.5897 8.059420 74.530191 16.668382
5541 703 2 0.5897 8.799648 75.555982 15.635696
5542 704 1 -1.1794 15.169222 79.872957 28.669869
5543 704 2 0.5897 15.429676 80.209013 27.764755
5544 704 2 0.5897 14.450938 79.183637 28.575497
5545 705 1 -1.1794 7.659725 77.990360 9.925410
5546 705 2 0.5897 8.574102 77.732115 10.237220
5547 705 2 0.5897 7.640331 78.005318 8.925710
5548 706 1 -1.1794 9.792288 77.133244 12.032902
5549 706 2 0.5897 10.187832 76.365040 12.536297
5550 706 2 0.5897 9.006668 77.492637 12.536526
5551 707 1 -1.1794 1.961659 75.559077 -0.002763
5552 707 2 0.5897 1.892816 76.138040 0.809679
5553 707 2 0.5897 2.055088 74.603277 0.276014
5554 708 1 -1.1794 18.825561 95.871590 19.178288
5555 708 2 0.5897 18.071833 96.097925 18.561307
5556 708 2 0.5897 18.624304 95.012740 19.649321
5557 709 1 -1.1794 19.838081 89.482683 0.100309
5558 709 2 0.5897 19.999240 90.394754 0.477344
5559 709 2 0.5897 20.710610 89.004531 0.000000
5560 710 1 -1.1794 3.542848 71.957945 3.874457
5561 710 2 0.5897 4.254136 72.540710 4.267463
5562 710 2 0.5897 2.832577 72.529765 3.463923
5563 711 1 -1.1794 7.238071 91.176814 30.653079
5564 711 2 0.5897 7.887941 91.851770 30.303644
5565 711 2 0.5897 6.413477 91.184071 30.087401
5566 712 1 -1.1794 8.128681 71.623596 10.696439
5567 712 2 0.5897 7.345259 71.623229 11.317928
5568 712 2 0.5897 8.975448 71.653876 11.227540
5569 713 1 -1.1794 21.190034 77.864438 21.583052
5570 713 2 0.5897 21.241122 78.302094 20.685362
5571 713 2 0.5897 21.198486 76.870837 21.470419
5572 714 1 -1.1794 7.378163 91.249868 9.812229
5573 714 2 0.5897 7.076113 91.163880 8.862823
5574 714 2 0.5897 8.371636 91.144846 9.856747
5575 715 1 -1.1794 17.216135 76.932983 10.738956
5576 715 2 0.5897 16.403899 77.508525 10.643957
5577 715 2 0.5897 17.547267 76.671517 9.832321
5578 716 1 -1.1794 1.104795 65.796443 12.113352
5579 716 2 0.5897 2.062295 65.642882 12.357510
5580 716 2 0.5897 0.906138 65.345104 11.243393
5581 717 1 -1.1794 19.261940 89.800045 2.869487
5582 717 2 0.5897 18.613764 89.824235 2.108381
5583 717 2 0.5897 18.760317 89.798743 3.734573
5584 718 1 -1.1794 21.761104 51.586659 7.346462
5585 718 2 0.5897 21.774364 52.320161 8.026019
5586 718 2 0.5897 21.774995 51.982628 6.428303
5587 719 1 -1.1794 20.671957 50.734779 33.662501
5588 719 2 0.5897 19.739342 50.408860 33.507560
5589 719 2 0.5897 21.148708 50.809621 32.786654
5590 720 1 -1.1794 10.060244 88.058285 17.494685
5591 720 2 0.5897 10.871519 88.150033 18.072107
5592 720 2 0.5897 9.445861 88.830207 17.657995
5593 721 1 -1.1794 0.929433 92.318797 30.194550
5594 721 2 0.5897 0.944314 91.350677 30.444591
5595 721 2 0.5897 1.372703 92.855358 30.912613
5596 722 1 -1.1794 15.648922 83.752743 0.515556
5597 722 2 0.5897 14.949335 83.257990 0.000001
5598 722 2 0.5897 15.270891 84.045908 1.393706
5599 723 1 -1.1794 21.139550 94.438076 25.826417
5600 723 2 0.5897 20.772204 93.735638 26.436038
5601 723 2 0.5897 21.342651 95.263494 26.353139
5602 724 1 -1.1794 15.349655 67.928063 15.090687
5603 724 2 0.5897 14.910121 68.762751 15.422509
5604 724 2 0.5897 16.054715 67.642043 15.739596
5605 725 1 -1.1794 14.750837 61.517021 20.556770
5606 725 2 0.5897 15.279849 61.725586 21.379356
5607 725 2 0.5897 15.149487 60.723905 20.096286
5608 726 1 -1.1794 10.369183 78.481640 5.264290
5609 726 2 0.5897 10.399760 77.927901 4.432162
5610 726 2 0.5897 9.885602 77.979495 5.981228
5611 727 1 -1.1794 5.919708 54.115679 29.298436
5612 727 2 0.5897 5.822893 53.188803 29.661104
5613 727 2 0.5897 5.191029 54.694580 29.664361
5614 728 1 -1.1794 15.209349 79.488367 14.992278
5615 728 2 0.5897 14.487422 79.326782 15.665118
5616 728 2 0.5897 16.102070 79.411464 15.436277
5617 729 1 -1.1794 5.616670 74.263711 29.978424
5618 729 2 0.5897 6.432615 74.724593 30.327452
5619 729 2 0.5897 5.066869 73.932992 30.745460
5620 730 1 -1.1794 15.278844 68.527948 23.149968
5621 730 2 0.5897 15.481375 68.452982 24.126370
5622 730 2 0.5897 14.371252 68.929603 23.027696
5623 731 1 -1.1794 11.435806 77.576022 -0.000012
5624 731 2 0.5897 11.154266 77.873699 0.912196
5625 731 2 0.5897 11.575576 76.585839 0.000856
5626 732 1 -1.1794 0.476097 68.751095 30.188892
5627 732 2 0.5897 0.017783 67.974685 30.621485
5628 732 2 0.5897 -0.000467 69.596364 30.430567
5629 733 1 -1.1794 9.090399 94.700404 19.411050
5630 733 2 0.5897 8.801359 93.841622 19.834075
5631 733 2 0.5897 9.130992 95.417568 20.106771
5632 734 1 -1.1794 14.852956 86.351952 29.702077
5633 734 2 0.5897 15.018585 87.151006 30.280072
5634 734 2 0.5897 14.685264 85.552407 30.278798
5635 735 1 -1.1794 5.603588 73.523232 25.915586
5636 735 2 0.5897 6.528570 73.203145 25.710762
5637 735 2 0.5897 5.206288 73.939714 25.097848
5638 736 1 -1.1794 0.825261 93.677710 10.387882
5639 736 2 0.5897 0.270994 93.588259 11.215400
5640 736 2 0.5897 1.582990 94.306996 10.560642
5641 737 1 -1.1794 18.299266 64.902434 32.452488
5642 737 2 0.5897 17.834531 65.336430 31.680692
5643 737 2 0.5897 18.400420 63.923857 32.273173
5644 738 1 -1.1794 13.282525 80.748534 27.393042
5645 738 2 0.5897 13.480586 79.990074 26.772147
5646 738 2 0.5897 13.190447 81.594247 26.867408
5647 739 1 -1.1794 4.460505 94.540277 32.610319
5648 739 2 0.5897 5.161614 94.093252 33.165850
5649 739 2 0.5897 4.347968 95.486466 32.913735
5650 740 1 -1.1794 2.533565 51.385045 21.640128
5651 740 2 0.5897 2.280248 50.739927 20.919258
5652 740 2 0.5897 2.647167 52.297182 21.246298
5653 741 1 -1.1794 0.978622 80.657220 14.012912
5654 741 2 0.5897 1.079427 81.648818 13.931840
5655 741 2 0.5897 0.997814 80.244671 13.102179
5656 742 1 -1.1794 15.608656 58.980450 9.186006
5657 742 2 0.5897 15.208099 59.555045 9.899724
5658 742 2 0.5897 16.566903 58.796476 9.404901
5659 743 1 -1.1794 15.027357 93.823730 16.527412
5660 743 2 0.5897 14.309208 93.153147 16.713368
5661 743 2 0.5897 15.736592 93.755820 17.229107
5662 744 1 -1.1794 13.873887 97.326938 29.991424
5663 744 2 0.5897 13.330311 96.598834 29.573824
5664 744 2 0.5897 13.468332 98.213998 29.770856
5665 745 1 -1.1794 12.517243 71.840113 19.993893
5666 745 2 0.5897 12.557542 72.519749 20.726335
5667 745 2 0.5897 12.326769 70.939634 20.384861
5668 746 1 -1.1794 16.487547 76.194960 1.166665
5669 746 2 0.5897 16.668160 75.294673 0.770606
5670 746 2 0.5897 15.513122 76.404927 1.086599
5671 747 1 -1.1794 5.039010 49.655561 28.864843
5672 747 2 0.5897 5.636844 50.165606 28.246418
5673 747 2 0.5897 4.324080 49.198495 28.335724
5674 748 1 -1.1794 -0.000461 59.842557 4.526312
5675 748 2 0.5897 0.320668 58.954028 4.854021
5676 748 2 0.5897 0.165941 59.915133 3.542929
5677 749 1 -1.1794 12.917638 88.504622 18.902746
5678 749 2 0.5897 12.985151 88.605654 19.895336
5679 749 2 0.5897 12.647244 89.377460 18.496493
5680 750 1 -1.1794 19.856752 50.095599 11.585691
5681 750 2 0.5897 19.982648 49.893830 10.614383
5682 750 2 0.5897 20.420633 50.881768 11.838627
5683 751 1 -1.1794 8.158637 48.680850 26.744554
5684 751 2 0.5897 7.651065 48.549983 27.596167
5685 751 2 0.5897 9.135256 48.550017 26.915135
5686 752 1 -1.1794 0.367634 87.266170 12.366202
5687 752 2 0.5897 0.615303 86.460697 11.827803
5688 752 2 0.5897 -0.000231 87.971728 11.760509
5689 753 1 -1.1794 20.513151 92.338307 22.256413
5690 753 2 0.5897 19.880600 92.472735 21.493649
5691 753 2 0.5897 20.663495 91.359610 22.396231
5692 754 1 -1.1794 3.078744 81.768954 9.041312
5693 754 2 0.5897 3.706649 82.386599 9.514863
5694 754 2 0.5897 2.303777 81.559870 9.637725
5695 755 1 -1.1794 2.031283 84.315649 14.748410
5696 755 2 0.5897 2.387545 83.497848 14.296439
5697 755 2 0.5897 1.153020 84.103721 15.177059
5698 756 1 -1.1794 9.531050 88.445805 19.851522
5699 756 2 0.5897 10.392428 88.145188 20.260981
5700 756 2 0.5897 8.825088 88.494159 20.558120
5701 757 1 -1.1794 18.531624 71.500575 29.644369
5702 757 2 0.5897 17.641081 71.849217 29.352167
5703 757 2 0.5897 18.806834 70.747087 29.047279
5704 758 1 -1.1794 12.448124 70.006978 13.303425
5705 758 2 0.5897 12.881318 69.295378 13.856569
5706 758 2 0.5897 12.427576 70.863603 13.818955
5707 759 1 -1.1794 3.465061 77.106446 15.074650
5708 759 2 0.5897 3.938586 76.247229 15.268351
5709 759 2 0.5897 3.867532 77.839723 15.622666
5710 760 1 -1.1794 11.706385 53.521247 25.121070
5711 760 2 0.5897 11.874959 53.518721 24.135384
5712 760 2 0.5897 10.855687 54.010812 25.312481
5713 761 1 -1.1794 10.102399 67.708025 8.145248
5714 761 2 0.5897 10.247518 66.833426 7.682627
5715 761 2 0.5897 10.281940 68.456562 7.506924
5716 762 1 -1.1794 9.777859 49.109954 30.988783
5717 762 2 0.5897 9.123591 49.643432 31.524819
5718 762 2 0.5897 10.333489 48.549507 31.602928
5719 763 1 -1.1794 12.189534 65.727096 1.597131
5720 763 2 0.5897 11.655726 66.553374 1.417376
5721 763 2 0.5897 12.869489 65.917054 2.305352
5722 764 1 -1.1794 11.072669 51.599534 19.979999
5723 764 2 0.5897 10.447648 51.277785 19.268784
5724 764 2 0.5897 11.870680 52.026154 19.554355
5725 765 1 -1.1794 20.139311 83.723067 2.083999
5726 765 2 0.5897 20.226191 84.537525 1.510318
5727 765 2 0.5897 20.059732 82.913067 1.502993
5728 766 1 -1.1794 11.077475 63.348985 -0.015510
5729 766 2 0.5897 11.777704 63.915177 0.419354
5730 766 2 0.5897 10.707059 62.704585 0.653475
5731 767 1 -1.1794 14.885627 53.685266 28.231876
5732 767 2 0.5897 14.082444 53.842057 27.657147
5733 767 2 0.5897 15.711313 53.726888 27.669283
5734 768 1 -1.1794 21.349024 80.322049 23.666259
5735 768 2 0.5897 20.663717 79.672680 23.336601
5736 768 2 0.5897 21.775000 80.781462 22.886847
5737 769 1 -1.1794 8.601318 79.613861 26.549716
5738 769 2 0.5897 7.819347 80.064520 26.980330
5739 769 2 0.5897 9.078571 79.054646 27.227586
5740 770 1 -1.1794 11.889799 50.395296 7.061152
5741 770 2 0.5897 11.770190 51.330552 6.727998
5742 770 2 0.5897 12.186941 49.808572 6.307852
5743 771 1 -1.1794 14.048847 89.546249 14.271452
5744 771 2 0.5897 14.141993 88.609239 13.934798
5745 771 2 0.5897 13.146382 89.663315 14.686004
5746 772 1 -1.1794 13.007427 90.893170 20.365731
5747 772 2 0.5897 12.348501 90.425472 20.954862
5748 772 2 0.5897 12.598080 91.732775 20.008661
5749 773 1 -1.1794 -0.000102 95.794886 0.942456
5750 773 2 0.5897 0.141848 95.182439 0.164792
5751 773 2 0.5897 0.516985 96.638994 0.800675
5752 774 1 -1.1794 8.922675 80.345786 21.323460
5753 774 2 0.5897 8.453791 80.000405 22.136393
5754 774 2 0.5897 8.721927 81.318967 21.211124
5755 775 1 -1.1794 2.479943 85.375604 8.083842
5756 775 2 0.5897 1.525582 85.211140 8.333135
5757 775 2 0.5897 2.999822 85.624262 8.901091
5758 776 1 -1.1794 18.528607 64.176998 20.306857
5759 776 2 0.5897 18.397579 63.350841 19.758864
5760 776 2 0.5897 18.560937 64.974727 19.704709
5761 777 1 -1.1794 19.782864 98.091971 14.349045
5762 777 2 0.5897 19.067724 97.582774 14.827890
5763 777 2 0.5897 20.369818 98.550014 15.016640
5764 778 1 -1.1794 7.545272 94.088953 7.747532
5765 778 2 0.5897 7.186238 93.219591 8.087098
5766 778 2 0.5897 6.957619 94.428117 7.012936
5767 779 1 -1.1794 0.152877 69.145049 28.048722
5768 779 2 0.5897 0.041631 69.498039 27.119732
5769 779 2 0.5897 0.387352 68.173685 28.010344
5770 780 1 -1.1794 12.578634 76.949419 4.642389
5771 780 2 0.5897 12.578569 77.945550 4.730264
5772 780 2 0.5897 11.938747 76.556509 5.302818
5773 781 1 -1.1794 21.771743 68.734713 3.316635
5774 781 2 0.5897 21.622568 69.623624 2.883525
5775 781 2 0.5897 21.781126 68.020379 2.616893
5776 782 1 -1.1794 11.102135 80.350304 6.377108
5777 782 2 0.5897 11.775492 80.366183 5.637961
5778 782 2 0.5897 10.194529 80.545505 6.005423
5779 783 1 -1.1794 13.439394 53.997060 21.230235
5780 783 2 0.5897 14.229775 54.184321 20.646941
5781 783 2 0.5897 12.645981 53.786732 20.659045
5782 784 1 -1.1794 10.511462 50.046745 4.724160
5783 784 2 0.5897 10.510864 51.020694 4.950927
5784 784 2 0.5897 11.121986 49.885429 3.948765
5785 785 1 -1.1794 4.947221 89.002189 14.802153
5786 785 2 0.5897 5.919046 88.805069 14.672923
5787 785 2 0.5897 4.775716 89.969621 14.615979
5788 786 1 -1.1794 17.736553 60.392707 21.444588
5789 786 2 0.5897 18.414905 60.844835 20.865434
5790 786 2 0.5897 17.054712 59.941238 20.869030
5791 787 1 -1.1794 16.382870 93.016921 27.378955
5792 787 2 0.5897 15.589815 93.625633 27.355844
5793 787 2 0.5897 16.132570 92.128628 26.993876
5794 788 1 -1.1794 5.930821 96.416108 29.276288
5795 788 2 0.5897 5.338146 95.622134 29.411716
5796 788 2 0.5897 6.857303 96.196447 29.581871
5797 789 1 -1.1794 13.068984 48.555788 16.702269
5798 789 2 0.5897 13.395859 48.517696 17.646569
5799 789 2 0.5897 13.157793 49.489795 16.356230
5800 790 1 -1.1794 17.265800 52.070027 2.235446
5801 790 2 0.5897 17.822633 52.753285 1.763115
5802 790 2 0.5897 16.878842 51.435223 1.566650
5803 791 1 -1.1794 5.081506 92.574253 14.238372
5804 791 2 0.5897 5.399031 93.452536 13.880887
5805 791 2 0.5897 5.025011 92.621102 15.235675
5806 792 1 -1.1794 8.649819 62.412923 18.590951
5807 792 2 0.5897 9.396446 62.466336 17.927857
5808 792 2 0.5897 8.437792 61.453650 18.777607
5809 793 1 -1.1794 15.802059 55.581675 26.173769
5810 793 2 0.5897 15.308179 55.838021 25.342884
5811 793 2 0.5897 15.225200 55.756384 26.971710
5812 794 1 -1.1794 18.212213 57.888618 21.435644
5813 794 2 0.5897 18.433278 58.259817 20.533789
5814 794 2 0.5897 17.219111 57.855100 21.548003
5815 795 1 -1.1794 0.516103 71.666473 19.009288
5816 795 2 0.5897 0.935144 72.468327 18.583336
5817 795 2 0.5897 0.035512 71.132444 18.313699
5818 796 1 -1.1794 3.862358 67.639538 11.294585
5819 796 2 0.5897 4.081732 68.526420 11.701174
5820 796 2 0.5897 2.886446 67.453139 11.407943
5821 797 1 -1.1794 6.248991 88.190311 25.851841
5822 797 2 0.5897 5.556253 87.905198 25.189403
5823 797 2 0.5897 7.008039 88.630207 25.371905
5824 798 1 -1.1794 11.987319 69.839635 29.974686
5825 798 2 0.5897 11.475027 69.017269 29.727153
5826 798 2 0.5897 11.524374 70.306549 30.728126
5827 799 1 -1.1794 12.930023 90.969933 17.005021
5828 799 2 0.5897 13.593547 91.120325 16.272138
5829 799 2 0.5897 13.139992 91.573922 17.773858
5830 800 1 -1.1794 19.113563 61.928197 30.553426
5831 800 2 0.5897 18.668037 62.089817 29.672866
5832 800 2 0.5897 20.005281 62.380669 30.563827
5833 801 1 -1.1794 2.940773 91.870747 24.729780
5834 801 2 0.5897 2.383822 91.342063 25.370325
5835 801 2 0.5897 3.735469 92.243994 25.208472
5836 802 1 -1.1794 3.376719 98.214731 23.055103
5837 802 2 0.5897 4.358342 98.381756 22.962802
5838 802 2 0.5897 2.905133 98.537131 22.234332
5839 803 1 -1.1794 21.102238 68.407346 22.277579
5840 803 2 0.5897 20.615915 67.543205 22.148156
5841 803 2 0.5897 21.774999 68.523871 21.546954
5842 804 1 -1.1794 8.653107 92.546735 12.585159
5843 804 2 0.5897 8.942894 92.234534 11.680419
5844 804 2 0.5897 8.500244 93.534749 12.563668
5845 805 1 -1.1794 13.782323 77.428305 9.383952
5846 805 2 0.5897 14.506010 76.844207 9.751520
5847 805 2 0.5897 13.192350 77.737388 10.129874
5848 806 1 -1.1794 16.115572 95.040061 7.999065
5849 806 2 0.5897 16.451238 94.398476 7.309358
5850 806 2 0.5897 15.786736 95.870658 7.549650
5851 807 1 -1.1794 4.518375 72.136657 24.041599
5852 807 2 0.5897 4.442492 71.150519 24.189154
5853 807 2 0.5897 4.720403 72.315017 23.078598
5854 808 1 -1.1794 3.684417 48.771162 26.148396
5855 808 2 0.5897 3.798029 48.550060 25.179785
5856 808 2 0.5897 3.004224 49.497544 26.246919
5857 809 1 -1.1794 12.382242 55.168248 14.867182
5858 809 2 0.5897 13.088863 54.753371 14.293977
5859 809 2 0.5897 11.683582 55.585081 14.285697
5860 810 1 -1.1794 6.960824 72.512677 8.642820
5861 810 2 0.5897 7.581502 73.100921 9.161209
5862 810 2 0.5897 6.476598 71.903512 9.270867
5863 811 1 -1.1794 8.266713 68.813470 -0.000427
5864 811 2 0.5897 8.352582 67.927181 0.454676
5865 811 2 0.5897 7.761895 69.443598 0.589571
5866 812 1 -1.1794 20.097591 60.048258 5.524149
5867 812 2 0.5897 19.112775 59.982333 5.363557
5868 812 2 0.5897 20.582733 59.483774 4.856320
5869 813 1 -1.1794 10.429097 53.574594 20.703463
5870 813 2 0.5897 10.384314 54.124782 19.869623
5871 813 2 0.5897 9.599533 53.021884 20.783058
5872 814 1 -1.1794 21.775095 63.430960 10.086614
5873 814 2 0.5897 21.772931 62.433574 10.014397
5874 814 2 0.5897 20.956198 63.798823 9.646064
5875 815 1 -1.1794 21.770499 90.600506 29.782516
5876 815 2 0.5897 20.946095 90.673943 30.343734
5877 815 2 0.5897 21.775322 91.331408 29.100051
5878 816 1 -1.1794 7.439844 91.407892 15.169276
5879 816 2 0.5897 7.036227 90.698337 14.591672
5880 816 2 0.5897 8.065394 91.965777 14.623886
5881 817 1 -1.1794 9.824811 64.031448 28.351334
5882 817 2 0.5897 9.388754 64.646773 27.694654
5883 817 2 0.5897 10.444526 63.413111 27.868000
5884 818 1 -1.1794 3.334172 96.333485 24.598676
5885 818 2 0.5897 2.480389 96.822268 24.777967
5886 818 2 0.5897 3.558138 95.755053 25.383059
5887 819 1 -1.1794 10.250332 98.050998 12.917416
5888 819 2 0.5897 11.037121 98.550000 12.554152
5889 819 2 0.5897 9.406164 98.486945 12.605437
5890 820 1 -1.1794 7.094882 96.657356 12.368388
5891 820 2 0.5897 6.377922 96.422621 11.711983
5892 820 2 0.5897 7.862883 97.079181 11.886475
5893 821 1 -1.1794 15.602921 60.109089 5.394488
5894 821 2 0.5897 16.088756 60.358272 6.232266
5895 821 2 0.5897 15.044984 60.881294 5.090508
5896 822 1 -1.1794 13.553883 98.535446 23.050253
5897 822 2 0.5897 12.634639 98.582740 22.659415
5898 822 2 0.5897 13.511086 98.104408 23.951571
5899 823 1 -1.1794 18.698324 76.724489 18.435899
5900 823 2 0.5897 17.700813 76.790373 18.410754
5901 823 2 0.5897 19.094123 77.641856 18.393695
5902 824 1 -1.1794 2.362136 95.843365 4.962421
5903 824 2 0.5897 1.563553 95.245864 4.889908
5904 824 2 0.5897 2.061965 96.781353 5.135848
5905 825 1 -1.1794 6.286008 56.916719 28.136373
5906 825 2 0.5897 6.377913 55.920990 28.127529
5907 825 2 0.5897 6.629981 57.290859 27.275152
5908 826 1 -1.1794 21.103880 84.562417 7.408270
5909 826 2 0.5897 20.178445 84.189368 7.474640
5910 826 2 0.5897 21.247648 85.229329 8.139406
5911 827 1 -1.1794 12.829432 63.953820 13.363030
5912 827 2 0.5897 12.748946 63.889069 12.368379
5913 827 2 0.5897 12.936414 63.037585 13.749124
5914 828 1 -1.1794 11.691409 87.615094 8.477355
5915 828 2 0.5897 10.911764 87.381279 7.896420
5916 828 2 0.5897 12.478525 87.841535 7.903619
5917 829 1 -1.1794 6.189400 60.883566 19.566051
5918 829 2 0.5897 5.959981 61.619154 18.928652
5919 829 2 0.5897 6.061167 60.000060 19.115526
5920 830 1 -1.1794 0.622603 97.677825 25.587593
5921 830 2 0.5897 -0.004514 97.353191 26.295645
5922 830 2 0.5897 1.052957 98.528947 25.888237
5923 831 1 -1.1794 2.903438 62.246740 24.496571
5924 831 2 0.5897 3.766632 62.057517 24.028499
5925 831 2 0.5897 2.277800 61.477664 24.365808
5926 832 1 -1.1794 10.897319 65.960957 12.207211
5927 832 2 0.5897 10.453715 66.829300 11.985411
5928 832 2 0.5897 11.660729 65.806882 11.579942
5929 833 1 -1.1794 8.443136 49.950924 29.455474
5930 833 2 0.5897 9.144573 49.513027 28.893129
5931 833 2 0.5897 7.740631 50.346525 28.863876
5932 834 1 -1.1794 9.113603 92.787949 6.537361
5933 834 2 0.5897 9.883138 92.463913 5.987074
5934 834 2 0.5897 8.420095 93.187594 5.937920
5935 835 1 -1.1794 3.205024 85.920213 24.503958
5936 835 2 0.5897 3.771747 86.726118 24.675257
5937 835 2 0.5897 2.242681 86.190160 24.471949
5938 836 1 -1.1794 11.488229 64.127096 19.403398
5939 836 2 0.5897 12.402542 64.050911 19.005620
5940 836 2 0.5897 10.801998 64.031241 18.682358
5941 837 1 -1.1794 -0.000532 75.658829 32.635265
5942 837 2 0.5897 0.204514 76.588227 32.942146
5943 837 2 0.5897 0.030215 75.035432 33.416565
5944 838 1 -1.1794 19.825441 53.301341 7.282137
5945 838 2 0.5897 20.601477 53.825373 6.931196
5946 838 2 0.5897 19.656368 52.516448 6.686019
5947 839 1 -1.1794 4.420367 98.067848 2.939977
5948 839 2 0.5897 4.128677 97.302030 3.513074
5949 839 2 0.5897 5.216449 98.509503 3.353734
5950 840 1 -1.1794 8.941753 91.507707 26.772221
5951 840 2 0.5897 8.591157 92.405797 27.037772
5952 840 2 0.5897 9.912695 91.447148 27.003747
5953 841 1 -1.1794 1.731623 88.494175 27.419994
5954 841 2 0.5897 2.145256 89.016004 28.166051
5955 841 2 0.5897 1.983283 87.530355 27.507844
5956 842 1 -1.1794 9.934977 68.991343 16.619366
5957 842 2 0.5897 9.863278 68.115440 17.096496
5958 842 2 0.5897 10.412424 69.649747 17.201215
5959 843 1 -1.1794 10.469535 65.342163 9.788860
5960 843 2 0.5897 9.914035 66.172955 9.754170
5961 843 2 0.5897 11.142135 65.359800 9.049064
5962 844 1 -1.1794 15.522293 86.555466 14.546815
5963 844 2 0.5897 16.184403 87.221556 14.203399
5964 844 2 0.5897 14.750782 86.495416 13.913439
5965 845 1 -1.1794 15.621920 53.213970 12.100191
5966 845 2 0.5897 15.304932 53.582219 12.974211
5967 845 2 0.5897 16.488605 53.646167 11.851066
5968 846 1 -1.1794 8.039613 75.822171 11.282275
5969 846 2 0.5897 8.012341 75.393164 10.379385
5970 846 2 0.5897 7.206927 76.358000 11.421991
5971 847 1 -1.1794 10.076107 88.951606 27.424813
5972 847 2 0.5897 10.895947 89.493210 27.238997
5973 847 2 0.5897 9.974133 88.248953 26.720625
5974 848 1 -1.1794 19.408876 86.949796 14.768785
5975 848 2 0.5897 19.356773 86.006205 15.095775
5976 848 2 0.5897 20.251490 87.372243 15.102762
5977 849 1 -1.1794 17.652905 69.621195 17.296443
5978 849 2 0.5897 17.566372 69.063169 16.471144
5979 849 2 0.5897 18.527082 70.106540 17.280489
5980 850 1 -1.1794 21.653485 79.684407 28.029015
5981 850 2 0.5897 21.380958 78.978394 28.682677
5982 850 2 0.5897 21.775161 80.553479 28.508503
5983 851 1 -1.1794 2.588239 69.535437 7.139326
5984 851 2 0.5897 2.862730 70.376792 7.604920
5985 851 2 0.5897 2.691457 68.760521 7.762904
5986 852 1 -1.1794 13.898401 95.051570 11.314787
5987 852 2 0.5897 13.992481 96.016778 11.558760
5988 852 2 0.5897 13.312403 94.594272 11.983730
5989 853 1 -1.1794 15.164545 72.405637 27.960223
5990 853 2 0.5897 14.765307 72.108225 28.827492
5991 853 2 0.5897 15.733258 73.213528 28.114749
5992 854 1 -1.1794 6.072568 79.244367 20.330672
5993 854 2 0.5897 6.732801 78.690754 19.823124
5994 854 2 0.5897 5.153682 78.873208 20.196916
5995 855 1 -1.1794 2.788826 69.907750 10.578693
5996 855 2 0.5897 2.318791 69.979056 9.698930
5997 855 2 0.5897 2.144520 69.594617 11.276416
5998 856 1 -1.1794 15.140428 83.388579 13.248428
5999 856 2 0.5897 15.983925 83.597465 13.743282
6000 856 2 0.5897 15.196459 83.761121 12.322106
6001 857 1 -1.1794 14.964609 83.392658 31.195224
6002 857 2 0.5897 15.762107 83.507510 30.602935
6003 857 2 0.5897 14.198580 83.039566 30.658077
6004 858 1 -1.1794 13.430526 86.587583 9.440106
6005 858 2 0.5897 13.171413 87.313924 10.076730
6006 858 2 0.5897 13.253338 85.697466 9.859983
6007 859 1 -1.1794 11.691125 96.452529 31.635085
6008 859 2 0.5897 11.631814 97.102969 30.877846
6009 859 2 0.5897 11.934146 95.549589 31.280627
6010 860 1 -1.1794 15.232867 71.857037 0.593744
6011 860 2 0.5897 15.785036 72.442351 0.000013
6012 860 2 0.5897 14.637386 71.281146 0.033608
6013 861 1 -1.1794 0.083043 75.517903 13.429806
6014 861 2 0.5897 0.195413 76.285230 12.798473
6015 861 2 0.5897 0.755910 74.809539 13.216568
6016 862 1 -1.1794 18.556721 48.636586 26.298646
6017 862 2 0.5897 17.678662 48.650228 26.777003
6018 862 2 0.5897 18.555634 49.331993 25.580031
6019 863 1 -1.1794 11.132492 78.266174 9.566666
6020 863 2 0.5897 11.022547 78.219177 10.559492
6021 863 2 0.5897 10.472659 77.655406 9.128964
6022 864 1 -1.1794 5.692401 76.434656 8.621698
6023 864 2 0.5897 6.276471 76.354498 9.429433
6024 864 2 0.5897 5.600221 77.398412 8.371342
6025 865 1 -1.1794 15.370737 97.767725 4.945024
6026 865 2 0.5897 15.612232 96.931386 4.452869
6027 865 2 0.5897 15.439398 98.550246 4.326197
6028 866 1 -1.1794 12.479130 81.693459 17.328254
6029 866 2 0.5897 12.730512 80.801059 17.702992
6030 866 2 0.5897 11.852977 81.567468 16.558800
6031 867 1 -1.1794 4.379798 95.701012 19.146511
6032 867 2 0.5897 5.123923 95.741312 18.479687
6033 867 2 0.5897 4.697652 95.236343 19.972981
6034 868 1 -1.1794 7.070561 58.357200 30.820221
6035 868 2 0.5897 7.993657 58.615456 30.535269
6036 868 2 0.5897 6.570894 57.987968 30.036639
6037 869 1 -1.1794 4.556059 83.803283 14.036959
6038 869 2 0.5897 5.041186 84.660883 13.866156
6039 869 2 0.5897 4.485094 83.651104 15.022761
6040 870 1 -1.1794 11.722557 49.885841 12.021344
6041 870 2 0.5897 12.229492 49.024264 12.047824
6042 870 2 0.5897 12.069652 50.498746 12.731184
6043 871 1 -1.1794 4.488296 53.607919 0.653588
6044 871 2 0.5897 3.647633 53.369773 0.167200
6045 871 2 0.5897 5.169507 53.937726 -0.000001
6046 872 1 -1.1794 5.873168 51.442490 17.894088
6047 872 2 0.5897 5.053979 51.523103 17.326258
6048 872 2 0.5897 5.682155 50.843320 18.671589
6049 873 1 -1.1794 11.214854 50.443112 32.293449
6050 873 2 0.5897 12.208896 50.509699 32.207154
6051 873 2 0.5897 10.975584 50.239803 33.242878
6052 874 1 -1.1794 17.913133 56.524170 27.503576
6053 874 2 0.5897 16.989371 56.805372 27.763555
6054 874 2 0.5897 17.893987 56.122402 26.588034
6055 875 1 -1.1794 20.614076 66.361041 0.028158
6056 875 2 0.5897 19.673144 66.022633 0.039431
6057 875 2 0.5897 21.246412 65.586858 0.000001
6058 876 1 -1.1794 17.978257 98.227496 30.323380
6059 876 2 0.5897 18.393018 98.549858 29.472466
6060 876 2 0.5897 17.226854 97.602416 30.112028
6061 877 1 -1.1794 8.542314 72.738398 33.176886
6062 877 2 0.5897 9.192271 72.062521 33.524373
6063 877 2 0.5897 7.673153 72.645445 33.662601
6064 878 1 -1.1794 5.379767 66.673367 27.357220
6065 878 2 0.5897 5.450287 66.288568 26.436917
6066 878 2 0.5897 4.570429 66.302325 27.812522
6067 879 1 -1.1794 3.069266 63.934997 19.077465
6068 879 2 0.5897 2.416108 64.406573 18.485012
6069 879 2 0.5897 3.816037 63.566733 18.523648
6070 880 1 -1.1794 2.472837 90.782014 14.977436
6071 880 2 0.5897 2.801501 91.671785 14.660751
6072 880 2 0.5897 2.609017 90.101019 14.257922
6073 881 1 -1.1794 7.158081 55.472074 0.013580
6074 881 2 0.5897 6.236986 55.861176 -0.000010
6075 881 2 0.5897 7.554140 55.584844 0.924854
6076 882 1 -1.1794 18.251613 95.476728 2.942792
6077 882 2 0.5897 17.710894 94.689975 2.645061
6078 882 2 0.5897 18.615246 95.953354 2.142418
6079 883 1 -1.1794 3.525453 80.372894 28.358656
6080 883 2 0.5897 4.341877 80.259947 27.792357
6081 883 2 0.5897 3.787705 80.381429 29.323618
6082 884 1 -1.1794 0.573435 58.695657 14.844056
6083 884 2 0.5897 0.000133 59.508104 14.950147
6084 884 2 0.5897 -0.000612 57.910799 14.610673
6085 885 1 -1.1794 3.867450 57.003426 2.901370
6086 885 2 0.5897 3.906557 57.752009 2.239482
6087 885 2 0.5897 4.770804 56.871941 3.309615
6088 886 1 -1.1794 21.610915 97.176880 20.575933
6089 886 2 0.5897 21.447172 97.958931 21.177251
6090 886 2 0.5897 21.775374 96.360005 21.128807
6091 887 1 -1.1794 10.775827 98.424060 3.053910
6092 887 2 0.5897 11.765718 98.549292 3.120485
6093 887 2 0.5897 10.515498 97.575437 3.514419
6094 888 1 -1.1794 21.031188 53.026860 18.182212
6095 888 2 0.5897 20.180939 53.547644 18.105656
6096 888 2 0.5897 21.181961 52.773460 19.137752
6097 889 1 -1.1794 7.897120 81.092165 13.256480
6098 889 2 0.5897 7.733325 82.068271 13.399269
6099 889 2 0.5897 8.834310 80.954865 12.935818
6100 890 1 -1.1794 13.727944 93.280243 10.021905
6101 890 2 0.5897 13.052749 92.873977 10.637584
6102 890 2 0.5897 14.297348 92.558360 9.628631
6103 891 1 -1.1794 2.174652 82.642102 19.977012
6104 891 2 0.5897 1.558392 81.916591 20.283372
6105 891 2 0.5897 2.094490 83.428337 20.589719
6106 892 1 -1.1794 6.074780 88.307714 22.298128
6107 892 2 0.5897 6.750737 87.860168 21.712649
6108 892 2 0.5897 6.434088 88.377764 23.228714
6109 893 1 -1.1794 20.785812 65.841563 12.065405
6110 893 2 0.5897 19.896608 66.058159 11.662413
6111 893 2 0.5897 21.378838 65.439413 11.367842
6112 894 1 -1.1794 0.424588 66.618150 16.493677
6113 894 2 0.5897 0.000000 65.926977 17.078489
6114 894 2 0.5897 0.000000 67.506993 16.665966
6115 895 1 -1.1794 7.584197 57.351495 9.598534
6116 895 2 0.5897 8.356205 57.046022 10.155931
6117 895 2 0.5897 7.679161 56.990102 8.670969
6118 896 1 -1.1794 20.753300 69.742419 19.362508
6119 896 2 0.5897 21.630672 69.963959 18.936906
6120 896 2 0.5897 20.107807 69.443788 18.659544
6121 897 1 -1.1794 5.313365 83.513015 1.403380
6122 897 2 0.5897 4.790957 82.682693 1.597432
6123 897 2 0.5897 4.690178 84.292918 1.345147
6124 898 1 -1.1794 16.580848 98.244943 27.381110
6125 898 2 0.5897 17.150875 97.619058 27.913404
6126 898 2 0.5897 15.809515 98.550020 27.939656
6127 899 1 -1.1794 18.995913 59.332130 17.438711
6128 899 2 0.5897 18.472259 58.872683 18.156134
6129 899 2 0.5897 19.288967 60.231252 17.763826
6130 900 1 -1.1794 6.227886 61.405474 33.465398
6131 900 2 0.5897 6.749707 62.112710 32.988407
6132 900 2 0.5897 5.471188 61.101967 32.886354
6133 901 1 -1.1794 18.086571 57.250065 9.019667
6134 901 2 0.5897 18.545384 56.910853 9.840902
6135 901 2 0.5897 18.715043 57.203046 8.243258
6136 902 1 -1.1794 6.524521 97.883058 0.352773
6137 902 2 0.5897 5.773810 98.362436 0.807338
6138 902 2 0.5897 7.180798 98.550021 -0.000018
6139 903 1 -1.1794 4.677297 66.639027 22.935886
6140 903 2 0.5897 4.910761 67.501277 22.486420
6141 903 2 0.5897 4.393601 65.970786 22.248158
6142 904 1 -1.1794 4.874728 51.657137 11.589627
6143 904 2 0.5897 4.722227 50.668867 11.597805
6144 904 2 0.5897 5.537008 51.886306 10.876279
6145 905 1 -1.1794 1.584423 57.752453 13.093477
6146 905 2 0.5897 2.314653 58.006042 12.459082
6147 905 2 0.5897 1.977486 57.280687 13.882741
6148 906 1 -1.1794 10.387579 93.118835 31.617633
6149 906 2 0.5897 9.832347 92.683926 30.908711
6150 906 2 0.5897 11.233668 93.465331 31.212572
6151 907 1 -1.1794 16.345031 98.034444 32.295544
6152 907 2 0.5897 15.949128 97.407886 32.966875
6153 907 2 0.5897 15.613807 98.550554 31.849514
6154 908 1 -1.1794 0.000058 62.991871 20.734976
6155 908 2 0.5897 0.096653 62.374122 21.515395
6156 908 2 0.5897 0.901876 63.325477 20.460329
6157 909 1 -1.1794 3.151804 56.203848 31.470552
6158 909 2 0.5897 4.081878 56.075841 31.126201
6159 909 2 0.5897 2.757839 57.029826 31.067374
6160 910 1 -1.1794 9.170772 79.250891 14.931830
6161 910 2 0.5897 9.419503 79.105778 13.974190
6162 910 2 0.5897 8.791506 80.169576 15.042169
6163 911 1 -1.1794 1.461167 57.831338 32.834998
6164 911 2 0.5897 0.924681 58.672967 32.896984
6165 911 2 0.5897 2.012639 57.725889 33.662500
6166 912 1 -1.1794 17.055066 70.652489 10.655795
6167 912 2 0.5897 16.998665 70.777266 11.646376
6168 912 2 0.5897 16.516867 71.361051 10.199416
6169 913 1 -1.1794 4.060231 72.937238 33.658785
6170 913 2 0.5897 4.039522 73.937016 33.662814
6171 913 2 0.5897 4.270911 72.611930 32.736946
6172 914 1 -1.1794 13.878805 71.467243 22.874941
6173 914 2 0.5897 13.915329 72.372249 22.451115
6174 914 2 0.5897 13.552282 70.799050 22.206434
6175 915 1 -1.1794 13.020029 56.809800 13.039001
6176 915 2 0.5897 12.917477 57.575800 12.404393
6177 915 2 0.5897 13.987746 56.570991 13.119593
6178 916 1 -1.1794 14.482011 51.863763 18.959322
6179 916 2 0.5897 13.937365 51.264916 19.546470
6180 916 2 0.5897 15.036842 52.472140 19.526807
6181 917 1 -1.1794 14.951582 63.770559 23.606843
6182 917 2 0.5897 15.224479 63.843929 24.566084
6183 917 2 0.5897 14.324245 62.999624 23.496807
6184 918 1 -1.1794 13.537352 53.032404 32.794007
6185 918 2 0.5897 13.128645 52.228522 33.226131
6186 918 2 0.5897 14.205772 53.441211 33.415371
6187 919 1 -1.1794 10.651833 74.888947 23.505990
6188 919 2 0.5897 10.087163 74.099861 23.747839
6189 919 2 0.5897 10.899939 74.837319 22.538634
6190 920 1 -1.1794 16.917583 91.701544 3.680964
6191 920 2 0.5897 16.810580 90.986769 2.989843
6192 920 2 0.5897 17.026831 91.280754 4.581520
6193 921 1 -1.1794 17.226697 75.079596 14.174837
6194 921 2 0.5897 16.729586 74.218496 14.281545
6195 921 2 0.5897 17.947571 74.965796 13.491178
6196 922 1 -1.1794 2.099154 72.236809 6.714379
6197 922 2 0.5897 2.876164 72.548845 7.261087
6198 922 2 0.5897 1.327540 72.033831 7.317215
6199 923 1 -1.1794 13.303517 69.306721 16.895028
6200 923 2 0.5897 13.114215 69.277753 17.876519
6201 923 2 0.5897 12.446165 69.422497 16.393487
6202 924 1 -1.1794 14.359020 82.218471 28.623536
6203 924 2 0.5897 13.771696 83.008737 28.448809
6204 924 2 0.5897 15.247306 82.360283 28.186687
6205 925 1 -1.1794 8.851608 79.841173 8.910020
6206 925 2 0.5897 9.407414 79.776135 9.738784
6207 925 2 0.5897 9.266356 79.289489 8.186397
6208 926 1 -1.1794 13.887228 51.237007 13.935784
6209 926 2 0.5897 13.550689 52.164334 13.772063
6210 926 2 0.5897 13.796954 51.016269 14.906930
6211 927 1 -1.1794 12.565595 72.807542 29.219729
6212 927 2 0.5897 13.215115 73.497760 29.538668
6213 927 2 0.5897 12.282890 72.235037 29.989349
6214 928 1 -1.1794 1.811601 65.241055 21.044940
6215 928 2 0.5897 1.367097 65.836461 21.714200
6216 928 2 0.5897 2.663976 64.886026 21.428883
6217 929 1 -1.1794 7.290916 75.788223 2.140648
6218 929 2 0.5897 7.156480 74.811753 1.972029
6219 929 2 0.5897 7.013007 76.307395 1.332423
6220 930 1 -1.1794 4.789649 76.620743 1.854026
6221 930 2 0.5897 3.790212 76.640930 1.827219
6222 930 2 0.5897 5.094896 75.758411 2.258016
6223 931 1 -1.1794 14.001225 86.325027 16.798029
6224 931 2 0.5897 13.578296 86.759654 17.593158
6225 931 2 0.5897 14.509507 85.515459 17.091709
6226 932 1 -1.1794 7.192948 89.936198 27.666899
6227 932 2 0.5897 7.970010 89.571358 27.154000
6228 932 2 0.5897 7.495036 90.709474 28.224381
6229 933 1 -1.1794 6.273829 64.020252 0.584391
6230 933 2 0.5897 5.537897 63.653643 0.015179
6231 933 2 0.5897 7.018234 64.342840 -0.000245
6232 934 1 -1.1794 17.496818 73.293991 11.147943
6233 934 2 0.5897 18.212071 73.642097 11.753942
6234 934 2 0.5897 16.729467 72.960126 11.695399
6235 935 1 -1.1794 21.293656 72.156519 30.090327
6236 935 2 0.5897 21.480087 71.370856 30.680222
6237 935 2 0.5897 21.099610 72.958693 30.655006
6238 936 1 -1.1794 11.968023 55.832291 9.909274
6239 936 2 0.5897 11.263949 56.540620 9.858786
6240 936 2 0.5897 12.192438 55.519023 8.986505
6241 937 1 -1.1794 21.108253 64.573113 20.018140
6242 937 2 0.5897 20.567794 64.183070 19.272640
6243 937 2 0.5897 21.775048 65.217911 19.644483
6244 938 1 -1.1794 10.992830 59.059668 28.138659
6245 938 2 0.5897 10.814049 59.126131 27.157018
6246 938 2 0.5897 11.130048 58.101104 28.388315
6247 939 1 -1.1794 1.503126 92.479807 0.000000
6248 939 2 0.5897 1.267434 93.271226 0.564007
6249 939 2 0.5897 1.728773 91.704992 0.590547
6250 940 1 -1.1794 15.680283 91.530784 18.528867
6251 940 2 0.5897 16.119883 92.356498 18.882346
6252 940 2 0.5897 14.910837 91.284484 19.118179
6253 941 1 -1.1794 4.398103 90.356665 22.865747
6254 941 2 0.5897 3.695532 90.607606 22.199848
6255 941 2 0.5897 5.303114 90.492468 22.462619
6256 942 1 -1.1794 21.691617 78.367505 24.997627
6257 942 2 0.5897 21.775199 77.433276 25.344369
6258 942 2 0.5897 21.717145 79.010626 25.762966
6259 943 1 -1.1794 5.779647 97.191988 15.390658
6260 943 2 0.5897 5.358103 96.604058 16.081048
6261 943 2 0.5897 6.642878 97.553600 15.742893
6262 944 1 -1.1794 21.087024 73.438000 11.600849
6263 944 2 0.5897 21.775048 74.162062 11.649396
6264 944 2 0.5897 20.300801 73.760112 11.073498
6265 945 1 -1.1794 7.830451 89.229452 29.819326
6266 945 2 0.5897 8.340776 89.273413 30.678183
6267 945 2 0.5897 8.359549 88.716851 29.143089
6268 946 1 -1.1794 4.774175 73.356672 8.324072
6269 946 2 0.5897 5.379156 74.039439 8.733741
6270 946 2 0.5897 4.998594 73.250894 7.355337
6271 947 1 -1.1794 12.246558 49.415523 23.785771
6272 947 2 0.5897 12.246451 50.397150 23.976580
6273 947 2 0.5897 11.655697 49.228453 23.000986
6274 948 1 -1.1794 0.578774 63.168025 4.029720
6275 948 2 0.5897 0.082680 63.923102 4.458380
6276 948 2 0.5897 0.000060 62.740712 3.335102
6277 949 1 -1.1794 20.181057 66.731887 19.561480
6278 949 2 0.5897 19.351251 67.173092 19.903184
6279 949 2 0.5897 20.801234 67.425963 19.195912
6280 950 1 -1.1794 20.406070 53.773233 24.616424
6281 950 2 0.5897 20.785468 54.603386 25.024963
6282 950 2 0.5897 19.720216 54.021778 23.932444
6283 951 1 -1.1794 9.443036 58.232348 7.765804
6284 951 2 0.5897 9.796584 57.741761 6.969356
6285 951 2 0.5897 9.736029 57.766978 8.601019
6286 952 1 -1.1794 7.517905 85.593075 3.473833
6287 952 2 0.5897 7.595936 86.307811 2.778806
6288 952 2 0.5897 6.612966 85.171215 3.417981
6289 953 1 -1.1794 13.605597 48.917110 4.737792
6290 953 2 0.5897 14.165419 48.549973 3.994954
6291 953 2 0.5897 14.161616 49.524224 5.305467
6292 954 1 -1.1794 19.517372 76.476713 15.167625
6293 954 2 0.5897 19.733703 75.775880 14.487894
6294 954 2 0.5897 19.597354 77.381884 14.750170
6295 955 1 -1.1794 8.417307 54.876865 20.775780
6296 955 2 0.5897 9.094585 55.608250 20.855599
6297 955 2 0.5897 7.559394 55.253697 20.426520
6298 956 1 -1.1794 16.409027 79.154348 1.548565
6299 956 2 0.5897 15.453932 79.449420 1.521598
6300 956 2 0.5897 16.941348 79.798025 2.098396
6301 957 1 -1.1794 21.775134 96.175866 23.321053
6302 957 2 0.5897 21.130420 95.457647 23.582791
6303 957 2 0.5897 21.769895 96.897086 24.013739
6304 958 1 -1.1794 11.330513 78.995106 29.012148
6305 958 2 0.5897 11.194661 78.250979 29.666226
6306 958 2 0.5897 12.070970 78.755797 28.384093
6307 959 1 -1.1794 9.480133 89.348870 5.277552
6308 959 2 0.5897 9.950563 90.110736 4.832294
6309 959 2 0.5897 9.567844 88.527675 4.713686
6310 960 1 -1.1794 6.933827 63.189256 16.010163
6311 960 2 0.5897 6.207656 62.764274 16.550593
6312 960 2 0.5897 7.276699 62.532983 15.338043
6313 961 1 -1.1794 9.504255 79.269661 19.255966
6314 961 2 0.5897 10.409759 78.930269 19.001260
6315 961 2 0.5897 9.494797 80.268081 19.200582
6316 962 1 -1.1794 3.485892 68.360131 5.022071
6317 962 2 0.5897 3.581773 67.367092 4.953666
6318 962 2 0.5897 2.522439 68.593724 5.153193
6319 963 1 -1.1794 13.637881 97.701483 32.312777
6320 963 2 0.5897 13.819930 98.294490 33.097124
6321 963 2 0.5897 13.881668 96.759483 32.543437
6322 964 1 -1.1794 10.575742 87.797417 12.942888
6323 964 2 0.5897 9.593181 87.945907 13.054801
6324 964 2 0.5897 11.077118 88.409287 13.554636
6325 965 1 -1.1794 1.529676 55.572486 24.919685
6326 965 2 0.5897 1.828239 55.387544 23.983385
6327 965 2 0.5897 0.596742 55.932314 24.907110
6328 966 1 -1.1794 6.058973 80.245933 9.739284
6329 966 2 0.5897 5.250530 80.834409 9.728528
6330 966 2 0.5897 5.865171 79.404082 9.235570
6331 967 1 -1.1794 9.870509 58.868916 4.805374
6332 967 2 0.5897 8.962098 58.765975 5.210581
6333 967 2 0.5897 9.838953 59.566093 4.089170
6334 968 1 -1.1794 3.604040 50.102637 18.704363
6335 968 2 0.5897 2.822396 49.544301 18.982379
6336 968 2 0.5897 3.475576 51.040282 19.027346
6337 969 1 -1.1794 7.839831 72.018049 6.687598
6338 969 2 0.5897 7.456427 71.290917 6.118142
6339 969 2 0.5897 7.730443 72.897265 6.223902
6340 970 1 -1.1794 0.977328 72.935771 31.854138
6341 970 2 0.5897 1.663152 72.938557 32.581900
6342 970 2 0.5897 0.062608 72.929292 32.258173
6343 971 1 -1.1794 7.256129 51.324098 31.270309
6344 971 2 0.5897 6.626460 51.317568 30.493473
6345 971 2 0.5897 7.841703 52.133024 31.217934
6346 972 1 -1.1794 18.357679 53.838536 28.976861
6347 972 2 0.5897 17.517633 53.310160 28.853807
6348 972 2 0.5897 18.158879 54.811941 28.863012
6349 973 1 -1.1794 17.536573 69.796011 22.387600
6350 973 2 0.5897 17.930301 68.982134 22.814897
6351 973 2 0.5897 16.774062 70.128161 22.942806
6352 974 1 -1.1794 13.039660 58.138101 30.528954
6353 974 2 0.5897 12.372218 58.581422 31.127275
6354 974 2 0.5897 13.670267 57.591738 31.080155
6355 975 1 -1.1794 20.255199 57.565859 11.957084
6356 975 2 0.5897 21.072584 58.002066 12.333388
6357 975 2 0.5897 20.058554 57.948852 11.054507
6358 976 1 -1.1794 7.871691 72.275191 31.000361
6359 976 2 0.5897 8.843979 72.065687 31.104109
6360 976 2 0.5897 7.746789 72.908122 30.236294
6361 977 1 -1.1794 13.302547 67.017171 13.313972
6362 977 2 0.5897 14.131970 67.575388 13.292740
6363 977 2 0.5897 12.608179 67.429355 12.724091
6364 978 1 -1.1794 20.867924 69.582948 11.515679
6365 978 2 0.5897 21.603278 69.938833 10.938964
6366 978 2 0.5897 20.137274 69.219488 10.937712
6367 979 1 -1.1794 9.272092 60.417940 33.662923
6368 979 2 0.5897 8.662765 61.207363 33.588543
6369 979 2 0.5897 9.648752 60.201578 32.762193
6370 980 1 -1.1794 1.889587 79.594423 33.270334
6371 980 2 0.5897 2.762563 79.303145 33.661577
6372 980 2 0.5897 1.487562 78.838956 32.752991
6373 981 1 -1.1794 12.015744 50.763814 17.741468
6374 981 2 0.5897 12.149275 50.119011 18.494063
6375 981 2 0.5897 12.857499 51.283208 17.594235
6376 982 1 -1.1794 20.275927 92.027781 7.510155
6377 982 2 0.5897 19.744863 92.657022 8.077629
6378 982 2 0.5897 21.158048 91.849413 7.946100
6379 983 1 -1.1794 2.484316 89.760022 2.073426
6380 983 2 0.5897 2.555752 90.656678 2.510353
6381 983 2 0.5897 2.190930 89.082846 2.748227
6382 984 1 -1.1794 13.338221 68.825285 3.779392
6383 984 2 0.5897 12.393565 68.572882 3.988959
6384 984 2 0.5897 13.748561 69.270762 4.575112
6385 985 1 -1.1794 21.752599 94.017560 6.403852
6386 985 2 0.5897 21.559537 94.251720 7.356688
6387 985 2 0.5897 20.989099 93.492042 6.028488
6388 986 1 -1.1794 10.301122 94.290704 13.576236
6389 986 2 0.5897 11.196163 94.492372 13.178452
6390 986 2 0.5897 9.718403 95.100975 13.513793
6391 987 1 -1.1794 14.948116 81.559123 15.687621
6392 987 2 0.5897 15.818687 82.033899 15.816828
6393 987 2 0.5897 14.530000 81.381324 16.578445
6394 988 1 -1.1794 12.823470 82.335657 9.888618
6395 988 2 0.5897 12.815627 81.404100 9.525107
6396 988 2 0.5897 13.004343 82.981407 9.146801
6397 989 1 -1.1794 14.087555 77.139983 14.895409
6398 989 2 0.5897 15.075496 77.294777 14.892319
6399 989 2 0.5897 13.802069 76.790950 14.002843
6400 990 1 -1.1794 17.030185 65.598001 28.576567
6401 990 2 0.5897 17.433427 64.722416 28.310582
6402 990 2 0.5897 16.793332 66.118754 27.756373
6403 991 1 -1.1794 4.357260 82.878486 30.578137
6404 991 2 0.5897 4.219406 82.589018 29.630928
6405 991 2 0.5897 4.536020 83.862054 30.603431
6406 992 1 -1.1794 15.149660 77.482254 5.067749
6407 992 2 0.5897 14.746925 77.429805 4.153936
6408 992 2 0.5897 14.442265 77.312914 5.753982
6409 993 1 -1.1794 1.436055 81.801197 16.518896
6410 993 2 0.5897 0.625347 82.125025 16.031157
6411 993 2 0.5897 2.134361 81.525310 15.858400
6412 994 1 -1.1794 10.784868 94.693356 33.102951
6413 994 2 0.5897 11.612592 94.345574 33.543316
6414 994 2 0.5897 9.988312 94.464461 33.662510
6415 995 1 -1.1794 19.091541 74.785717 20.229149
6416 995 2 0.5897 19.628195 74.197380 20.834014
6417 995 2 0.5897 18.933153 75.666520 20.675355
6418 996 1 -1.1794 11.626843 72.200324 -0.001826
6419 996 2 0.5897 11.967074 72.419268 0.912672
6420 996 2 0.5897 10.939086 71.477256 0.062684
6421 997 1 -1.1794 14.942632 64.625667 12.175674
6422 997 2 0.5897 14.318618 65.395705 12.042830
6423 997 2 0.5897 15.425359 64.436483 11.320581
6424 998 1 -1.1794 9.779656 49.416262 21.100562
6425 998 2 0.5897 10.281408 50.156953 21.547353
6426 998 2 0.5897 9.676555 48.652053 21.737237
6427 999 1 -1.1794 12.485713 88.252835 26.359367
6428 999 2 0.5897 13.485239 88.233747 26.383547
6429 999 2 0.5897 12.123514 87.673711 27.089729
6430 1000 1 -1.1794 10.309266 58.814285 24.998456
6431 1000 2 0.5897 11.270671 58.573999 24.864430
6432 1000 2 0.5897 10.229559 59.800084 25.146260
6433 1001 1 -1.1794 21.775719 86.221994 16.695237
6434 1001 2 0.5897 21.048794 85.585551 16.437321
6435 1001 2 0.5897 21.372250 87.093195 16.974921
6436 1002 1 -1.1794 15.296173 85.907276 21.564952
6437 1002 2 0.5897 16.091331 85.921420 20.958714
6438 1002 2 0.5897 14.461659 85.836459 21.018534
6439 1003 1 -1.1794 17.661283 62.107166 0.026288
6440 1003 2 0.5897 17.517976 61.510289 0.815719
6441 1003 2 0.5897 18.022545 62.987069 0.334931
6442 1004 1 -1.1794 10.928784 82.173108 4.589143
6443 1004 2 0.5897 10.930048 83.152064 4.385078
6444 1004 2 0.5897 10.132273 81.744718 4.162467
6445 1005 1 -1.1794 12.910518 90.980682 26.982473
6446 1005 2 0.5897 13.715741 91.541143 27.176119
6447 1005 2 0.5897 12.156495 91.264639 27.574771
6448 1006 1 -1.1794 16.094151 64.012891 6.485517
6449 1006 2 0.5897 15.561294 63.373492 7.039803
6450 1006 2 0.5897 16.208298 64.871817 6.984733
6451 1007 1 -1.1794 0.377685 83.594455 13.182208
6452 1007 2 0.5897 0.981227 84.297110 12.805360
6453 1007 2 0.5897 0.000070 83.044793 12.437038
6454 1008 1 -1.1794 5.433860 66.576933 7.126808
6455 1008 2 0.5897 6.011382 67.302210 6.752053
6456 1008 2 0.5897 5.607684 65.724325 6.634015
6457 1009 1 -1.1794 7.817974 55.750357 25.475048
6458 1009 2 0.5897 7.776376 56.749489 25.477174
6459 1009 2 0.5897 7.170387 55.388366 26.145565
6460 1010 1 -1.1794 1.770493 84.039283 10.757178
6461 1010 2 0.5897 2.726334 84.107691 10.471364
6462 1010 2 0.5897 1.207985 83.766139 9.976808
6463 1011 1 -1.1794 0.120838 78.191578 28.665935
6464 1011 2 0.5897 -0.001438 78.968343 29.283742
6465 1011 2 0.5897 -0.003413 77.339077 29.173678
6466 1012 1 -1.1794 16.237749 84.779113 32.333866
6467 1012 2 0.5897 15.618179 84.595924 33.097132
6468 1012 2 0.5897 16.851702 85.530444 32.575864
6469 1013 1 -1.1794 10.617910 95.137658 17.886366
6470 1013 2 0.5897 11.441840 95.243057 17.329562
6471 1013 2 0.5897 9.948524 94.585031 17.389853
6472 1014 1 -1.1794 21.549081 69.724854 7.768885
6473 1014 2 0.5897 21.774915 70.628191 7.404219
6474 1014 2 0.5897 21.772868 69.693169 8.743008
6475 1015 1 -1.1794 3.084949 68.742391 28.067374
6476 1015 2 0.5897 3.764105 68.507436 27.372002
6477 1015 2 0.5897 2.312737 69.208085 27.635150
6478 1016 1 -1.1794 -0.000093 52.779129 25.210956
6479 1016 2 0.5897 0.453015 53.669157 25.160507
6480 1016 2 0.5897 0.669130 52.054589 25.046089
6481 1017 1 -1.1794 8.985139 64.093681 4.559278
6482 1017 2 0.5897 9.591094 63.455800 5.034596
6483 1017 2 0.5897 9.139171 65.019577 4.904229
6484 1018 1 -1.1794 13.931784 74.561131 14.550136
6485 1018 2 0.5897 13.129545 74.108699 14.160626
6486 1018 2 0.5897 13.671019 75.037147 15.390023
6487 1019 1 -1.1794 20.207679 72.481682 27.042912
6488 1019 2 0.5897 21.171194 72.341884 26.814667
6489 1019 2 0.5897 19.984283 73.453298 26.965094
6490 1020 1 -1.1794 13.442676 94.541179 26.422723
6491 1020 2 0.5897 13.648183 93.567567 26.323499
6492 1020 2 0.5897 12.491958 94.709396 26.162264
6493 1021 1 -1.1794 21.014095 74.961505 31.679195
6494 1021 2 0.5897 20.366296 74.377258 32.168082
6495 1021 2 0.5897 21.680528 75.333670 32.325229
6496 1022 1 -1.1794 8.975171 94.748560 2.524868
6497 1022 2 0.5897 8.240708 94.199531 2.923780
6498 1022 2 0.5897 9.421358 95.281267 3.243993
6499 1023 1 -1.1794 2.294556 84.356423 17.074781
6500 1023 2 0.5897 3.012432 83.804870 16.649993
6501 1023 2 0.5897 2.549973 85.322504 17.036707
6502 1024 1 -1.1794 3.768053 84.595916 22.760722
6503 1024 2 0.5897 4.498759 83.976391 22.473918
6504 1024 2 0.5897 3.278543 84.929541 21.955070
6505 1025 1 -1.1794 8.089876 73.596078 12.298193
6506 1025 2 0.5897 8.832852 73.805614 11.662520
6507 1025 2 0.5897 7.211448 73.771120 11.853530
6508 1026 1 -1.1794 5.757469 64.761630 24.143726
6509 1026 2 0.5897 6.021179 65.692172 24.397792
6510 1026 2 0.5897 4.829030 64.578331 24.466841
6511 1027 1 -1.1794 21.656851 73.495061 21.314494
6512 1027 2 0.5897 21.775607 74.230446 21.981656
6513 1027 2 0.5897 21.774804 72.611533 21.767776
6514 1028 1 -1.1794 9.575464 72.085079 4.897607
6515 1028 2 0.5897 8.775190 72.359436 4.364419
6516 1028 2 0.5897 10.078419 71.376214 4.403089
6517 1029 1 -1.1794 8.191899 63.414531 30.233376
6518 1029 2 0.5897 8.617722 62.511858 30.295483
6519 1029 2 0.5897 8.328133 63.907185 31.092871
6520 1030 1 -1.1794 5.666162 81.862735 21.727471
6521 1030 2 0.5897 6.652894 81.737428 21.830707
6522 1030 2 0.5897 5.297426 81.138767 21.144458
6523 1031 1 -1.1794 11.527246 79.475506 3.186415
6524 1031 2 0.5897 12.061429 78.786594 2.696468
6525 1031 2 0.5897 10.755904 79.764493 2.619389
6526 1032 1 -1.1794 0.024241 80.033963 4.254027
6527 1032 2 0.5897 0.313043 80.939482 3.943176
6528 1032 2 0.5897 0.829597 79.489482 4.488424
6529 1033 1 -1.1794 15.610899 55.214591 30.408583
6530 1033 2 0.5897 14.621650 55.159474 30.273124
6531 1033 2 0.5897 16.077761 54.974161 29.557564
6532 1034 1 -1.1794 5.128834 58.568550 25.489670
6533 1034 2 0.5897 6.069483 58.900143 25.561954
6534 1034 2 0.5897 4.839225 58.192997 26.370060
6535 1035 1 -1.1794 5.349157 55.502430 32.950574
6536 1035 2 0.5897 5.560263 54.582698 33.281524
6537 1035 2 0.5897 4.863305 56.009490 33.662500
6538 1036 1 -1.1794 2.960547 98.283231 19.142480
6539 1036 2 0.5897 2.261846 98.550003 18.478664
6540 1036 2 0.5897 2.583486 98.345659 20.066562
6541 1037 1 -1.1794 0.498946 58.765240 0.677505
6542 1037 2 0.5897 -0.000008 59.454235 0.151833
6543 1037 2 0.5897 -0.000006 58.563106 1.520233
6544 1038 1 -1.1794 21.261517 61.787550 33.484173
6545 1038 2 0.5897 20.467595 62.384482 33.599761
6546 1038 2 0.5897 21.310210 61.477807 32.534600
6547 1039 1 -1.1794 2.020820 66.044173 4.136364
6548 1039 2 0.5897 1.440850 65.427876 3.603623
6549 1039 2 0.5897 1.459325 66.770153 4.533449
6550 1040 1 -1.1794 0.136401 95.683562 9.355015
6551 1040 2 0.5897 -0.000314 96.551462 8.877460
6552 1040 2 0.5897 -0.000305 94.926465 8.716175
6553 1041 1 -1.1794 8.111902 54.316100 31.263014
6554 1041 2 0.5897 7.172688 54.539226 31.523960
6555 1041 2 0.5897 8.747551 54.874353 31.796216
6556 1042 1 -1.1794 20.243675 67.734109 29.901085
6557 1042 2 0.5897 21.086471 67.756855 29.363334
6558 1042 2 0.5897 19.455375 67.775720 29.287202
6559 1043 1 -1.1794 15.056027 88.661434 16.766335
6560 1043 2 0.5897 15.192398 88.301977 15.843192
6561 1043 2 0.5897 14.078900 88.796808 16.930340
6562 1044 1 -1.1794 20.616418 68.718275 0.885977
6563 1044 2 0.5897 21.075059 68.671737 -0.001426
6564 1044 2 0.5897 19.715336 68.289934 0.818334
6565 1045 1 -1.1794 4.421026 68.533712 29.988141
6566 1045 2 0.5897 4.334004 68.559220 30.984020
6567 1045 2 0.5897 4.450737 69.467718 29.632121
6568 1046 1 -1.1794 5.406296 95.634061 22.573159
6569 1046 2 0.5897 6.092943 95.608581 21.846615
6570 1046 2 0.5897 4.697666 96.299607 22.338867
6571 1047 1 -1.1794 1.469276 89.345902 23.262947
6572 1047 2 0.5897 2.127213 89.988942 23.654890
6573 1047 2 0.5897 0.735166 89.177699 23.920815
6574 1048 1 -1.1794 17.297252 85.087612 16.234666
6575 1048 2 0.5897 17.260210 85.967333 15.760619
6576 1048 2 0.5897 16.379586 84.692429 16.276128
6577 1049 1 -1.1794 20.440286 60.181321 19.639070
6578 1049 2 0.5897 20.905160 60.795664 20.276625
6579 1049 2 0.5897 20.322805 59.284670 20.065937
6580 1050 1 -1.1794 8.849457 52.865727 5.499382
6581 1050 2 0.5897 8.317003 53.079936 6.318289
6582 1050 2 0.5897 8.854497 53.657461 4.888537
6583 1051 1 -1.1794 16.584626 85.498618 12.813305
6584 1051 2 0.5897 17.324552 85.043385 12.318055
6585 1051 2 0.5897 15.907030 85.838796 12.161275
6586 1052 1 -1.1794 14.797226 49.201771 13.382601
6587 1052 2 0.5897 15.430404 49.306422 12.615702
6588 1052 2 0.5897 14.080855 48.548834 13.136665
6589 1053 1 -1.1794 12.641977 79.188127 11.689579
6590 1053 2 0.5897 13.488560 79.588508 12.040282
6591 1053 2 0.5897 11.866201 79.757238 11.962129
6592 1054 1 -1.1794 11.051604 91.958473 18.348823
6593 1054 2 0.5897 10.255311 92.458041 18.689923
6594 1054 2 0.5897 11.009376 91.009851 18.662404
6595 1055 1 -1.1794 13.864748 48.615529 20.392367
6596 1055 2 0.5897 13.847275 48.549749 21.390048
6597 1055 2 0.5897 14.809264 48.550018 20.070502
6598 1056 1 -1.1794 15.998364 82.986254 22.576785
6599 1056 2 0.5897 15.625542 83.895560 22.391941
6600 1056 2 0.5897 15.265913 82.307817 22.519868
6601 1057 1 -1.1794 20.772964 81.104037 20.048602
6602 1057 2 0.5897 19.780837 80.978957 20.054965
6603 1057 2 0.5897 21.143954 80.781855 19.177646
6604 1058 1 -1.1794 6.768828 97.621214 24.097085
6605 1058 2 0.5897 7.433816 97.825171 24.815550
6606 1058 2 0.5897 6.934974 96.701899 23.740355
6607 1059 1 -1.1794 14.012956 90.717737 11.751651
6608 1059 2 0.5897 13.152168 90.310752 11.446023
6609 1059 2 0.5897 13.852225 91.254822 12.579724
6610 1060 1 -1.1794 12.968589 65.020846 6.157666
6611 1060 2 0.5897 12.625994 65.512968 6.957944
6612 1060 2 0.5897 13.821012 64.554026 6.393153
6613 1061 1 -1.1794 5.202370 85.062104 19.873836
6614 1061 2 0.5897 5.731049 85.717759 19.334748
6615 1061 2 0.5897 5.165503 85.366161 20.825776
6616 1062 1 -1.1794 3.126891 82.258650 22.556117
6617 1062 2 0.5897 3.265543 81.784560 21.686626
6618 1062 2 0.5897 2.180308 82.575555 22.615722
6619 1063 1 -1.1794 6.769600 84.526574 22.080010
6620 1063 2 0.5897 7.279529 84.877209 21.294499
6621 1063 2 0.5897 7.260089 83.750447 22.476301
6622 1064 1 -1.1794 19.985376 81.994352 29.626922
6623 1064 2 0.5897 20.341796 82.376602 28.774367
6624 1064 2 0.5897 20.734967 81.586957 30.148595
6625 1065 1 -1.1794 20.146905 73.385626 15.477806
6626 1065 2 0.5897 19.642342 74.119396 15.932776
6627 1065 2 0.5897 20.497867 73.715981 14.601626
6628 1066 1 -1.1794 18.204591 54.819374 14.348978
6629 1066 2 0.5897 17.497295 54.159222 14.601826
6630 1066 2 0.5897 19.083417 54.349951 14.263497
6631 1067 1 -1.1794 8.484078 86.377548 5.443472
6632 1067 2 0.5897 8.183208 85.590985 5.982728
6633 1067 2 0.5897 8.307796 87.218958 5.954308
6634 1068 1 -1.1794 9.847661 56.972127 13.262805
6635 1068 2 0.5897 9.071209 56.344032 13.313991
6636 1068 2 0.5897 10.104645 57.260289 14.185259
6637 1069 1 -1.1794 10.412442 61.815843 12.948071
6638 1069 2 0.5897 10.389548 61.853157 13.947112
6639 1069 2 0.5897 11.178088 62.364034 12.611509
6640 1070 1 -1.1794 1.690174 97.428858 14.454094
6641 1070 2 0.5897 0.772772 97.495867 14.846374
6642 1070 2 0.5897 2.147182 98.315748 14.521692
6643 1071 1 -1.1794 21.123427 54.085700 28.353624
6644 1071 2 0.5897 21.775388 53.603928 27.768095
6645 1071 2 0.5897 21.619634 54.681277 28.985340
6646 1072 1 -1.1794 20.065749 77.580157 5.734976
6647 1072 2 0.5897 20.872322 78.074480 5.410808
6648 1072 2 0.5897 19.400152 77.504981 4.992460
6649 1073 1 -1.1794 10.114682 52.709198 7.531067
6650 1073 2 0.5897 9.755871 53.526514 7.981898
6651 1073 2 0.5897 10.295653 52.003168 8.215736
6652 1074 1 -1.1794 6.402363 77.982211 32.531488
6653 1074 2 0.5897 5.870820 78.612058 33.097840
6654 1074 2 0.5897 6.920193 77.361073 33.119740
6655 1075 1 -1.1794 14.444189 60.077812 2.064777
6656 1075 2 0.5897 14.736495 60.391746 2.968105
6657 1075 2 0.5897 15.127015 60.341168 1.383314
6658 1076 1 -1.1794 12.704004 49.568032 26.440408
6659 1076 2 0.5897 13.271520 49.174118 25.717388
6660 1076 2 0.5897 12.406374 50.483353 26.169110
6661 1077 1 -1.1794 11.359425 95.191143 5.050365
6662 1077 2 0.5897 11.434860 94.974929 4.076938
6663 1077 2 0.5897 11.073894 94.374559 5.552026
6664 1078 1 -1.1794 5.059625 58.870460 31.869664
6665 1078 2 0.5897 5.422848 58.014248 32.237046
6666 1078 2 0.5897 4.255771 59.145125 32.397279
6667 1079 1 -1.1794 11.198544 69.510124 32.752744
6668 1079 2 0.5897 10.646208 70.341389 32.815384
6669 1079 2 0.5897 11.527870 69.259377 33.663057
6670 1080 1 -1.1794 3.691557 75.897407 7.882067
6671 1080 2 0.5897 3.303561 76.629585 7.322268
6672 1080 2 0.5897 4.301223 75.336798 7.321687
6673 1081 1 -1.1794 17.214222 66.603309 6.074196
6674 1081 2 0.5897 16.299657 66.953937 5.872623
6675 1081 2 0.5897 17.484599 66.886863 6.994247
6676 1082 1 -1.1794 12.390456 66.377666 33.663015
6677 1082 2 0.5897 11.681200 66.087189 33.020692
6678 1082 2 0.5897 13.157589 66.771586 33.156719
6679 1083 1 -1.1794 1.958958 49.800275 11.481775
6680 1083 2 0.5897 0.997094 49.703959 11.225767
6681 1083 2 0.5897 2.335102 48.901882 11.708500
6682 1084 1 -1.1794 0.384164 86.945727 15.598082
6683 1084 2 0.5897 0.424331 87.764543 15.025432
6684 1084 2 0.5897 0.527104 87.200504 16.554459
6685 1085 1 -1.1794 1.833953 57.200095 10.058727
6686 1085 2 0.5897 1.896369 58.181921 10.237953
6687 1085 2 0.5897 1.863763 57.038789 9.072273
6688 1086 1 -1.1794 13.376826 93.774547 22.279847
6689 1086 2 0.5897 13.491444 93.950615 23.257529
6690 1086 2 0.5897 12.649351 94.358194 21.919102
6691 1087 1 -1.1794 14.788601 75.761186 26.459413
6692 1087 2 0.5897 15.121785 76.627260 26.832112
6693 1087 2 0.5897 14.411895 75.203092 27.198753
6694 1088 1 -1.1794 15.689365 70.932378 33.662466
6695 1088 2 0.5897 16.379119 71.431169 33.137636
6696 1088 2 0.5897 15.547300 70.030750 33.253951
6697 1089 1 -1.1794 0.459538 52.976203 1.729581
6698 1089 2 0.5897 1.373838 53.373607 1.807848
6699 1089 2 0.5897 0.254708 52.798284 0.767090
6700 1090 1 -1.1794 19.068648 97.685446 22.718410
6701 1090 2 0.5897 18.958221 98.550026 23.208622
6702 1090 2 0.5897 20.023126 97.391880 22.771241
6703 1091 1 -1.1794 7.503128 51.716619 26.444589
6704 1091 2 0.5897 7.201176 50.826500 26.785929
6705 1091 2 0.5897 7.217953 52.432303 27.082141
6706 1092 1 -1.1794 11.897784 79.676115 31.515748
6707 1092 2 0.5897 10.937191 79.915008 31.373647
6708 1092 2 0.5897 11.976504 78.691977 31.674729
6709 1093 1 -1.1794 16.745168 51.058127 12.415687
6710 1093 2 0.5897 17.281833 51.818068 12.782402
6711 1093 2 0.5897 17.352778 50.292673 12.203814
6712 1094 1 -1.1794 11.907893 91.678232 24.799052
6713 1094 2 0.5897 12.236485 92.414019 24.206899
6714 1094 2 0.5897 11.514611 92.070192 25.630735
6715 1095 1 -1.1794 16.051997 71.329619 25.863860
6716 1095 2 0.5897 15.344345 72.024132 25.733938
6717 1095 2 0.5897 16.300345 70.937079 24.978289
6718 1096 1 -1.1794 10.824108 86.437934 25.790500
6719 1096 2 0.5897 10.827181 85.948486 26.662527
6720 1096 2 0.5897 11.155311 85.832144 25.067089
6721 1097 1 -1.1794 19.248984 96.049924 24.557116
6722 1097 2 0.5897 18.969549 96.978982 24.799535
6723 1097 2 0.5897 18.468546 95.431834 24.651359
6724 1098 1 -1.1794 15.432093 85.506258 6.157848
6725 1098 2 0.5897 15.111093 86.250369 6.743731
6726 1098 2 0.5897 15.760944 84.752361 6.726616
6727 1099 1 -1.1794 2.839507 49.232154 3.475136
6728 1099 2 0.5897 2.140779 48.550006 3.259605
6729 1099 2 0.5897 3.099323 49.718275 2.640761
6730 1100 1 -1.1794 3.297213 60.833777 26.205880
6731 1100 2 0.5897 4.225300 60.469115 26.130545
6732 1100 2 0.5897 3.331150 61.753281 26.597491
6733 1101 1 -1.1794 5.909017 65.217032 32.455528
6734 1101 2 0.5897 5.083213 65.510333 31.973842
6735 1101 2 0.5897 6.670445 65.163477 31.809495
6736 1102 1 -1.1794 5.267356 88.125416 19.049257
6737 1102 2 0.5897 5.974969 88.791454 18.813296
6738 1102 2 0.5897 4.369671 88.492161 18.805003
6739 1103 1 -1.1794 18.924991 86.406459 5.198020
6740 1103 2 0.5897 19.646492 86.294210 5.881274
6741 1103 2 0.5897 18.040067 86.483600 5.657323
6742 1104 1 -1.1794 8.611073 97.899775 32.675089
6743 1104 2 0.5897 8.582115 98.047027 33.663764
6744 1104 2 0.5897 9.246235 98.550873 32.259587
6745 1105 1 -1.1794 2.071585 70.200409 30.856849
6746 1105 2 0.5897 2.332272 69.445561 31.458718
6747 1105 2 0.5897 1.997676 71.042466 31.391149
6748 1106 1 -1.1794 2.165628 50.710171 28.408501
6749 1106 2 0.5897 2.594059 51.335122 29.061098
6750 1106 2 0.5897 2.188471 51.115487 27.494610
6751 1107 1 -1.1794 2.659536 87.310313 15.968288
6752 1107 2 0.5897 2.532730 86.617480 15.258427
6753 1107 2 0.5897 2.504404 88.218383 15.579261
6754 1108 1 -1.1794 17.902408 95.000543 31.905890
6755 1108 2 0.5897 18.527118 94.365687 31.451253
6756 1108 2 0.5897 17.250213 95.361256 31.239161
6757 1109 1 -1.1794 16.360305 70.718843 3.932186
6758 1109 2 0.5897 17.052659 71.439764 3.901866
6759 1109 2 0.5897 16.469132 70.187315 4.772206
6760 1110 1 -1.1794 4.570838 92.859093 28.101123
6761 1110 2 0.5897 3.711789 92.626697 27.645023
6762 1110 2 0.5897 4.379499 93.180462 29.028545
6763 1111 1 -1.1794 17.193941 86.688083 30.071208
6764 1111 2 0.5897 17.081514 85.750104 30.399163
6765 1111 2 0.5897 17.334240 87.299036 30.850344
6766 1112 1 -1.1794 5.221482 90.766171 19.423624
6767 1112 2 0.5897 5.754533 90.565945 20.245674
6768 1112 2 0.5897 4.246125 90.708078 19.636470
6769 1113 1 -1.1794 19.105342 74.150660 5.248822
6770 1113 2 0.5897 19.425996 73.526601 4.536269
6771 1113 2 0.5897 18.693362 74.957197 4.824830
6772 1114 1 -1.1794 0.546785 87.917951 18.633644
6773 1114 2 0.5897 -0.001246 88.677167 18.984718
6774 1114 2 0.5897 0.471232 87.137436 19.254198
6775 1115 1 -1.1794 3.832013 92.252041 31.568256
6776 1115 2 0.5897 4.548410 92.841905 31.195651
6777 1115 2 0.5897 3.207149 92.798258 32.126102
6778 1116 1 -1.1794 11.807209 50.576887 0.463631
6779 1116 2 0.5897 11.048175 49.982737 0.729813
6780 1116 2 0.5897 12.299303 50.875558 1.281334
6781 1117 1 -1.1794 20.137127 65.371157 27.691266
6782 1117 2 0.5897 19.480502 65.806130 28.307417
6783 1117 2 0.5897 20.857348 66.024109 27.456884
6784 1118 1 -1.1794 20.480404 49.316591 3.780392
6785 1118 2 0.5897 20.933691 48.550000 4.235220
6786 1118 2 0.5897 21.159669 50.009406 3.538301
6787 1119 1 -1.1794 7.285652 70.967430 26.187717
6788 1119 2 0.5897 7.785870 70.649231 26.993031
6789 1119 2 0.5897 7.901787 71.488357 25.596945
6790 1120 1 -1.1794 13.154368 63.661964 27.470514
6791 1120 2 0.5897 13.992464 63.901495 26.980393
6792 1120 2 0.5897 12.366856 63.794170 26.868561
6793 1121 1 -1.1794 13.540670 48.549275 30.598324
6794 1121 2 0.5897 13.331890 49.257397 29.923805
6795 1121 2 0.5897 13.607564 48.963107 31.506216
6796 1122 1 -1.1794 0.167155 78.409145 1.914882
6797 1122 2 0.5897 0.320769 77.495254 1.539107
6798 1122 2 0.5897 -0.000007 79.052838 1.168078
6799 1123 1 -1.1794 21.431313 98.234313 9.479473
6800 1123 2 0.5897 21.773054 97.415072 9.939970
6801 1123 2 0.5897 20.598935 98.549993 9.934987
6802 1124 1 -1.1794 15.062569 83.345865 17.412668
6803 1124 2 0.5897 14.307271 83.401670 18.065669
6804 1124 2 0.5897 15.928794 83.288722 17.909044
6805 1125 1 -1.1794 3.538652 66.519187 30.043899
6806 1125 2 0.5897 4.520162 66.330512 30.011664
6807 1125 2 0.5897 3.052611 65.703669 30.358055
6808 1126 1 -1.1794 7.417771 78.086465 16.591094
6809 1126 2 0.5897 7.513602 77.669665 17.495026
6810 1126 2 0.5897 8.056546 77.653575 15.955033
6811 1127 1 -1.1794 18.979218 54.952077 5.519927
6812 1127 2 0.5897 19.722960 54.497757 5.029578
6813 1127 2 0.5897 18.477184 55.544213 4.889581
6814 1128 1 -1.1794 10.547422 71.475703 25.438315
6815 1128 2 0.5897 11.462366 71.158895 25.188295
6816 1128 2 0.5897 9.901007 71.231380 24.715506
6817 1129 1 -1.1794 2.882305 55.245863 1.024111
6818 1129 2 0.5897 2.845536 55.061027 2.006192
6819 1129 2 0.5897 3.295868 56.143039 0.869057
6820 1130 1 -1.1794 21.482155 71.849566 13.849913
6821 1130 2 0.5897 21.702413 70.918975 14.142292
6822 1130 2 0.5897 20.859423 71.814760 13.068252
6823 1131 1 -1.1794 6.815031 68.815552 27.725161
6824 1131 2 0.5897 6.232377 68.655594 26.928338
6825 1131 2 0.5897 6.942617 67.957394 28.222440
6826 1132 1 -1.1794 20.164158 81.477451 4.450978
6827 1132 2 0.5897 21.150993 81.625138 4.385057
6828 1132 2 0.5897 19.985320 80.659828 4.998253
6829 1133 1 -1.1794 0.628870 81.196415 32.320045
6830 1133 2 0.5897 -0.000292 80.427455 32.433431
6831 1133 2 0.5897 0.855371 81.576770 33.216721
6832 1134 1 -1.1794 16.147016 66.685603 33.563747
6833 1134 2 0.5897 16.017969 67.671843 33.667084
6834 1134 2 0.5897 17.115710 66.490473 33.410263
6835 1135 1 -1.1794 7.811790 54.111201 11.076331
6836 1135 2 0.5897 7.812859 54.946672 10.526796
6837 1135 2 0.5897 8.741743 53.916005 11.387916
6838 1136 1 -1.1794 21.161092 64.542616 33.662561
6839 1136 2 0.5897 20.274796 64.937118 33.419976
6840 1136 2 0.5897 21.775106 64.592808 32.874864
6841 1137 1 -1.1794 16.057781 91.626327 0.479871
6842 1137 2 0.5897 15.630086 90.989280 1.121157
6843 1137 2 0.5897 15.893949 92.564989 0.783306
6844 1138 1 -1.1794 8.003287 69.695266 8.275373
6845 1138 2 0.5897 8.716207 70.097319 7.700831
6846 1138 2 0.5897 7.125783 69.739888 7.797885
6847 1139 1 -1.1794 13.118338 77.221352 26.144831
6848 1139 2 0.5897 12.304383 76.644365 26.077284
6849 1139 2 0.5897 13.615578 77.199112 25.277503
6850 1140 1 -1.1794 9.349091 98.192326 19.472550
6851 1140 2 0.5897 9.842426 97.953470 20.308952
6852 1140 2 0.5897 8.445937 98.550616 19.709068
6853 1141 1 -1.1794 1.050015 55.708944 12.025737
6854 1141 2 0.5897 1.826981 55.476789 12.610910
6855 1141 2 0.5897 0.260904 55.939157 12.595216
6856 1142 1 -1.1794 1.805922 89.567773 17.444472
6857 1142 2 0.5897 1.247861 90.191439 17.991837
6858 1142 2 0.5897 2.368179 89.004802 18.050221
6859 1143 1 -1.1794 5.680490 89.789595 4.352805
6860 1143 2 0.5897 5.208181 89.158221 4.967858
6861 1143 2 0.5897 6.129574 90.504133 4.889238
6862 1144 1 -1.1794 19.170442 54.640876 8.899646
6863 1144 2 0.5897 18.371297 54.745802 9.491557
6864 1144 2 0.5897 19.899638 54.177479 9.403171
6865 1145 1 -1.1794 9.819360 90.154745 32.865592
6866 1145 2 0.5897 9.818729 90.906863 32.206564
6867 1145 2 0.5897 9.841686 89.282893 32.376331
6868 1146 1 -1.1794 9.866642 59.645228 14.261627
6869 1146 2 0.5897 8.867041 59.647360 14.289815
6870 1146 2 0.5897 10.174315 59.303796 13.373505
6871 1147 1 -1.1794 6.677313 72.592245 3.338576
6872 1147 2 0.5897 6.451042 72.641250 4.311407
6873 1147 2 0.5897 5.866819 72.813660 2.796288
6874 1148 1 -1.1794 2.563257 88.420447 4.855555
6875 1148 2 0.5897 1.604030 88.436639 5.137729
6876 1148 2 0.5897 3.020642 89.247752 5.181692
6877 1149 1 -1.1794 6.150733 72.122779 20.376859
6878 1149 2 0.5897 6.071917 72.877757 21.027856
6879 1149 2 0.5897 6.228308 71.259439 20.875484
6880 1150 1 -1.1794 7.687367 79.454650 6.664280
6881 1150 2 0.5897 6.724349 79.202956 6.760436
6882 1150 2 0.5897 7.986091 79.277698 5.726488
6883 1151 1 -1.1794 3.150209 73.790297 14.179557
6884 1151 2 0.5897 4.020797 73.915448 13.703726
6885 1151 2 0.5897 2.514327 73.296197 13.586667
6886 1152 1 -1.1794 11.158304 93.201802 20.788495
6887 1152 2 0.5897 11.064409 92.845400 21.718098
6888 1152 2 0.5897 10.798876 94.134226 20.751120
6889 1153 1 -1.1794 3.095422 71.308604 12.275413
6890 1153 2 0.5897 2.128076 71.421607 12.502288
6891 1153 2 0.5897 3.645756 71.404953 13.104780
6892 1154 1 -1.1794 16.198033 78.991804 18.137856
6893 1154 2 0.5897 15.390596 78.769474 17.591398
6894 1154 2 0.5897 16.972503 79.170148 17.530905
6895 1155 1 -1.1794 0.139784 95.999043 6.656050
6896 1155 2 0.5897 -0.015354 96.481743 5.794114
6897 1155 2 0.5897 -0.000600 95.018492 6.518894
6898 1156 1 -1.1794 4.154110 86.889990 33.310458
6899 1156 2 0.5897 4.980769 86.344237 33.173385
6900 1156 2 0.5897 3.423975 86.305775 33.664852
6901 1157 1 -1.1794 14.624970 89.209883 27.991672
6902 1157 2 0.5897 14.999353 89.756265 27.242470
6903 1157 2 0.5897 13.938837 89.745298 28.484168
6904 1158 1 -1.1794 9.166240 51.229025 12.873092
6905 1158 2 0.5897 8.652972 51.982211 12.461672
6906 1158 2 0.5897 9.718388 50.779275 12.171053
6907 1159 1 -1.1794 3.120110 62.440381 30.211522
6908 1159 2 0.5897 3.264100 63.048176 29.430592
6909 1159 2 0.5897 3.554782 61.557932 30.031677
6910 1160 1 -1.1794 13.588451 58.054445 25.155095
6911 1160 2 0.5897 13.177775 57.597459 24.366103
6912 1160 2 0.5897 13.818431 57.374698 25.851554
6913 1161 1 -1.1794 8.175269 59.328119 28.448853
6914 1161 2 0.5897 9.012182 59.674815 28.872382
6915 1161 2 0.5897 8.230931 58.333079 28.366401
6916 1162 1 -1.1794 19.004096 62.033397 10.997971
6917 1162 2 0.5897 18.238379 61.924206 11.631812
6918 1162 2 0.5897 19.765771 61.456430 11.292863
6919 1163 1 -1.1794 19.813881 77.011107 24.385392
6920 1163 2 0.5897 20.485921 76.606593 23.765126
6921 1163 2 0.5897 19.790916 76.489331 25.238165
6922 1164 1 -1.1794 8.624357 77.929456 30.564546
6923 1164 2 0.5897 8.113549 77.430050 31.264309
6924 1164 2 0.5897 9.431494 78.350771 30.978095
6925 1165 1 -1.1794 15.533764 71.926011 21.006892
6926 1165 2 0.5897 16.153393 71.145469 21.089437
6927 1165 2 0.5897 14.701589 71.642053 20.530600
6928 1166 1 -1.1794 1.114504 80.835616 30.205050
6929 1166 2 0.5897 1.591730 80.480561 29.401189
6930 1166 2 0.5897 0.252062 81.255413 29.922268
6931 1167 1 -1.1794 0.827753 78.561944 7.990168
6932 1167 2 0.5897 1.364191 78.001417 7.359260
6933 1167 2 0.5897 0.325115 79.255868 7.474586
6934 1168 1 -1.1794 12.195321 77.295158 16.881491
6935 1168 2 0.5897 13.182620 77.323215 17.037871
6936 1168 2 0.5897 11.721474 77.682995 17.672093
6937 1169 1 -1.1794 13.484126 87.335949 12.265709
6938 1169 2 0.5897 14.407716 87.425305 11.892887
6939 1169 2 0.5897 13.239052 86.368001 12.320624
6940 1170 1 -1.1794 5.544968 52.718910 3.059040
6941 1170 2 0.5897 4.753859 53.278720 2.812545
6942 1170 2 0.5897 5.979058 52.371046 2.228043
6943 1171 1 -1.1794 3.002391 57.847213 24.554677
6944 1171 2 0.5897 2.869973 58.359247 25.403374
6945 1171 2 0.5897 3.671294 57.119317 24.705460
6946 1172 1 -1.1794 16.546460 70.625053 27.888456
6947 1172 2 0.5897 16.994608 69.944419 27.308886
6948 1172 2 0.5897 16.086315 70.165125 28.647884
6949 1173 1 -1.1794 3.779319 88.781426 0.588397
6950 1173 2 0.5897 3.094249 89.242138 0.024106
6951 1173 2 0.5897 4.418339 88.286732 -0.000611
6952 1174 1 -1.1794 1.854241 96.247832 20.792181
6953 1174 2 0.5897 2.752187 96.352329 21.219702
6954 1174 2 0.5897 1.215598 96.904445 21.193423
6955 1175 3 0 15.585702 51.572189 16.060754
6956 1176 3 0 19.957095 55.544302 27.190849
6957 1177 3 0 10.057399 69.544469 9.405911
6958 1178 3 0 6.805468 78.204701 2.425855
6959 1179 3 0 3.239916 66.428264 24.588004
6960 1180 3 0 8.214500 57.755232 15.224231
6961 1181 3 0 13.317807 59.482061 4.403051
6962 1182 3 0 14.080187 95.615959 20.685516
6963 1183 3 0 18.281969 91.734059 28.048770
6964 1184 3 0 7.093483 74.960437 24.438903
6965 1185 3 0 18.910843 70.544298 14.196748
6966 1186 3 0 16.131210 55.766762 4.107393
6967 1187 3 0 10.349460 48.600381 10.327189
6968 1188 3 0 19.823741 72.274527 32.520527
6969 1189 3 0 16.908674 74.863074 8.753681
6970 1190 3 0 0.838158 59.183889 26.178758
6971 1191 3 0 20.610516 57.342594 15.448850
6972 1192 3 0 5.421117 64.674720 17.306540
6973 1193 3 0 11.953773 89.225858 9.953632
6974 1194 3 0 14.013852 50.960375 6.965473
6975 1195 3 0 3.293971 56.018037 6.914965
6976 1196 3 0 15.837831 77.094347 12.838409
6977 1197 3 0 9.169517 64.906872 20.577342
6978 1198 3 0 4.412984 90.128067 31.636583
6979 1199 3 0 13.315178 58.728298 20.451914
6980 1200 3 0 8.320264 71.908214 20.669957
6981 1201 3 0 16.962824 78.560750 4.444279
6982 1202 3 0 20.897658 61.641347 15.375860
6983 1203 3 0 21.414852 76.218602 4.361557
6984 1204 3 0 12.909148 55.399397 24.618683
6985 1205 3 0 12.538401 66.899896 15.605831
6986 1206 3 0 5.259543 90.057987 8.301172
6987 1207 3 0 9.038882 79.477828 17.115910
6988 1208 3 0 9.751833 64.621545 25.516802
6989 1209 3 0 21.246039 91.249697 20.277775
6990 1210 3 0 5.633762 82.844536 10.536052
6991 1211 3 0 0.044508 72.153585 16.365063
6992 1212 3 0 6.677554 94.299284 20.178072
6993 1213 3 0 18.718801 68.388812 27.272411
6994 1214 3 0 6.204963 94.324585 24.387127
6995 1215 3 0 19.666953 95.369287 7.452435
6996 1216 3 0 12.679635 62.251507 20.240587
6997 1217 3 0 9.872045 54.840591 9.742487
6998 1218 3 0 19.814990 96.111605 31.086352
6999 1219 3 0 3.966594 96.746475 27.918916
7000 1220 3 0 2.215882 77.716767 9.643510
7001 1221 3 0 11.831489 95.691646 10.782866
7002 1222 3 0 15.489245 68.499365 26.388575
7003 1223 3 0 1.925474 77.494193 23.791221
7004 1224 3 0 3.703413 52.056552 15.672153
7005 1225 3 0 3.234826 64.825148 33.327899
7006 1226 3 0 16.375102 63.503570 17.314775
7007 1227 3 0 11.837887 76.222484 14.994619
7008 1228 3 0 12.331272 79.347382 16.100532
7009 1229 3 0 5.558632 64.075856 26.480607
7010 1230 3 0 3.116166 62.019381 5.045084
7011 1231 3 0 16.456175 56.909260 10.529957
7012 1232 3 0 19.134778 57.995965 4.128537
7013 1233 3 0 0.054084 87.287381 4.081225
7014 1234 3 0 4.869952 86.787211 14.607409
7015 1235 3 0 15.543749 81.345338 30.260745
7016 1236 3 0 12.077700 60.421898 33.663024
7017 1237 3 0 11.120131 92.946023 15.816418
7018 1238 3 0 5.522438 56.359402 6.687502
7019 1239 3 0 15.012287 70.001357 19.098308
7020 1240 3 0 11.966495 60.353864 14.286363
7021 1241 3 0 4.776054 76.313911 20.284594
7022 1242 3 0 14.592153 50.782394 0.359230
7023 1243 3 0 19.831905 50.930867 1.979857
7024 1244 3 0 9.054607 93.671666 15.599110
7025 1245 3 0 13.527643 54.015963 18.144800
7026 1246 3 0 16.595353 95.684229 20.170137
7027 1247 3 0 1.368042 67.045223 19.866951
7028 1248 3 0 11.339058 76.778002 20.429823
7029 1249 3 0 8.267014 62.299109 13.387593
7030 1250 3 0 0.951957 74.395299 10.981232
7031 1251 3 0 3.213500 98.433733 29.136289
7032 1252 3 0 17.045152 60.528315 16.147075
7033 1253 3 0 5.578798 86.226502 22.807975
7034 1254 3 0 12.090242 93.819910 18.892824
7035 1255 3 0 17.627699 98.014764 16.555217
7036 1256 3 0 15.926676 66.304182 13.238167
7037 1257 3 0 15.350290 85.062755 19.073629
7038 1258 3 0 9.411604 91.202403 17.092646
7039 1259 3 0 9.629978 77.067840 17.375845
7040 1260 3 0 2.924085 66.708616 2.164172
7041 1261 3 0 9.706878 84.306596 25.711744
7042 1262 3 0 5.102566 48.948927 13.027004
7043 1263 3 0 14.900264 96.245832 9.527743
7044 1264 3 0 3.376539 84.215854 18.984944
7045 1265 3 0 21.775000 63.922577 27.448552
7046 1266 3 0 14.594766 48.759253 23.748149
7047 1267 3 0 15.381554 56.508168 33.662500
7048 1268 3 0 9.229275 76.162032 8.097615
7049 1269 3 0 9.141747 94.074616 9.304445
7050 1270 3 0 3.790954 66.200597 9.632054
7051 1271 3 0 19.481627 69.454031 31.071538
7052 1272 3 0 14.241638 70.997696 7.285157
7053 1273 3 0 0.955818 92.382151 19.337304
7054 1274 3 0 2.797405 80.627654 19.001488
7055 1275 3 0 21.760437 65.632485 17.223881
7056 1276 3 0 -0.000957 89.698613 28.042511
7057 1277 3 0 14.578531 79.164366 25.053882
7058 1278 3 0 17.428304 57.886843 32.519532
7059 1279 3 0 8.172443 66.074221 24.137638
7060 1280 3 0 7.670215 77.134026 26.853888
7061 1281 3 0 9.580228 53.737978 13.414049
7062 1282 3 0 20.167629 59.216269 26.602683
7063 1283 3 0 20.195919 97.574005 2.522821
7064 1284 3 0 20.413342 63.513362 11.812517
7065 1285 3 0 21.610571 73.409590 4.768596
7066 1286 3 0 18.352225 55.741375 16.675838
7067 1287 3 0 16.330430 91.818809 16.371945
7068 1288 3 0 9.732589 48.756621 23.959601
7069 1289 3 0 13.887004 74.437523 12.121482
7070 1290 3 0 0.000000 93.451685 4.974721
7071 1291 3 0 17.871577 76.573746 3.579270
7072 1292 3 0 14.303422 52.392392 22.480357
7073 1293 3 0 8.311906 64.545284 6.886543
7074 1294 3 0 8.586290 72.993962 27.047484
7075 1295 3 0 3.948826 61.140926 0.146761
7076 1296 3 0 17.869496 57.637838 0.844496
7077 1297 3 0 14.282773 62.566090 11.509989
7078 1298 3 0 16.718307 61.525561 23.031853
7079 1299 3 0 20.312286 53.841786 20.852561
7080 1300 3 0 16.006815 82.219106 2.374053
7081 1301 3 0 19.979393 63.993313 0.833834
7082 1302 3 0 15.209943 55.297179 14.506710
7083 1303 3 0 9.117252 63.526104 16.020298
7084 1304 3 0 21.775000 67.841297 31.477006
7085 1305 3 0 15.203038 53.603046 25.421586
7086 1306 3 0 6.174786 58.060093 0.000009
7087 1307 3 0 1.822597 59.796554 2.100267
7088 1308 3 0 1.786553 56.292520 3.490145
7089 1309 3 0 1.423133 86.913745 9.732521
7090 1310 3 0 0.000000 50.763978 32.909556
7091 1311 3 0 20.805348 71.823854 10.132802
7092 1312 3 0 19.773173 50.950824 24.718409
7093 1313 3 0 13.222821 94.405863 6.021841
7094 1314 3 0 10.101978 49.156026 6.693303
7095 1315 3 0 4.450813 88.943233 20.956771
7096 1316 3 0 8.797298 97.193812 4.837950
7097 1317 3 0 9.471627 68.408834 29.051817
7098 1318 3 0 21.071514 90.077674 4.089328
7099 1319 3 0 19.162338 70.872858 12.032586
7100 1320 3 0 21.774959 67.604197 11.196835
7101 1321 3 0 17.662898 84.847241 4.236055
7102 1322 3 0 17.477961 72.086124 5.961291
7103 1323 3 0 9.726272 76.048302 30.273877
7104 1324 3 0 5.618738 54.054133 11.241521
7105 1325 3 0 7.859465 59.501467 -0.000188
7106 1326 3 0 19.637508 62.605328 17.968496
7107 1327 3 0 3.005578 60.772519 22.413177
7108 1328 3 0 2.152016 96.482064 30.506363
7109 1329 3 0 15.051026 86.231838 1.509128
7110 1330 3 0 15.913217 75.597268 3.805323
7111 1331 3 0 18.172743 81.546117 2.615783
7112 1332 3 0 12.745136 53.843903 5.064050
7113 1333 3 0 7.911263 54.830888 8.319284
7114 1334 3 0 12.684318 70.343901 0.775979
7115 1335 3 0 21.775658 66.082459 7.195529
7116 1336 3 0 11.059763 95.578422 15.189467
7117 1337 3 0 2.629598 54.879164 33.662500
7118 1338 3 0 19.036490 77.814399 21.136080
7119 1339 3 0 4.927580 65.011130 20.099890
7120 1340 3 0 5.541960 72.575041 12.641456
7121 1341 3 0 17.231493 55.830438 31.762985
7122 1342 3 0 15.585103 89.307869 20.200984
7123 1343 3 0 2.270974 75.719441 22.538552
7124 1344 3 0 13.969296 94.800840 30.910158
7125 1345 3 0 13.716380 56.708415 28.999955
7126 1346 3 0 16.748151 98.566433 13.317125
7127 1347 3 0 3.359265 93.474160 16.392061
7128 1348 3 0 0.129967 62.051092 12.547421
7129 1349 3 0 18.026326 78.226873 24.793595
7130 1350 3 0 17.924633 63.610831 23.505311
7131 1351 3 0 6.200262 71.439483 29.063898
7132 1352 3 0 9.474925 69.474586 23.461742
7133 1353 3 0 8.084992 95.724790 16.781358
7134 1354 3 0 3.684237 69.919234 33.128371
7135 1355 3 0 19.681222 67.401096 2.832197
7136 1356 3 0 16.427904 88.941573 2.275325
7137 1357 3 0 2.890900 93.387891 12.479550
7138 1358 3 0 0.300772 61.022712 23.239260
7139 1359 3 0 2.519209 66.284317 17.343477
7140 1360 3 0 21.775002 90.736199 1.730372
7141 1361 3 0 15.719305 85.923405 3.913795
7142 1362 3 0 1.591590 79.409032 10.973988
7143 1363 3 0 20.758182 92.664550 13.862412
7144 1364 3 0 19.061426 97.027307 26.997101
7145 1365 3 0 3.634815 53.750985 9.602230
7146 1366 3 0 9.295011 59.073945 19.678235
7147 1367 3 0 7.654099 94.677324 26.188856
7148 1368 3 0 8.353546 95.068726 24.140470
7149 1369 3 0 6.981791 58.061546 18.564551
7150 1370 3 0 14.169968 70.421841 24.788739
7151 1371 3 0 6.188811 95.112519 31.375603
7152 1372 3 0 12.867362 98.243008 20.421673
7153 1373 3 0 4.967636 78.206171 5.889269
7154 1374 3 0 3.009336 51.566196 12.753414
7155 1375 4 2.0 5.094237 87.707193 31.128075
7156 1376 4 2.0 18.912333 72.769001 9.530160
7157 1377 4 2.0 20.844047 77.325112 27.334335
7158 1378 4 2.0 1.231776 98.550728 23.662310
7159 1379 4 2.0 4.959333 70.833099 8.091598
7160 1380 4 2.0 11.021480 68.316678 18.956010
7161 1381 4 2.0 11.570091 82.824030 25.348069
7162 1382 4 2.0 9.065639 67.362550 22.442610
7163 1383 4 2.0 7.292246 89.057450 9.459709
7164 1384 4 2.0 13.238410 63.391715 17.080335
7165 1385 4 2.0 18.459064 91.699548 30.241278
7166 1386 4 2.0 18.612515 49.878336 21.090642
7167 1387 4 2.0 6.481910 53.090248 5.032971
7168 1388 4 2.0 11.200973 60.124330 6.027738
7169 1389 4 2.0 18.765449 50.760198 8.514505
7170 1390 4 2.0 10.256879 59.201821 30.880799
7171 1391 5 -1.0 4.439743 49.385256 4.977002
7172 1392 5 -1.0 20.650524 75.106822 2.623824
7173 1393 5 -1.0 12.326168 86.449412 28.906304
7174 1394 5 -1.0 15.381353 79.968996 32.010989
7175 1395 5 -1.0 0.364079 81.828756 10.640142
7176 1396 5 -1.0 14.573452 83.571783 24.296691
7177 1397 5 -1.0 5.179236 63.436252 31.246521
7178 1398 5 -1.0 9.401276 69.796577 30.996289
7179 1399 5 -1.0 11.035384 78.686714 33.663125
7180 1400 5 -1.0 7.000549 52.766224 20.480317
7181 1401 5 -1.0 8.038304 51.869261 8.135317
7182 1402 5 -1.0 15.389405 68.756068 2.988049
7183 1403 5 -1.0 11.139706 67.651738 31.572122
7184 1404 5 -1.0 18.751572 85.329039 33.665244
7185 1405 5 -1.0 6.099104 60.756188 0.407882
7186 1406 5 -1.0 4.621527 94.009544 26.196054
7187 1407 5 -1.0 11.358557 88.907880 6.339111
7188 1408 5 -1.0 5.775420 61.686328 24.845099
7189 1409 5 -1.0 16.933958 90.781459 7.842061
7190 1410 5 -1.0 1.044916 61.802722 1.641597
7191 1411 5 -1.0 14.814041 81.227848 18.754310
7192 1412 5 -1.0 11.492591 70.632237 27.324086
7193 1413 5 -1.0 17.709651 89.460519 21.061959
7194 1414 5 -1.0 16.418982 97.814172 10.048722
7195 1415 5 -1.0 16.363321 62.990736 15.160006
7196 1416 5 -1.0 5.888051 65.719537 15.384066
7197 1417 5 -1.0 8.789048 78.893459 3.080945
7198 1418 5 -1.0 11.214121 80.236300 8.571098
7199 1419 5 -1.0 5.130569 58.966955 20.820051
7200 1420 5 -1.0 11.260717 54.352654 6.606045
7201 1421 5 -1.0 4.828100 78.175843 30.488094
7202 1422 5 -1.0 15.052702 53.635630 16.605505
7203 1423 6 0.06700000 20.609239 64.973289 3.143945
7204 1423 7 0.06700000 20.553115 65.394374 4.606500
7205 1423 8 -0.68950000 21.776012 65.047754 5.254101
7206 1423 9 -0.68950000 20.827483 63.566251 3.056542
7207 1423 10 0.10640000 21.429285 65.475036 2.620671
7208 1423 11 0.10640000 19.667539 65.209610 2.639899
7209 1423 12 0.10630000 19.738011 64.886559 5.131710
7210 1423 13 0.10630000 20.412086 66.475840 4.689593
7211 1423 14 0.40980000 21.725423 64.091203 5.428635
7212 1423 15 0.40980000 21.775619 63.430206 3.234144
7213 1424 6 0.06700000 8.236763 68.767562 12.976504
7214 1424 7 0.06700000 7.363216 67.568000 12.633727
7215 1424 8 -0.68950000 7.853539 66.938084 11.451441
7216 1424 9 -0.68950000 8.230879 69.692803 11.890723
7217 1424 10 0.10640000 9.272823 68.462534 13.154211
7218 1424 11 0.10640000 7.857517 69.276707 13.867375
7219 1424 12 0.10630000 6.328799 67.874067 12.448195
7220 1424 13 0.10630000 7.378592 66.836847 13.447079
7221 1424 14 0.40980000 7.552176 67.490474 10.708435
7222 1424 15 0.40980000 8.831893 69.322546 11.219376
7223 1425 6 0.06700000 9.851492 68.484185 26.229193
7224 1425 7 0.06700000 10.883415 67.635600 26.960333
7225 1425 8 -0.68950000 11.793370 67.068272 26.019519
7226 1425 9 -0.68950000 9.143846 67.677247 25.289451
7227 1425 10 0.10640000 10.330680 69.300470 25.679557
7228 1425 11 0.10640000 9.130566 68.905571 26.935882
7229 1425 12 0.10630000 10.404898 66.814555 27.503496
7230 1425 13 0.10630000 11.452449 68.246926 27.666620
7231 1425 14 0.40980000 11.325027 66.318177 25.612059
7232 1425 15 0.40980000 9.739796 67.568718 24.526510
7233 1426 6 0.06700000 3.260015 75.887436 12.088123
7234 1426 7 0.06700000 4.432902 75.862736 11.116910
7235 1426 8 -0.68950000 5.045015 77.150386 11.069105
7236 1426 9 -0.68950000 2.309718 76.865723 11.669892
7237 1426 10 0.10640000 3.590487 76.148419 13.098428
7238 1426 11 0.10640000 2.764099 74.912763 12.116183
7239 1426 12 0.10630000 4.101242 75.609558 10.104971
7240 1426 13 0.10630000 5.183032 75.134844 11.439151
7241 1426 14 0.40980000 4.469288 77.700495 10.508811
7242 1426 15 0.40980000 2.676535 77.727676 11.937279
7243 1427 6 0.06700000 10.150994 96.092876 28.672767
7244 1427 7 0.06700000 10.094448 97.614144 28.718335
7245 1427 8 -0.68950000 9.824543 98.045742 30.050958
7246 1427 9 -0.68950000 8.909241 95.551767 29.120291
7247 1427 10 0.10640000 10.941275 95.708262 29.325122
7248 1427 11 0.10640000 10.331910 95.745762 27.651254
7249 1427 12 0.10630000 9.298927 97.998380 28.072095
7250 1427 13 0.10630000 11.049509 98.043545 28.402368
7251 1427 14 0.40980000 8.870102 97.911038 30.188469
7252 1427 15 0.40980000 8.920861 95.621207 30.091917
7253 1428 6 0.06700000 7.490043 58.760850 21.985535
7254 1428 7 0.06700000 7.407137 57.906461 23.243579
7255 1428 8 -0.68950000 8.258826 56.769877 23.110108
7256 1428 9 -0.68950000 7.099761 57.987368 20.852208
7257 1428 10 0.10640000 8.511773 59.115168 21.816519
7258 1428 11 0.10640000 6.821967 59.623662 22.062606
7259 1428 12 0.10630000 6.386963 57.545552 23.408221
7260 1428 13 0.10630000 7.728681 58.478881 24.118397
7261 1428 14 0.40980000 7.781853 56.142929 22.537881
7262 1428 15 0.40980000 7.863455 57.422055 20.637249
7263 1429 6 0.06700000 1.681530 97.739514 10.469169
7264 1429 7 0.06700000 2.698896 96.663590 10.112960
7265 1429 8 -0.68950000 2.973050 95.861975 11.260681
7266 1429 9 -0.68950000 2.191499 98.553386 11.523953
7267 1429 10 0.10640000 0.741236 97.295148 10.810383
7268 1429 11 0.10640000 1.480299 98.378994 9.604716
7269 1429 12 0.10630000 3.641918 97.108024 9.779333
7270 1429 13 0.10630000 2.310832 96.014780 9.322509
7271 1429 14 0.40980000 3.578537 96.385427 11.815112
7272 1429 15 0.40980000 2.077206 98.035958 12.341400
7273 1430 6 0.06700000 11.313774 53.934412 0.934088
7274 1430 7 0.06700000 10.088452 54.803061 0.681970
7275 1430 8 -0.68950000 10.487984 56.038494 0.091133
7276 1430 9 -0.68950000 12.219558 54.619369 1.797462
7277 1430 10 0.10640000 11.839608 53.714166 -0.000274
7278 1430 11 0.10640000 11.025586 52.993072 1.411095
7279 1430 12 0.10630000 9.567112 55.029928 1.617307
7280 1430 13 0.10630000 9.395870 54.301434 0.000015
7281 1430 14 0.40980000 10.841490 56.581522 0.817882
7282 1430 15 0.40980000 12.677056 55.274968 1.240776
7283 1431 6 0.06700000 9.000715 96.589568 8.098559
7284 1431 7 0.06700000 9.078810 98.108127 8.012496
7285 1431 8 -0.68950000 9.114285 98.511182 6.644542
7286 1431 9 -0.68950000 10.131069 96.012131 7.447489
7287 1431 10 0.10640000 8.098781 96.212881 7.605951
7288 1431 11 0.10640000 8.998746 96.263730 9.142846
7289 1431 12 0.10630000 9.984795 98.484212 8.498160
7290 1431 13 0.10630000 8.204637 98.564997 8.485204
7291 1431 14 0.40980000 10.025748 98.351853 6.341457
7292 1431 15 0.40980000 9.946999 96.065753 6.492368
7293 1432 6 0.06700000 2.148319 73.088458 23.220291
7294 1432 7 0.06700000 0.661091 73.405902 23.137154
7295 1432 8 -0.68950000 0.115103 73.499913 24.451714
7296 1432 9 -0.68950000 2.339490 71.859277 23.918569
7297 1432 10 0.10640000 2.688677 73.871492 23.761505
7298 1432 11 0.10640000 2.576061 72.987753 22.218491
7299 1432 12 0.10630000 0.119504 72.618923 22.602863
7300 1432 13 0.10630000 0.499981 74.359709 22.626607
7301 1432 14 0.40980000 -0.000422 72.583736 24.760394
7302 1432 15 0.40980000 2.230831 72.067962 24.863904
7303 1433 6 0.06700000 0.628741 64.839666 7.329821
7304 1433 7 0.06700000 1.237448 66.185688 7.700266
7305 1433 8 -0.68950000 2.079263 66.640441 6.642175
7306 1433 9 -0.68950000 1.667442 63.891916 7.089205
7307 1433 10 0.10640000 0.025330 64.917160 6.419914
7308 1433 11 0.10640000 0.000231 64.465531 8.143275
7309 1433 12 0.10630000 1.847360 66.106479 8.605722
7310 1433 13 0.10630000 0.452878 66.930327 7.862516
7311 1433 14 0.40980000 2.908064 66.135897 6.723011
7312 1433 15 0.40980000 2.012217 64.091545 6.200221
7313 1434 6 0.06700000 6.219326 56.843968 13.030686
7314 1434 7 0.06700000 4.840986 56.201952 12.943948
7315 1434 8 -0.68950000 4.521677 55.930669 11.580329
7316 1434 9 -0.68950000 6.235003 58.053508 12.274515
7317 1434 10 0.10640000 6.989058 56.181178 12.622931
7318 1434 11 0.10640000 6.467573 57.081626 14.069243
7319 1434 12 0.10630000 4.070193 56.868006 13.344408
7320 1434 13 0.10630000 4.820954 55.259158 13.498114
7321 1434 14 0.40980000 4.254097 56.782854 11.192783
7322 1434 15 0.40980000 6.310336 57.785421 11.340991
7323 1435 6 0.06700000 3.004074 91.579685 9.726750
7324 1435 7 0.06700000 4.321400 92.305163 9.967297
7325 1435 8 -0.68950000 4.741370 92.950525 8.766404
7326 1435 9 -0.68950000 3.167674 90.617967 8.685904
7327 1435 10 0.10640000 2.219628 92.278672 9.419989
7328 1435 11 0.10640000 2.681986 91.058003 10.632739
7329 1435 12 0.10630000 5.107874 91.605054 10.266337
7330 1435 13 0.10630000 4.204926 93.064698 10.745694
7331 1435 14 0.40980000 5.119317 92.251259 8.204093
7332 1435 15 0.40980000 3.156351 91.120871 7.851654
7333 1436 6 0.06700000 3.531131 75.899380 29.481257
7334 1436 7 0.06700000 2.142057 76.506741 29.335950
7335 1436 8 -0.68950000 1.164438 75.597032 29.837647
7336 1436 9 -0.68950000 3.595065 74.667881 28.764076
7337 1436 10 0.10640000 3.762254 75.691051 30.530648
7338 1436 11 0.10640000 4.290079 76.575464 29.076763
7339 1436 12 0.10630000 1.907787 76.707688 28.285781
7340 1436 13 0.10630000 2.069623 77.439537 29.902526
7341 1436 14 0.40980000 1.045898 74.922201 29.145865
7342 1436 15 0.40980000 3.141487 74.009396 29.320562
7343 1437 6 0.06700000 0.998584 54.148009 28.906953
7344 1437 7 0.06700000 0.953009 55.663482 28.762752
7345 1437 8 -0.68950000 1.088972 56.020171 27.388235
7346 1437 9 -0.68950000 2.233696 53.652843 28.392818
7347 1437 10 0.10640000 0.186000 53.674347 28.347138
7348 1437 11 0.10640000 0.921258 53.859923 29.959443
7349 1437 12 0.10630000 1.770350 56.136669 29.316074
7350 1437 13 0.10630000 -0.000016 56.055605 29.129281
7351 1437 14 0.40980000 2.036364 55.933472 27.181008
7352 1437 15 0.40980000 2.141337 53.656275 27.423039
7353 1438 6 0.06700000 21.154756 89.401978 26.718712
7354 1438 7 0.06700000 19.675690 89.733697 26.866540
7355 1438 8 -0.68950000 19.307808 89.687891 28.244065
7356 1438 9 -0.68950000 21.412068 88.103699 27.250960
7357 1438 10 0.10640000 21.775880 90.119406 27.264188
7358 1438 11 0.10640000 21.446115 89.407939 25.664301
7359 1438 12 0.10630000 19.054177 89.011606 26.327629
7360 1438 13 0.10630000 19.467453 90.737805 26.486058
7361 1438 14 0.40980000 19.216196 88.744313 28.466055
7362 1438 15 0.40980000 21.431686 88.209644 28.219157
7363 1439 6 0.06700000 10.458871 56.262769 3.781277
7364 1439 7 0.06700000 11.916841 56.634040 4.017947
7365 1439 8 -0.68950000 12.384640 56.009029 5.211905
7366 1439 9 -0.68950000 9.669503 56.680320 4.893741
7367 1439 10 0.10640000 10.340840 55.180178 3.671247
7368 1439 11 0.10640000 10.078158 56.755837 2.882028
7369 1439 12 0.10630000 12.033754 57.715949 4.135933
7370 1439 13 0.10630000 12.539221 56.296692 3.184160
7371 1439 14 0.40980000 12.030966 56.538755 5.948326
7372 1439 15 0.40980000 9.825445 56.022708 5.595341
7373 1440 6 0.06700000 8.381719 86.683945 15.112847
7374 1440 7 0.06700000 7.409514 85.532458 15.332906
7375 1440 8 -0.68950000 8.001519 84.560905 16.193501
7376 1440 9 -0.68950000 9.589346 86.190259 14.535842
7377 1440 10 0.10640000 8.634937 87.172129 16.059208
7378 1440 11 0.10640000 7.951223 87.425479 14.433502
7379 1440 12 0.10630000 7.162502 85.039216 14.387488
7380 1440 13 0.10630000 6.487780 85.891926 15.799329
7381 1440 14 0.40980000 8.623375 84.055778 15.640190
7382 1440 15 0.40980000 10.087229 85.779747 15.265641
7383 1441 6 0.06700000 20.838358 84.086670 13.562562
7384 1441 7 0.06700000 19.954733 83.292395 14.515380
7385 1441 8 -0.68950000 18.713209 82.990324 13.881044
7386 1441 9 -0.68950000 20.176023 85.292226 13.184444
7387 1441 10 0.10640000 21.047638 83.516783 12.651808
7388 1441 11 0.10640000 21.784931 84.348149 14.044574
7389 1441 12 0.10630000 19.738888 83.865424 15.422666
7390 1441 13 0.10630000 20.438702 82.351915 14.794007
7391 1441 14 0.40980000 18.185572 83.807636 13.921190
7392 1441 15 0.40980000 19.515316 85.037003 12.515608
7393 1442 6 0.06700000 7.158733 75.561890 6.190268
7394 1442 7 0.06700000 6.995500 75.744607 4.687105
7395 1442 8 -0.68950000 8.012009 76.616317 4.195333
7396 1442 9 -0.68950000 7.073827 76.828621 6.840813
7397 1442 10 0.10640000 8.132639 75.123880 6.430466
7398 1442 11 0.10640000 6.370007 74.915609 6.586427
7399 1442 12 0.10630000 6.024774 76.190005 4.447460
7400 1442 13 0.10630000 7.084379 74.784014 4.171621
7401 1442 14 0.40980000 7.729913 77.517716 4.431789
7402 1442 15 0.40980000 7.935594 77.260678 6.700457
7403 1443 6 0.06700000 11.564090 66.995794 20.959233
7404 1443 7 0.06700000 11.996138 66.044989 22.067760
7405 1443 8 -0.68950000 12.733576 66.762035 23.056212
7406 1443 9 -0.68950000 12.713468 67.600582 20.369158
7407 1443 10 0.10640000 10.926488 67.794372 21.351379
7408 1443 11 0.10640000 11.018971 66.454873 20.180158
7409 1443 12 0.10630000 12.640265 65.250950 21.676963
7410 1443 13 0.10630000 11.123431 65.592785 22.547609
7411 1443 14 0.40980000 13.625388 66.888340 22.686442
7412 1443 15 0.40980000 12.998867 68.295879 20.988935
7413 1444 6 0.06700000 14.569333 74.386791 19.377210
7414 1444 7 0.06700000 13.450706 75.110147 20.115424
7415 1444 8 -0.68950000 12.278152 75.138265 19.303428
7416 1444 9 -0.68950000 14.842690 75.053346 18.145948
7417 1444 10 0.10640000 14.286332 73.354906 19.146635
7418 1444 11 0.10640000 15.483773 74.379707 19.977590
7419 1444 12 0.10630000 13.730626 76.144457 20.338953
7420 1444 13 0.10630000 13.211820 74.595118 21.050325
7421 1444 14 0.40980000 12.425371 75.839116 18.643772
7422 1444 15 0.40980000 14.133225 74.787476 17.533586
7423 1445 6 0.06700000 4.961229 64.576288 11.943732
7424 1445 7 0.06700000 5.823562 63.417746 12.427149
7425 1445 8 -0.68950000 5.976100 63.490031 13.843665
7426 1445 9 -0.68950000 5.570306 65.813844 12.307746
7427 1445 10 0.10640000 3.966177 64.543355 12.398515
7428 1445 11 0.10640000 4.856461 64.548886 10.855163
7429 1445 12 0.10630000 6.821268 63.455208 11.978486
7430 1445 13 0.10630000 5.355932 62.460889 12.177937
7431 1445 14 0.40980000 6.643624 64.179828 14.006768
7432 1445 15 0.40980000 5.379708 65.938379 13.254941
7433 1446 6 0.06700000 2.212256 52.149100 32.460055
7434 1446 7 0.06700000 3.619126 52.731171 32.498010
7435 1446 8 -0.68950000 4.544725 51.787519 31.961545
7436 1446 9 -0.68950000 2.171482 50.939834 33.215726
7437 1446 10 0.10640000 1.909746 51.916249 31.434234
7438 1446 11 0.10640000 1.494091 52.851975 32.892389
7439 1446 12 0.10630000 3.924685 52.956600 33.524623
7440 1446 13 0.10630000 3.672450 53.645970 31.900798
7441 1446 14 0.40980000 4.694953 51.130057 32.663817
7442 1446 15 0.40980000 2.575466 50.256652 32.650861
7443 1447 6 0.06700000 11.240029 83.896270 17.817214
7444 1447 7 0.06700000 10.241214 84.978571 18.205185
7445 1447 8 -0.68950000 10.372422 85.278818 19.593582
7446 1447 9 -0.68950000 11.005585 82.724023 18.595608
7447 1447 10 0.10640000 12.267836 84.224069 18.002152
7448 1447 11 0.10640000 11.133680 83.636806 16.759823
7449 1447 12 0.10630000 9.213024 84.647744 18.027710
7450 1447 13 0.10630000 10.425262 85.893350 17.634513
7451 1447 14 0.40980000 9.920716 84.558301 20.067742
7452 1447 15 0.40980000 11.390443 82.902758 19.472507
7453 1448 6 0.06700000 18.321773 87.012404 9.849893
7454 1448 7 0.06700000 17.801133 87.348553 8.458683
7455 1448 8 -0.68950000 17.132350 88.608295 8.486783
7456 1448 9 -0.68950000 17.234793 86.968831 10.772716
7457 1448 10 0.10640000 19.030550 87.769902 10.198997
7458 1448 11 0.10640000 18.815201 86.036065 9.849705
7459 1448 12 0.10630000 17.086282 86.595219 8.112858
7460 1448 13 0.10630000 18.627068 87.411211 7.744352
7461 1448 14 0.40980000 16.256796 88.438568 8.877435
7462 1448 15 0.40980000 17.014610 87.896632 10.972012
7463 1449 6 0.06700000 3.888684 87.726994 7.506113
7464 1449 7 0.06700000 5.174166 87.291283 8.196925
7465 1449 8 -0.68950000 6.247070 87.284814 7.256794
7466 1449 9 -0.68950000 3.593314 86.835023 6.432721
7467 1449 10 0.10640000 3.986979 88.734624 7.090105
7468 1449 11 0.10640000 3.050801 87.712079 8.209275
7469 1449 12 0.10630000 5.078537 86.280524 8.605997
7470 1449 13 0.10630000 5.427888 87.981429 9.006670
7471 1449 14 0.40980000 6.140053 86.470950 6.733170
7472 1449 15 0.40980000 4.187176 87.087436 5.702906
7473 1450 6 0.06700000 0.771924 84.268337 29.069863
7474 1450 7 0.06700000 2.114170 83.594273 29.321938
7475 1450 8 -0.68950000 3.172663 84.493865 28.997381
7476 1450 9 -0.68950000 0.679483 84.659152 27.701015
7477 1450 10 0.10640000 0.660308 85.166489 29.685417
7478 1450 11 0.10640000 -0.050249 83.581129 29.290055
7479 1450 12 0.10630000 2.229109 82.700546 28.700521
7480 1450 13 0.10630000 2.210498 83.311999 30.374271
7481 1450 14 0.40980000 3.243243 84.485914 28.026316
7482 1450 15 0.40980000 1.213494 85.469541 27.616656
7483 1451 6 0.06700000 7.859258 81.252451 29.876641
7484 1451 7 0.06700000 6.404005 80.816963 29.986721
7485 1451 8 -0.68950000 5.828405 81.358462 31.174355
7486 1451 9 -0.68950000 8.583680 80.802959 31.020405
7487 1451 10 0.10640000 7.941891 82.342969 29.832093
7488 1451 11 0.10640000 8.321953 80.823342 28.983060
7489 1451 12 0.10630000 6.321896 79.726729 30.039310
7490 1451 13 0.10630000 5.829438 81.177101 29.128505
7491 1451 14 0.40980000 6.149660 80.802107 31.905980
7492 1451 15 0.40980000 8.352518 81.415120 31.742095
7493 1452 6 0.06700000 4.735311 93.174959 4.000097
7494 1452 7 0.06700000 3.331098 93.596926 3.588198
7495 1452 8 -0.68950000 2.935972 92.878553 2.420797
7496 1452 9 -0.68950000 5.647424 93.433757 2.934217
7497 1452 10 0.10640000 4.774860 92.104616 4.225583
7498 1452 11 0.10640000 5.062513 93.736687 4.879931
7499 1452 12 0.10630000 3.293343 94.665716 3.355006
7500 1452 13 0.10630000 2.615383 93.380359 4.386454
7501 1452 14 0.40980000 3.387782 93.310465 1.674252
7502 1452 15 0.40980000 5.515295 92.716907 2.287934
7503 1453 6 0.06700000 13.791615 67.522794 30.249039
7504 1453 7 0.06700000 13.165226 66.145643 30.074049
7505 1453 8 -0.68950000 12.997455 65.528013 31.348959
7506 1453 9 -0.68950000 15.053758 67.397686 30.902007
7507 1453 10 0.10640000 13.156724 68.169276 30.863055
7508 1453 11 0.10640000 13.950322 67.998794 29.276957
7509 1453 12 0.10630000 13.803918 65.496589 29.466662
7510 1453 13 0.10630000 12.184082 66.227778 29.597632
7511 1453 14 0.40980000 13.877444 65.200140 31.606118
7512 1453 15 0.40980000 14.855180 67.259718 31.845694
7513 1454 6 0.06700000 7.084860 68.016667 32.052904
7514 1454 7 0.06700000 6.714293 69.461168 31.743671
7515 1454 8 -0.68950000 6.528792 69.619835 30.338173
7516 1454 9 -0.68950000 8.281482 67.667953 31.358987
7517 1454 10 0.10640000 6.295776 67.329884 31.730857
7518 1454 11 0.10640000 7.255681 67.885217 33.125401
7519 1454 12 0.10630000 7.506896 70.147307 32.058493
7520 1454 13 0.10630000 5.783577 69.735365 32.248593
7521 1454 14 0.40980000 7.421919 69.666389 29.953248
7522 1454 15 0.40980000 8.018441 67.506013 30.435083
7523 1455 6 0.06700000 11.971110 92.006919 8.197398
7524 1455 7 0.06700000 10.673098 91.519837 8.827829
7525 1455 8 -0.68950000 10.412072 90.179062 8.416493
7526 1455 9 -0.68950000 11.869385 91.942215 6.775958
7527 1455 10 0.10640000 12.816456 91.382824 8.503890
7528 1455 11 0.10640000 12.171546 93.043619 8.483383
7529 1455 12 0.10630000 9.826483 92.139112 8.515001
7530 1455 13 0.10630000 10.745315 91.539080 9.919056
7531 1455 14 0.40980000 10.060655 90.239974 7.510510
7532 1455 15 0.40980000 11.991800 91.004874 6.540545
7533 1456 6 0.06700000 8.258926 68.776345 5.019878
7534 1456 7 0.06700000 9.780402 68.716168 4.988005
7535 1456 8 -0.68950000 10.239236 68.855168 3.644443
7536 1456 9 -0.68950000 7.719243 67.734664 4.208294
7537 1456 10 0.10640000 7.894132 69.731587 4.629390
7538 1456 11 0.10640000 7.890760 68.645244 6.041629
7539 1456 12 0.10630000 10.144916 67.757781 5.371075
7540 1456 13 0.10630000 10.209322 69.525693 5.585550
7541 1456 14 0.40980000 10.101030 67.988527 3.222729
7542 1456 15 0.40980000 7.810035 68.037919 3.286987
7543 1457 6 0.06700000 13.498330 77.672764 22.542345
7544 1457 7 0.06700000 12.168358 78.294868 22.946929
7545 1457 8 -0.68950000 11.778924 77.805930 24.229228
7546 1457 9 -0.68950000 13.373917 76.252091 22.507192
7547 1457 10 0.10640000 14.285649 77.924827 23.259725
7548 1457 11 0.10640000 13.797672 78.018843 21.548700
7549 1457 12 0.10630000 11.379252 78.036205 22.233821
7550 1457 13 0.10630000 12.255190 79.383725 23.003615
7551 1457 14 0.40980000 11.423800 76.911887 24.078945
7552 1457 15 0.40980000 13.405847 75.956870 23.435006
7553 1458 6 0.06700000 11.792201 88.506314 30.939895
7554 1458 7 0.06700000 11.950615 87.461679 32.036787
7555 1458 8 -0.68950000 13.179672 87.673834 32.729186
7556 1458 9 -0.68950000 12.887658 88.418630 30.030328
7557 1458 10 0.10640000 11.780855 89.517865 31.357836
7558 1458 11 0.10640000 10.865437 88.340641 30.382787
7559 1458 12 0.10630000 11.969975 86.450531 31.618072
7560 1458 13 0.10630000 11.130760 87.533947 32.757188
7561 1458 14 0.40980000 13.877514 87.313732 32.153553
7562 1458 15 0.40980000 13.638906 88.853738 30.472281
7563 1459 6 0.06700000 2.116892 86.102186 1.691446
7564 1459 7 0.06700000 0.699729 85.545568 1.654683
7565 1459 8 -0.68950000 0.273807 85.403308 0.300665
7566 1459 9 -0.68950000 2.154454 87.366248 1.031324
7567 1459 10 0.10640000 2.816239 85.433477 1.179798
7568 1459 11 0.10640000 2.448184 86.241153 2.724714
7569 1459 12 0.10630000 -0.000969 86.218174 2.159403
7570 1459 13 0.10630000 0.660303 84.563552 2.134739
7571 1459 14 0.40980000 0.032535 86.297388 -0.000033
7572 1459 15 0.40980000 2.150650 87.170822 0.076961
7573 1460 6 0.06700000 12.447380 62.704481 32.213358
7574 1460 7 0.06700000 10.942256 62.709570 32.445959
7575 1460 8 -0.68950000 10.504480 64.036457 32.733593
7576 1460 9 -0.68950000 13.114952 63.199424 33.372843
7577 1460 10 0.10640000 12.717707 63.346072 31.368772
7578 1460 11 0.10640000 12.802125 61.688500 32.016768
7579 1460 12 0.10630000 10.672725 62.074240 33.295562
7580 1460 13 0.10630000 10.414824 62.356748 31.555063
7581 1460 14 0.40980000 10.744704 64.202814 33.662371
7582 1460 15 0.40980000 13.015072 64.168120 33.347013
7583 1461 6 0.06700000 6.951420 61.873578 27.989970
7584 1461 7 0.06700000 5.689435 61.489248 28.751031
7585 1461 8 -0.68950000 5.596668 60.068664 28.842377
7586 1461 9 -0.68950000 6.918913 61.300385 26.684053
7587 1461 10 0.10640000 7.846736 61.502879 28.498922
7588 1461 11 0.10640000 7.023150 62.960519 27.889365
7589 1461 12 0.10630000 4.793667 61.853088 28.237866
7590 1461 13 0.10630000 5.711930 61.900338 29.764372
7591 1461 14 0.40980000 5.280077 59.764054 27.973473
7592 1461 15 0.40980000 7.154542 60.361905 26.796960
7593 1462 6 0.06700000 4.043879 82.365946 6.402859
7594 1462 7 0.06700000 3.448262 80.967228 6.311444
7595 1462 8 -0.68950000 3.731334 80.244716 7.508464
7596 1462 9 -0.68950000 5.454113 82.276384 6.598418
7597 1462 10 0.10640000 3.620777 82.919973 7.246707
7598 1462 11 0.10640000 3.856913 82.923950 5.480697
7599 1462 12 0.10630000 3.877224 80.410393 5.472369
7600 1462 13 0.10630000 2.362794 81.019442 6.187368
7601 1462 14 0.40980000 4.658944 79.957908 7.435717
7602 1462 15 0.40980000 5.581117 82.054163 7.538366
7603 1463 6 0.06700000 16.054089 80.015763 12.212115
7604 1463 7 0.06700000 17.556743 79.768074 12.197567
7605 1463 8 -0.68950000 18.071291 79.854108 13.525290
7606 1463 9 -0.68950000 15.784468 81.305543 12.758738
7607 1463 10 0.10640000 15.538343 79.273286 12.829185
7608 1463 11 0.10640000 15.648904 79.978426 11.196665
7609 1463 12 0.10630000 18.073338 80.515323 11.586940
7610 1463 13 0.10630000 17.777870 78.771501 11.804750
7611 1463 14 0.40980000 18.133610 80.804430 13.727815
7612 1463 15 0.40980000 15.877852 81.212798 13.723979
7613 1464 6 0.06700000 10.977485 57.236477 16.971347
7614 1464 7 0.06700000 11.679506 58.495587 17.462609
7615 1464 8 -0.68950000 13.084015 58.260948 17.548112
7616 1464 9 -0.68950000 11.239774 56.158526 17.868147
7617 1464 10 0.10640000 11.338185 56.945703 15.979689
7618 1464 11 0.10640000 9.895801 57.393114 16.925162
7619 1464 12 0.10630000 11.324535 58.781834 18.457685
7620 1464 13 0.10630000 11.508861 59.325227 16.770555
7621 1464 14 0.40980000 13.221446 57.750411 18.365716
7622 1464 15 0.40980000 12.142211 55.853422 17.664352
7623 1465 6 0.06700000 6.818704 85.681757 10.873829
7624 1465 7 0.06700000 8.038743 85.579574 9.967964
7625 1465 8 -0.68950000 8.542088 84.244934 9.987741
7626 1465 9 -0.68950000 7.175681 85.313127 12.204884
7627 1465 10 0.10640000 6.022378 85.009305 10.539593
7628 1465 11 0.10640000 6.436492 86.706642 10.889055
7629 1465 12 0.10630000 8.838052 86.246177 10.306878
7630 1465 13 0.10630000 7.774435 85.834396 8.937639
7631 1465 14 0.40980000 9.035770 84.156728 10.822312
7632 1465 15 0.40980000 7.220949 84.340024 12.210855
7633 1466 6 0.06700000 15.466848 85.734490 25.842948
7634 1466 7 0.06700000 14.670827 84.674691 26.593084
7635 1466 8 -0.68950000 14.707487 84.946770 27.992955
7636 1466 9 -0.68950000 16.816385 85.739318 26.305281
7637 1466 10 0.10640000 15.049435 86.732442 26.009981
7638 1466 11 0.10640000 15.469365 85.524528 24.769348
7639 1466 12 0.10630000 15.093042 83.677669 26.432460
7640 1466 13 0.10630000 13.626628 84.676708 26.267498
7641 1466 14 0.40980000 15.580543 84.646213 28.301906
7642 1466 15 0.40980000 16.806169 86.209871 27.158211
7643 1467 6 0.06700000 5.183219 73.486062 17.724185
7644 1467 7 0.06700000 4.971109 72.073937 17.194620
7645 1467 8 -0.68950000 4.622428 72.125921 15.812329
7646 1467 9 -0.68950000 3.991141 74.249714 17.548650
7647 1467 10 0.10640000 5.990385 73.991925 17.185087
7648 1467 11 0.10640000 5.426318 73.463800 18.790541
7649 1467 12 0.10630000 4.158604 71.570881 17.728370
7650 1467 13 0.10630000 5.885849 71.483359 17.298692
7651 1467 14 0.40980000 3.683225 72.380845 15.781954
7652 1467 15 0.40980000 3.969095 74.500271 16.607507
7653 1468 6 0.06700000 4.881457 67.970877 16.950617
7654 1468 7 0.06700000 3.604870 68.800575 16.988775
7655 1468 8 -0.68950000 3.208852 69.011910 18.342849
7656 1468 9 -0.68950000 4.660649 66.718486 17.596981
7657 1468 10 0.10640000 5.698113 68.480197 17.471872
7658 1468 11 0.10640000 5.183690 67.778562 15.916994
7659 1468 12 0.10630000 2.786069 68.287641 16.474400
7660 1468 13 0.10630000 3.766195 69.775253 16.519372
7661 1468 14 0.40980000 2.791207 68.181590 18.632938
7662 1468 15 0.40980000 4.690994 66.901078 18.553408
7663 1469 6 0.06700000 5.708543 79.901686 13.448192
7664 1469 7 0.06700000 4.355569 79.273856 13.140266
7665 1469 8 -0.68950000 4.043095 79.457145 11.760492
7666 1469 9 -0.68950000 5.675780 81.292938 13.134549
7667 1469 10 0.10640000 6.501959 79.440044 12.852023
7668 1469 11 0.10640000 5.950391 79.791552 14.509365
7669 1469 12 0.10630000 3.560947 79.740950 13.730619
7670 1469 13 0.10630000 4.373202 78.200789 13.351402
7671 1469 14 0.40980000 3.741995 80.379006 11.673761
7672 1469 15 0.40980000 5.758731 81.351636 12.165690
7673 1470 6 0.06700000 11.175908 59.537989 10.704218
7674 1470 7 0.06700000 10.913805 60.187903 9.352019
7675 1470 8 -0.68950000 11.292499 59.293666 8.307058
7676 1470 9 -0.68950000 12.559079 59.208481 10.819496
7677 1470 10 0.10640000 10.598696 58.614766 10.816136
7678 1470 11 0.10640000 10.914137 60.222448 11.516437
7679 1470 12 0.10630000 11.497115 61.106932 9.236903
7680 1470 13 0.10630000 9.851618 60.422831 9.238317
7681 1470 14 0.40980000 12.263196 59.343562 8.249885
7682 1470 15 0.40980000 12.686429 58.397669 10.294729
7683 1471 16 -0.24220000 16.059772 51.252243 31.945450
7684 1471 17 -0.00400000 17.408099 51.340506 32.632821
7685 1471 18 -0.20490000 18.489302 50.933412 31.733155
7686 1471 19 -0.04490000 18.981654 49.646015 31.581102
7687 1471 20 -0.04560000 19.978822 49.712446 30.650938
7688 1471 21 -0.20630000 20.070500 51.037980 30.258993
7689 1471 22 0.10350000 19.161215 51.766780 30.923477
7690 1471 23 -0.06050000 21.001928 51.585278 29.281349
7691 1471 24 0.10980000 15.262193 51.559812 32.627960
7692 1471 25 0.10980000 15.857269 50.228375 31.616204
7693 1471 26 0.10980000 16.029842 51.898776 31.063200
7694 1471 27 0.13290000 17.430105 50.697193 33.519174
7695 1471 28 0.13290000 17.601548 52.367648 32.959558
7696 1471 29 0.22960000 18.552545 48.846619 32.161568
7697 1471 30 0.22960000 20.640372 48.983601 30.214363
7698 1471 31 0.25420000 18.997773 52.834897 30.826827
7699 1471 32 0.13210000 21.669671 50.801595 28.914656
7700 1471 33 0.13210000 21.590897 52.372835 29.758443
7701 1471 34 0.13210000 20.432028 51.999678 28.444892
7702 1472 5 -1.0 21.775000 98.550000 0.000000
7703 1473 35 -0.20950000 4.482784 76.876027 24.420061
7704 1473 36 -0.19450000 4.719111 77.496946 23.059618
7705 1473 37 -0.01740000 5.531472 78.734366 23.383791
7706 1473 38 -0.79930000 5.028690 79.208428 24.714720
7707 1473 39 0.00070000 4.331256 78.070463 25.342864
7708 1473 40 0.51130000 7.032757 78.420543 23.501352
7709 1473 41 -0.46210000 7.714539 77.905921 22.628155
7710 1473 42 -0.53780000 7.523655 78.791349 24.712938
7711 1473 43 0.11520000 5.354554 76.278979 24.715216
7712 1473 44 0.11520000 3.603010 76.225461 24.431038
7713 1473 45 0.12140000 3.758294 77.782409 22.613463
7714 1473 46 0.12140000 5.223615 76.800464 22.383115
7715 1473 47 0.14780000 5.418080 79.523841 22.633802
7716 1473 48 0.39230000 4.323495 79.930128 24.530991
7717 1473 49 0.10680000 3.271886 78.320920 25.470127
7718 1473 50 0.10680000 4.751622 77.865545 26.332849
7719 1473 51 0.48170000 6.752068 79.174847 25.202423
7720 1474 35 -0.20950000 0.898369 74.311581 5.135634
7721 1474 36 -0.19450000 0.825248 75.131228 3.864797
7722 1474 37 -0.01740000 2.151018 75.865000 3.853143
7723 1474 38 -0.79930000 2.476222 76.131097 5.292702
7724 1474 39 0.00070000 1.661954 75.201434 6.098081
7725 1474 40 0.51130000 3.273576 75.011798 3.238266
7726 1474 41 -0.46210000 3.255606 74.527643 2.116925
7727 1474 42 -0.53780000 4.309838 74.857296 4.103546
7728 1474 43 0.11520000 1.458085 73.386062 4.952062
7729 1474 44 0.11520000 -0.093120 74.042725 5.512495
7730 1474 45 0.12140000 -0.002254 75.848053 3.936325
7731 1474 46 0.12140000 0.661874 74.497611 2.987808
7732 1474 47 0.14780000 2.109388 76.805833 3.294830
7733 1474 48 0.39230000 2.149584 77.079807 5.505221
7734 1474 49 0.10680000 0.965321 75.775729 6.719432
7735 1474 50 0.10680000 2.302019 74.612719 6.763289
7736 1474 51 0.48170000 4.046712 75.354414 4.919420
7737 1475 35 -0.20950000 16.124965 59.314304 26.911779
7738 1475 36 -0.19450000 16.047530 60.825367 26.858049
7739 1475 37 -0.01740000 16.057689 61.116679 25.371019
7740 1475 38 -0.79930000 16.925199 60.057290 24.759448
7741 1475 39 0.00070000 17.011889 58.954204 25.734962
7742 1475 40 0.51130000 14.649853 61.022749 24.758370
7743 1475 41 -0.46210000 13.678836 61.667317 25.124147
7744 1475 42 -0.53780000 14.610642 60.122891 23.740953
7745 1475 43 0.11520000 15.125072 58.883537 26.776800
7746 1475 44 0.11520000 16.527074 58.953947 27.863520
7747 1475 45 0.12140000 16.937467 61.256583 27.333213
7748 1475 46 0.12140000 15.160010 61.200112 27.376840
7749 1475 47 0.14780000 16.452794 62.110506 25.136898
7750 1475 48 0.39230000 17.866605 60.453974 24.668333
7751 1475 49 0.10680000 18.051694 58.841796 26.062617
7752 1475 50 0.10680000 16.699036 58.011991 25.273305
7753 1475 51 0.48170000 15.531756 59.763880 23.672598
7754 1476 35 -0.20950000 2.839428 60.773472 10.161223
7755 1476 36 -0.19450000 2.913661 62.251731 10.479712
7756 1476 37 -0.01740000 2.171149 62.889534 9.322946
7757 1476 38 -0.79930000 2.462349 62.025279 8.132499
7758 1476 39 0.00070000 2.926846 60.723413 8.647600
7759 1476 40 0.51130000 0.651596 62.914635 9.560619
7760 1476 41 -0.46210000 0.097616 63.432584 10.518205
7761 1476 42 -0.53780000 -0.017382 62.282858 8.560747
7762 1476 43 0.11520000 1.877889 60.366236 10.497630
7763 1476 44 0.11520000 3.639673 60.205079 10.644850
7764 1476 45 0.12140000 3.961812 62.575914 10.480079
7765 1476 46 0.12140000 2.480694 62.472978 11.459946
7766 1476 47 0.14780000 2.491112 63.918669 9.130286
7767 1476 48 0.39230000 3.251702 62.452123 7.635878
7768 1476 49 0.10680000 3.963210 60.558165 8.331638
7769 1476 50 0.10680000 2.315367 59.912125 8.239345
7770 1476 51 0.48170000 0.682947 61.970140 7.933244
7771 1477 35 -0.20950000 18.421567 72.756380 23.922411
7772 1477 36 -0.19450000 19.114152 74.101658 23.869955
7773 1477 37 -0.01740000 17.990987 75.051740 23.506541
7774 1477 38 -0.79930000 17.078455 74.271061 22.608364
7775 1477 39 0.00070000 17.376881 72.842929 22.825897
7776 1477 40 0.51130000 17.200983 75.506766 24.745495
7777 1477 41 -0.46210000 17.681436 76.062750 25.721293
7778 1477 42 -0.53780000 15.879318 75.214671 24.625907
7779 1477 43 0.11520000 17.935876 72.623527 24.897101
7780 1477 44 0.11520000 19.117991 71.926024 23.771214
7781 1477 45 0.12140000 19.873267 74.094113 23.077868
7782 1477 46 0.12140000 19.604272 74.337644 24.819355
7783 1477 47 0.14780000 18.346611 75.951591 22.994278
7784 1477 48 0.39230000 17.345051 74.491181 21.642765
7785 1477 49 0.10680000 17.763498 72.408466 21.896942
7786 1477 50 0.10680000 16.465793 72.300761 23.099287
7787 1477 51 0.48170000 15.786800 74.774330 23.742984
7788 1478 35 -0.20950000 9.016527 92.382812 23.748299
7789 1478 36 -0.19450000 8.489653 90.963794 23.779691
7790 1478 37 -0.01740000 8.407532 90.595857 22.312004
7791 1478 38 -0.79930000 8.049467 91.865308 21.598435
7792 1478 39 0.00070000 8.379487 92.979188 22.507445
7793 1478 40 0.51130000 9.754090 90.083956 21.772653
7794 1478 41 -0.46210000 10.378759 89.136503 22.224603
7795 1478 42 -0.53780000 10.176317 90.821290 20.712238
7796 1478 43 0.11520000 10.108694 92.374046 23.645049
7797 1478 44 0.11520000 8.763184 92.938672 24.656150
7798 1478 45 0.12140000 7.488409 90.952839 24.228137
7799 1478 46 0.12140000 9.140356 90.307305 24.365248
7800 1478 47 0.14780000 7.657491 89.824283 22.110199
7801 1478 48 0.39230000 7.030984 91.866298 21.477607
7802 1478 49 0.10680000 7.460646 93.515040 22.771610
7803 1478 50 0.10680000 9.053595 93.686751 22.013783
7804 1478 51 0.48170000 9.475595 91.508398 20.574820
7805 1479 35 -0.20950000 15.111079 66.984600 10.381159
7806 1479 36 -0.19450000 15.591581 68.094764 9.470747
7807 1479 37 -0.01740000 14.531109 68.134471 8.389061
7808 1479 38 -0.79930000 14.079783 66.714895 8.215837
7809 1479 39 0.00070000 14.482688 65.982570 9.431283
7810 1479 40 0.51130000 13.323865 68.994388 8.800484
7811 1479 41 -0.46210000 13.376612 70.169372 9.130279
7812 1479 42 -0.53780000 12.167776 68.281994 8.751783
7813 1479 43 0.11520000 14.355415 67.371475 11.076045
7814 1479 44 0.11520000 15.925210 66.549438 10.968681
7815 1479 45 0.12140000 16.562079 67.821686 9.037992
7816 1479 46 0.12140000 15.705804 69.037691 10.013989
7817 1479 47 0.14780000 14.908511 68.529602 7.440350
7818 1479 48 0.39230000 14.615746 66.321261 7.435003
7819 1479 49 0.10680000 15.208353 65.206522 9.162307
7820 1479 50 0.10680000 13.615584 65.491986 9.885405
7821 1479 51 0.48170000 12.431313 67.374260 8.454159
7822 1480 35 -0.20950000 17.208734 76.869173 32.061258
7823 1480 36 -0.19450000 17.443729 75.479058 32.613122
7824 1480 37 -0.01740000 16.088605 74.817412 32.464505
7825 1480 38 -0.79930000 15.082467 75.908607 32.678696
7826 1480 39 0.00070000 15.785907 77.189632 32.478480
7827 1480 40 0.51130000 15.890154 74.225717 31.058562
7828 1480 41 -0.46210000 16.621033 73.400033 30.533017
7829 1480 42 -0.53780000 14.784000 74.736546 30.456985
7830 1480 43 0.11520000 17.287419 76.855433 30.967099
7831 1480 44 0.11520000 17.930730 77.595282 32.447066
7832 1480 45 0.12140000 17.717049 75.545464 33.673593
7833 1480 46 0.12140000 18.248375 74.965870 32.077910
7834 1480 47 0.14780000 15.930116 74.009987 33.186696
7835 1480 48 0.39230000 14.800943 75.869959 33.664169
7836 1480 49 0.10680000 15.782934 77.754709 33.417558
7837 1480 50 0.10680000 15.273743 77.790981 31.720301
7838 1480 51 0.48170000 14.397677 75.370675 31.113223
7839 1481 35 -0.20950000 18.490867 96.022142 11.692605
7840 1481 36 -0.19450000 17.270580 95.127968 11.633027
7841 1481 37 -0.01740000 17.722244 93.990338 10.739706
7842 1481 38 -0.79930000 18.658259 94.607929 9.744038
7843 1481 39 0.00070000 19.100811 95.896538 10.309349
7844 1481 40 0.51130000 18.477642 92.906904 11.528191
7845 1481 41 -0.46210000 18.033500 92.297628 12.489262
7846 1481 42 -0.53780000 19.720990 92.700057 11.020533
7847 1481 43 0.11520000 19.191580 95.648683 12.449636
7848 1481 44 0.11520000 18.234761 97.055889 11.943872
7849 1481 45 0.12140000 16.440013 95.669645 11.163496
7850 1481 46 0.12140000 16.957711 94.809419 12.631980
7851 1481 47 0.14780000 16.889890 93.501348 10.223288
7852 1481 48 0.39230000 18.108508 94.819809 8.904522
7853 1481 49 0.10680000 18.753956 96.712513 9.665095
7854 1481 50 0.10680000 20.194102 95.939207 10.350112
7855 1481 51 0.48170000 19.799744 93.325860 10.256215
7856 1482 35 -0.20950000 20.825313 50.442753 16.019186
7857 1482 36 -0.19450000 19.702322 51.428987 16.260908
7858 1482 37 -0.01740000 18.526927 50.792005 15.547518
7859 1482 38 -0.79930000 19.110688 50.090414 14.357606
7860 1482 39 0.00070000 20.550994 49.915193 14.623610
7861 1482 40 0.51130000 17.809926 49.758555 16.432985
7862 1482 41 -0.46210000 17.330150 49.986538 17.532974
7863 1482 42 -0.53780000 17.769193 48.537987 15.837191
7864 1482 43 0.11520000 20.769385 49.625948 16.749437
7865 1482 44 0.11520000 21.811439 50.909556 16.102907
7866 1482 45 0.12140000 19.950520 52.390742 15.794926
7867 1482 46 0.12140000 19.535802 51.592970 17.329856
7868 1482 47 0.14780000 17.779569 51.524373 15.225484
7869 1482 48 0.39230000 19.026919 50.729412 13.559752
7870 1482 49 0.10680000 21.127255 50.481204 13.882839
7871 1482 50 0.10680000 20.829242 48.860037 14.534205
7872 1482 51 0.48170000 18.228312 48.655420 14.966885
7873 1483 35 -0.20950000 13.515334 96.367335 14.301608
7874 1483 36 -0.19450000 14.439904 97.522926 13.982270
7875 1483 37 -0.01740000 15.420222 97.507257 15.137673
7876 1483 38 -0.79930000 14.630677 97.053221 16.329045
7877 1483 39 0.00070000 13.418808 96.387296 15.815374
7878 1483 40 0.51130000 16.573674 96.518175 14.898032
7879 1483 41 -0.46210000 17.330476 96.538664 13.939405
7880 1483 42 -0.53780000 16.656604 95.601273 15.897447
7881 1483 43 0.11520000 13.964290 95.424903 13.964227
7882 1483 44 0.11520000 12.538787 96.472990 13.819373
7883 1483 45 0.12140000 13.870577 98.460785 13.983042
7884 1483 46 0.12140000 14.909308 97.401662 13.001340
7885 1483 47 0.14780000 15.863699 98.489560 15.330087
7886 1483 48 0.39230000 14.323802 97.896053 16.826407
7887 1483 49 0.10680000 12.534088 96.950960 16.132772
7888 1483 50 0.10680000 13.338817 95.374420 16.223361
7889 1483 51 0.48170000 15.925962 95.831566 16.526049
7890 1484 35 -0.20950000 17.146093 92.572687 24.568108
7891 1484 36 -0.19450000 15.993333 93.425036 24.081444
7892 1484 37 -0.01740000 15.981775 93.166201 22.588429
7893 1484 38 -0.79930000 17.417671 92.969771 22.203050
7894 1484 39 0.00070000 18.156340 92.649577 23.439085
7895 1484 40 0.51130000 15.192066 91.895008 22.232633
7896 1484 41 -0.46210000 14.023627 91.688221 22.522680
7897 1484 42 -0.53780000 15.959465 91.011197 21.542420
7898 1484 43 0.11520000 16.812779 91.536705 24.706704
7899 1484 44 0.11520000 17.553583 92.930974 25.518340
7900 1484 45 0.12140000 16.208293 94.482520 24.279517
7901 1484 46 0.12140000 15.058372 93.159928 24.584272
7902 1484 47 0.14780000 15.547228 93.993844 22.018527
7903 1484 48 0.39230000 17.766662 93.874476 21.868951
7904 1484 49 0.10680000 18.889318 93.439844 23.637606
7905 1484 50 0.10680000 18.699283 91.705705 23.324678
7906 1484 51 0.48170000 16.846135 91.445206 21.456015
7907 1485 35 -0.20950000 5.769291 61.222541 6.545335
7908 1485 36 -0.19450000 6.078964 62.693644 6.724649
7909 1485 37 -0.01740000 6.245251 63.185179 5.300933
7910 1485 38 -0.79930000 6.849922 62.038251 4.547391
7911 1485 39 0.00070000 6.600779 60.820613 5.341888
7912 1485 40 0.51130000 4.895736 63.547646 4.657823
7913 1485 41 -0.46210000 4.100060 64.360742 5.102694
7914 1485 42 -0.53780000 4.687423 62.845965 3.512979
7915 1485 43 0.11520000 4.702172 61.088665 6.328771
7916 1485 44 0.11520000 6.013676 60.636407 7.436448
7917 1485 45 0.12140000 7.021006 62.806928 7.275500
7918 1485 46 0.12140000 5.287294 63.205254 7.280332
7919 1485 47 0.14780000 6.890878 64.066505 5.229914
7920 1485 48 0.39230000 7.864547 62.187491 4.534370
7921 1485 49 0.10680000 7.558580 60.397393 5.665448
7922 1485 50 0.10680000 6.086442 60.068387 4.734944
7923 1485 51 0.48170000 5.490397 62.275317 3.405241
7924 1486 35 -0.20950000 15.819078 64.616261 2.901411
7925 1486 36 -0.19450000 17.085586 64.994475 2.163097
7926 1486 37 -0.01740000 16.600511 65.226170 0.746324
7927 1486 38 -0.79930000 15.480512 64.250514 0.539943
7928 1486 39 0.00070000 15.023417 63.828928 1.877579
7929 1486 40 0.51130000 16.060482 66.653184 0.550967
7930 1486 41 -0.46210000 16.689867 67.678695 0.761533
7931 1486 42 -0.53780000 14.776631 66.641131 0.105998
7932 1486 43 0.11520000 15.270706 65.521173 3.191219
7933 1486 44 0.11520000 16.024835 64.036414 3.806286
7934 1486 45 0.12140000 17.790841 64.154408 2.187930
7935 1486 46 0.12140000 17.567604 65.866889 2.614563
7936 1486 47 0.14780000 17.384193 65.065715 -0.001144
7937 1486 48 0.39230000 15.880990 63.423859 0.083690
7938 1486 49 0.10680000 15.203794 62.754808 1.999722
7939 1486 50 0.10680000 13.948370 64.005805 1.986006
7940 1486 51 0.48170000 14.535164 65.683246 0.027491
7941 1487 35 -0.20950000 10.486238 97.938321 24.515457
7942 1487 36 -0.19450000 10.739523 96.570697 25.113492
7943 1487 37 -0.01740000 11.270361 95.775283 23.938012
7944 1487 38 -0.79930000 10.555928 96.311913 22.733641
7945 1487 39 0.00070000 10.022407 97.636629 23.102996
7946 1487 40 0.51130000 12.784044 95.972708 23.748406
7947 1487 41 -0.46210000 13.634579 95.748042 24.595902
7948 1487 42 -0.53780000 13.072038 96.433474 22.502946
7949 1487 43 0.11520000 11.419398 98.514693 24.491491
7950 1487 44 0.11520000 9.746367 98.508733 25.085176
7951 1487 45 0.12140000 9.792612 96.140887 25.463259
7952 1487 46 0.12140000 11.430711 96.624951 25.960006
7953 1487 47 0.14780000 11.088649 94.700252 24.037515
7954 1487 48 0.39230000 9.751079 95.699587 22.562813
7955 1487 49 0.10680000 8.927590 97.610770 23.059450
7956 1487 50 0.10680000 10.371044 98.397884 22.397508
7957 1487 51 0.48170000 12.197014 96.517506 22.045469
7958 1488 35 -0.20950000 12.152593 52.098926 28.967766
7959 1488 36 -0.19450000 10.703875 51.660455 28.933795
7960 1488 37 -0.01740000 9.947672 52.973538 28.947784
7961 1488 38 -0.79930000 10.774775 53.905243 29.782484
7962 1488 39 0.00070000 12.135948 53.339729 29.840310
7963 1488 40 0.51130000 9.801346 53.566388 27.535948
7964 1488 41 -0.46210000 9.284404 53.000067 26.585060
7965 1488 42 -0.53780000 10.322441 54.819471 27.467664
7966 1488 43 0.11520000 12.490094 52.353634 27.955450
7967 1488 44 0.11520000 12.811833 51.319723 29.362234
7968 1488 45 0.12140000 10.473075 51.082355 29.837258
7969 1488 46 0.12140000 10.493839 51.037572 28.059055
7970 1488 47 0.14780000 8.942295 52.878714 29.370676
7971 1488 48 0.39230000 10.394852 53.874776 30.734659
7972 1488 49 0.10680000 12.375595 53.078740 30.877442
7973 1488 50 0.10680000 12.869645 54.077263 29.498986
7974 1488 51 0.48170000 10.664152 55.011454 28.377822
7975 1489 35 -0.20950000 11.960677 75.231457 10.074729
7976 1489 36 -0.19450000 11.663524 73.824056 10.547084
7977 1489 37 -0.01740000 12.541539 72.970209 9.654750
7978 1489 38 -0.79930000 12.584060 73.679877 8.334349
7979 1489 39 0.00070000 12.174813 75.075436 8.581074
7980 1489 40 0.51130000 13.973839 72.851831 10.203082
7981 1489 41 -0.46210000 14.270848 72.429118 11.309985
7982 1489 42 -0.53780000 14.889681 73.278673 9.294535
7983 1489 43 0.11520000 12.877540 75.600115 10.551197
7984 1489 44 0.11520000 11.149405 75.927056 10.309970
7985 1489 45 0.12140000 10.606016 73.591900 10.369618
7986 1489 46 0.12140000 11.870887 73.707350 11.615095
7987 1489 47 0.14780000 12.153597 71.954595 9.525749
7988 1489 48 0.39230000 11.863977 73.254967 7.740346
7989 1489 49 0.10680000 11.244157 75.280685 8.039833
7990 1489 50 0.10680000 12.939551 75.767321 8.213323
7991 1489 51 0.48170000 14.363313 73.557536 8.502584
7992 1490 35 -0.20950000 2.001988 60.476469 17.840457
7993 1490 36 -0.19450000 1.297453 59.137324 17.790260
7994 1490 37 -0.01740000 1.903759 58.386756 18.958706
7995 1490 38 -0.79930000 3.325261 58.856688 19.044696
7996 1490 39 0.00070000 3.403554 60.131983 18.307517
7997 1490 40 0.51130000 1.190454 58.712426 20.282072
7998 1490 41 -0.46210000 -0.003530 58.563895 20.492968
7999 1490 42 -0.53780000 2.060099 59.192434 21.209286
8000 1490 43 0.11520000 1.510450 61.130508 18.571340
8001 1490 44 0.11520000 1.997639 60.983168 16.870615
8002 1490 45 0.12140000 1.539740 58.629103 16.848600
8003 1490 46 0.12140000 0.211244 59.253050 17.853703
8004 1490 47 0.14780000 1.872077 57.300420 18.826489
8005 1490 48 0.39230000 3.898884 58.177227 18.533624
8006 1490 49 0.10680000 4.072482 60.012400 17.447619
8007 1490 50 0.10680000 3.814724 60.918175 18.949087
8008 1490 51 0.48170000 2.943844 59.199913 20.761010

Bonds

1 1 1 2
2 1 1 3
4 1 4 5
6 1 4 6
8 1 7 8
10 1 7 9
12 1 10 11
14 1 10 12
16 1 13 14
18 1 13 15
19 1 16 17
3 1 16 18
5 1 19 20
7 1 19 21
9 1 22 23
11 1 22 24
13 1 25 26
15 1 25 27
17 1 28 29
20 1 28 30
21 1 31 32
22 1 31 33
23 1 34 35
24 1 34 36
25 1 37 38
26 1 37 39
27 1 40 41
28 1 40 42
29 1 43 44
30 1 43 45
31 1 46 47
32 1 46 48
33 1 49 50
34 1 49 51
35 1 52 53
36 1 52 54
37 1 55 56
38 1 55 57
39 1 58 59
40 1 58 60
41 1 61 62
42 1 61 63
43 1 64 65
44 1 64 66
45 1 67 68
46 1 67 69
47 1 70 71
48 1 70 72
49 1 73 74
50 1 73 75
51 1 76 77
52 1 76 78
53 1 79 80
54 1 79 81
55 1 82 83
56 1 82 84
57 1 85 86
58 1 85 87
59 1 88 89
60 1 88 90
61 1 91 92
62 1 91 93
63 1 94 95
64 1 94 96
65 1 97 98
66 1 97 99
67 1 100 101
68 1 100 102
69 1 103 104
70 1 103 105
71 1 106 107
72 1 106 108
73 1 109 110
74 1 109 111
75 1 112 113
76 1 112 114
77 1 115 116
78 1 115 117
79 1 118 119
80 1 118 120
81 1 121 122
82 1 121 123
83 1 124 125
84 1 124 126
85 1 127 128
86 1 127 129
87 1 130 131
88 1 130 132
89 1 133 134
90 1 133 135
91 1 136 137
92 1 136 138
93 1 147 148
94 1 147 149
96 1 150 151
98 1 150 152
100 1 153 154
102 1 153 155
104 1 156 157
106 1 156 158
108 1 159 160
110 1 159 161
111 1 162 163
95 1 162 164
97 1 165 166
99 1 165 167
101 1 168 169
103 1 168 170
105 1 171 172
107 1 171 173
109 1 174 175
112 1 174 176
113 1 177 178
114 1 177 179
115 1 180 181
116 1 180 182
117 1 183 184
118 1 183 185
119 1 186 187
120 1 186 188
121 1 189 190
122 1 189 191
123 1 192 193
124 1 192 194
125 1 195 196
126 1 195 197
127 1 198 199
128 1 198 200
129 1 201 202
130 1 201 203
131 1 204 205
132 1 204 206
133 1 207 208
134 1 207 209
135 1 210 211
136 1 210 212
137 1 213 214
138 1 213 215
139 1 216 217
140 1 216 218
141 1 219 220
142 1 219 221
143 1 222 223
144 1 222 224
145 1 225 226
146 1 225 227
147 1 228 229
148 1 228 230
149 1 231 232
150 1 231 233
151 1 234 235
152 1 234 236
153 1 237 238
154 1 237 239
155 1 240 241
156 1 240 242
157 1 243 244
158 1 243 245
159 1 246 247
160 1 246 248
161 1 249 250
162 1 249 251
163 1 252 253
164 1 252 254
165 1 255 256
166 1 255 257
167 1 258 259
168 1 258 260
169 1 261 262
170 1 261 263
171 1 264 265
172 1 264 266
173 1 267 268
174 1 267 269
175 1 270 271
176 1 270 272
177 1 273 274
178 1 273 275
179 1 276 277
180 1 276 278
181 1 279 280
182 1 279 281
183 1 282 283
184 1 282 284
185 1 293 294
186 1 293 295
188 1 296 297
190 1 296 298
192 1 299 300
194 1 299 301
196 1 302 303
198 1 302 304
200 1 305 306
202 1 305 307
203 1 308 309
187 1 308 310
189 1 311 312
191 1 311 313
193 1 314 315
195 1 314 316
197 1 317 318
199 1 317 319
201 1 320 321
204 1 320 322
205 1 323 324
206 1 323 325
207 1 326 327
208 1 326 328
209 1 329 330
210 1 329 331
211 1 332 333
212 1 332 334
213 1 335 336
214 1 335 337
215 1 338 339
216 1 338 340
217 1 341 342
218 1 341 343
219 1 344 345
220 1 344 346
221 1 347 348
222 1 347 349
223 1 350 351
224 1 350 352
225 1 353 354
226 1 353 355
227 1 356 357
228 1 356 358
229 1 359 360
230 1 359 361
231 1 362 363
232 1 362 364
233 1 365 366
234 1 365 367
235 1 368 369
236 1 368 370
237 1 371 372
238 1 371 373
239 1 374 375
240 1 374 376
241 1 377 378
242 1 377 379
243 1 380 381
244 1 380 382
245 1 383 384
246 1 383 385
247 1 386 387
248 1 386 388
249 1 389 390
250 1 389 391
251 1 392 393
252 1 392 394
253 1 395 396
254 1 395 397
255 1 398 399
256 1 398 400
257 1 401 402
258 1 401 403
259 1 404 405
260 1 404 406
261 1 407 408
262 1 407 409
263 1 410 411
264 1 410 412
265 1 413 414
266 1 413 415
267 1 416 417
268 1 416 418
269 1 419 420
270 1 419 421
271 1 422 423
272 1 422 424
273 1 425 426
274 1 425 427
275 1 428 429
276 1 428 430
277 1 439 440
278 1 439 441
280 1 442 443
282 1 442 444
284 1 445 446
286 1 445 447
288 1 448 449
290 1 448 450
292 1 451 452
294 1 451 453
295 1 454 455
279 1 454 456
281 1 457 458
283 1 457 459
285 1 460 461
287 1 460 462
289 1 463 464
291 1 463 465
293 1 466 467
296 1 466 468
297 1 469 470
298 1 469 471
299 1 472 473
300 1 472 474
301 1 475 476
302 1 475 477
303 1 478 479
304 1 478 480
305 1 481 482
306 1 481 483
307 1 484 485
308 1 484 486
309 1 487 488
310 1 487 489
311 1 490 491
312 1 490 492
313 1 493 494
314 1 493 495
315 1 496 497
316 1 496 498
317 1 499 500
318 1 499 501
319 1 502 503
320 1 502 504
321 1 505 506
322 1 505 507
323 1 508 509
324 1 508 510
325 1 511 512
326 1 511 513
327 1 514 515
328 1 514 516
329 1 517 518
330 1 517 519
331 1 520 521
332 1 520 522
333 1 523 524
334 1 523 525
335 1 526 527
336 1 526 528
337 1 529 530
338 1 529 531
339 1 532 533
340 1 532 534
341 1 535 536
342 1 535 537
343 1 538 539
344 1 538 540
345 1 541 542
346 1 541 543
347 1 544 545
348 1 544 546
349 1 547 548
350 1 547 549
351 1 550 551
352 1 550 552
353 1 553 554
354 1 553 555
355 1 556 557
356 1 556 558
357 1 559 560
358 1 559 561
359 1 562 563
360 1 562 564
361 1 565 566
362 1 565 567
363 1 568 569
364 1 568 570
365 1 571 572
366 1 571 573
367 1 574 575
368 1 574 576
369 1 585 586
370 1 585 587
372 1 588 589
374 1 588 590
376 1 591 592
378 1 591 593
380 1 594 595
382 1 594 596
384 1 597 598
386 1 597 599
387 1 600 601
371 1 600 602
373 1 603 604
375 1 603 605
377 1 606 607
379 1 606 608
381 1 609 610
383 1 609 611
385 1 612 613
388 1 612 614
389 1 615 616
390 1 615 617
391 1 618 619
392 1 618 620
393 1 621 622
394 1 621 623
395 1 624 625
396 1 624 626
397 1 627 628
398 1 627 629
399 1 630 631
400 1 630 632
401 1 633 634
402 1 633 635
403 1 636 637
404 1 636 638
405 1 639 640
406 1 639 641
407 1 642 643
408 1 642 644
409 1 645 646
410 1 645 647
411 1 648 649
412 1 648 650
413 1 651 652
414 1 651 653
415 1 654 655
416 1 654 656
417 1 657 658
418 1 657 659
419 1 660 661
420 1 660 662
421 1 663 664
422 1 663 665
423 1 666 667
424 1 666 668
425 1 669 670
426 1 669 671
427 1 672 673
428 1 672 674
429 1 675 676
430 1 675 677
431 1 678 679
432 1 678 680
433 1 681 682
434 1 681 683
435 1 684 685
436 1 684 686
437 1 687 688
438 1 687 689
439 1 690 691
440 1 690 692
441 1 693 694
442 1 693 695
443 1 696 697
444 1 696 698
445 1 699 700
446 1 699 701
447 1 702 703
448 1 702 704
449 1 705 706
450 1 705 707
451 1 708 709
452 1 708 710
453 1 711 712
454 1 711 713
455 1 714 715
456 1 714 716
457 1 717 718
458 1 717 719
459 1 720 721
460 1 720 722
461 1 731 732
462 1 731 733
464 1 734 735
466 1 734 736
468 1 737 738
470 1 737 739
472 1 740 741
474 1 740 742
476 1 743 744
478 1 743 745
479 1 746 747
463 1 746 748
465 1 749 750
467 1 749 751
469 1 752 753
471 1 752 754
473 1 755 756
475 1 755 757
477 1 758 759
480 1 758 760
481 1 761 762
482 1 761 763
483 1 764 765
484 1 764 766
485 1 767 768
486 1 767 769
487 1 770 771
488 1 770 772
489 1 773 774
490 1 773 775
491 1 776 777
492 1 776 778
493 1 779 780
494 1 779 781
495 1 782 783
496 1 782 784
497 1 785 786
498 1 785 787
499 1 788 789
500 1 788 790
501 1 791 792
502 1 791 793
503 1 794 795
504 1 794 796
505 1 797 798
506 1 797 799
507 1 800 801
508 1 800 802
509 1 803 804
510 1 803 805
511 1 806 807
512 1 806 808
513 1 809 810
514 1 809 811
515 1 812 813
516 1 812 814
517 1 815 816
518 1 815 817
519 1 818 819
520 1 818 820
521 1 821 822
522 1 821 823
523 1 824 825
524 1 824 826
525 1 827 828
526 1 827 829
527 1 830 831
528 1 830 832
529 1 833 834
530 1 833 835
531 1 836 837
532 1 836 838
533 1 839 840
534 1 839 841
535 1 842 843
536 1 842 844
537 1 845 846
538 1 845 847
539 1 848 849
540 1 848 850
541 1 851 852
542 1 851 853
543 1 854 855
544 1 854 856
545 1 857 858
546 1 857 859
547 1 860 861
548 1 860 862
549 1 863 864
550 1 863 865
551 1 866 867
552 1 866 868
553 1 877 878
554 1 877 879
556 1 880 881
558 1 880 882
560 1 883 884
562 1 883 885
564 1 886 887
566 1 886 888
568 1 889 890
570 1 889 891
571 1 892 893
555 1 892 894
557 1 895 896
559 1 895 897
561 1 898 899
563 1 898 900
565 1 901 902
567 1 901 903
569 1 904 905
572 1 904 906
573 1 907 908
574 1 907 909
575 1 910 911
576 1 910 912
577 1 913 914
578 1 913 915
579 1 916 917
580 1 916 918
581 1 919 920
582 1 919 921
583 1 922 923
584 1 922 924
585 1 925 926
586 1 925 927
587 1 928 929
588 1 928 930
589 1 931 932
590 1 931 933
591 1 934 935
592 1 934 936
593 1 937 938
594 1 937 939
595 1 940 941
596 1 940 942
597 1 943 944
598 1 943 945
599 1 946 947
600 1 946 948
601 1 949 950
602 1 949 951
603 1 952 953
604 1 952 954
605 1 955 956
606 1 955 957
607 1 958 959
608 1 958 960
609 1 961 962
610 1 961 963
611 1 964 965
612 1 964 966
613 1 967 968
614 1 967 969
615 1 970 971
616 1 970 972
617 1 973 974
618 1 973 975
619 1 976 977
620 1 976 978
621 1 979 980
622 1 979 981
623 1 982 983
624 1 982 984
625 1 985 986
626 1 985 987
627 1 988 989
628 1 988 990
629 1 991 992
630 1 991 993
631 1 994 995
632 1 994 996
633 1 997 998
634 1 997 999
635 1 1000 1001
636 1 1000 1002
637 1 1003 1004
638 1 1003 1005
639 1 1006 1007
640 1 1006 1008
641 1 1009 1010
642 1 1009 1011
643 1 1012 1013
644 1 1012 1014
645 1 1023 1024
646 1 1023 1025
648 1 1026 1027
650 1 1026 1028
652 1 1029 1030
654 1 1029 1031
656 1 1032 1033
658 1 1032 1034
660 1 1035 1036
662 1 1035 1037
663 1 1038 1039
647 1 1038 1040
649 1 1041 1042
651 1 1041 1043
653 1 1044 1045
655 1 1044 1046
657 1 1047 1048
659 1 1047 1049
661 1 1050 1051
664 1 1050 1052
665 1 1053 1054
666 1 1053 1055
667 1 1056 1057
668 1 1056 1058
669 1 1059 1060
670 1 1059 1061
671 1 1062 1063
672 1 1062 1064
673 1 1065 1066
674 1 1065 1067
675 1 1068 1069
676 1 1068 1070
677 1 1071 1072
678 1 1071 1073
679 1 1074 1075
680 1 1074 1076
681 1 1077 1078
682 1 1077 1079
683 1 1080 1081
684 1 1080 1082
685 1 1083 1084
686 1 1083 1085
687 1 1086 1087
688 1 1086 1088
689 1 1089 1090
690 1 1089 1091
691 1 1092 1093
692 1 1092 1094
693 1 1095 1096
694 1 1095 1097
695 1 1098 1099
696 1 1098 1100
697 1 1101 1102
698 1 1101 1103
699 1 1104 1105
700 1 1104 1106
701 1 1107 1108
702 1 1107 1109
703 1 1110 1111
704 1 1110 1112
705 1 1113 1114
706 1 1113 1115
707 1 1116 1117
708 1 1116 1118
709 1 1119 1120
710 1 1119 1121
711 1 1122 1123
712 1 1122 1124
713 1 1125 1126
714 1 1125 1127
715 1 1128 1129
716 1 1128 1130
717 1 1131 1132
718 1 1131 1133
719 1 1134 1135
720 1 1134 1136
721 1 1137 1138
722 1 1137 1139
723 1 1140 1141
724 1 1140 1142
725 1 1143 1144
726 1 1143 1145
727 1 1146 1147
728 1 1146 1148
729 1 1149 1150
730 1 1149 1151
731 1 1152 1153
732 1 1152 1154
733 1 1155 1156
734 1 1155 1157
735 1 1158 1159
736 1 1158 1160
737 1 1169 1170
738 1 1169 1171
740 1 1172 1173
742 1 1172 1174
744 1 1175 1176
746 1 1175 1177
748 1 1178 1179
750 1 1178 1180
752 1 1181 1182
754 1 1181 1183
755 1 1184 1185
739 1 1184 1186
741 1 1187 1188
743 1 1187 1189
745 1 1190 1191
747 1 1190 1192
749 1 1193 1194
751 1 1193 1195
753 1 1196 1197
756 1 1196 1198
757 1 1199 1200
758 1 1199 1201
759 1 1202 1203
760 1 1202 1204
761 1 1205 1206
762 1 1205 1207
763 1 1208 1209
764 1 1208 1210
765 1 1211 1212
766 1 1211 1213
767 1 1214 1215
768 1 1214 1216
769 1 1217 1218
770 1 1217 1219
771 1 1220 1221
772 1 1220 1222
773 1 1223 1224
774 1 1223 1225
775 1 1226 1227
776 1 1226 1228
777 1 1229 1230
778 1 1229 1231
779 1 1232 1233
780 1 1232 1234
781 1 1235 1236
782 1 1235 1237
783 1 1238 1239
784 1 1238 1240
785 1 1241 1242
786 1 1241 1243
787 1 1244 1245
788 1 1244 1246
789 1 1247 1248
790 1 1247 1249
791 1 1250 1251
792 1 1250 1252
793 1 1253 1254
794 1 1253 1255
795 1 1256 1257
796 1 1256 1258
797 1 1259 1260
798 1 1259 1261
799 1 1262 1263
800 1 1262 1264
801 1 1265 1266
802 1 1265 1267
803 1 1268 1269
804 1 1268 1270
805 1 1271 1272
806 1 1271 1273
807 1 1274 1275
808 1 1274 1276
809 1 1277 1278
810 1 1277 1279
811 1 1280 1281
812 1 1280 1282
813 1 1283 1284
814 1 1283 1285
815 1 1286 1287
816 1 1286 1288
817 1 1289 1290
818 1 1289 1291
819 1 1292 1293
820 1 1292 1294
821 1 1295 1296
822 1 1295 1297
823 1 1298 1299
824 1 1298 1300
825 1 1301 1302
826 1 1301 1303
827 1 1304 1305
828 1 1304 1306
829 1 1315 1316
830 1 1315 1317
832 1 1318 1319
834 1 1318 1320
836 1 1321 1322
838 1 1321 1323
840 1 1324 1325
842 1 1324 1326
844 1 1327 1328
846 1 1327 1329
847 1 1330 1331
831 1 1330 1332
833 1 1333 1334
835 1 1333 1335
837 1 1336 1337
839 1 1336 1338
841 1 1339 1340
843 1 1339 1341
845 1 1342 1343
848 1 1342 1344
849 1 1345 1346
850 1 1345 1347
851 1 1348 1349
852 1 1348 1350
853 1 1351 1352
854 1 1351 1353
855 1 1354 1355
856 1 1354 1356
857 1 1357 1358
858 1 1357 1359
859 1 1360 1361
860 1 1360 1362
861 1 1363 1364
862 1 1363 1365
863 1 1366 1367
864 1 1366 1368
865 1 1369 1370
866 1 1369 1371
867 1 1372 1373
868 1 1372 1374
869 1 1375 1376
870 1 1375 1377
871 1 1378 1379
872 1 1378 1380
873 1 1381 1382
874 1 1381 1383
875 1 1384 1385
876 1 1384 1386
877 1 1387 1388
878 1 1387 1389
879 1 1390 1391
880 1 1390 1392
881 1 1393 1394
882 1 1393 1395
883 1 1396 1397
884 1 1396 1398
885 1 1399 1400
886 1 1399 1401
887 1 1402 1403
888 1 1402 1404
889 1 1405 1406
890 1 1405 1407
891 1 1408 1409
892 1 1408 1410
893 1 1411 1412
894 1 1411 1413
895 1 1414 1415
896 1 1414 1416
897 1 1417 1418
898 1 1417 1419
899 1 1420 1421
900 1 1420 1422
901 1 1423 1424
902 1 1423 1425
903 1 1426 1427
904 1 1426 1428
905 1 1429 1430
906 1 1429 1431
907 1 1432 1433
908 1 1432 1434
909 1 1435 1436
910 1 1435 1437
911 1 1438 1439
912 1 1438 1440
913 1 1441 1442
914 1 1441 1443
915 1 1444 1445
916 1 1444 1446
917 1 1447 1448
918 1 1447 1449
919 1 1450 1451
920 1 1450 1452
921 1 1461 1462
922 1 1461 1463
924 1 1464 1465
926 1 1464 1466
928 1 1467 1468
930 1 1467 1469
932 1 1470 1471
934 1 1470 1472
936 1 1473 1474
938 1 1473 1475
939 1 1476 1477
923 1 1476 1478
925 1 1479 1480
927 1 1479 1481
929 1 1482 1483
931 1 1482 1484
933 1 1485 1486
935 1 1485 1487
937 1 1488 1489
940 1 1488 1490
941 1 1491 1492
942 1 1491 1493
943 1 1494 1495
944 1 1494 1496
945 1 1497 1498
946 1 1497 1499
947 1 1500 1501
948 1 1500 1502
949 1 1503 1504
950 1 1503 1505
951 1 1506 1507
952 1 1506 1508
953 1 1509 1510
954 1 1509 1511
955 1 1512 1513
956 1 1512 1514
957 1 1515 1516
958 1 1515 1517
959 1 1518 1519
960 1 1518 1520
961 1 1521 1522
962 1 1521 1523
963 1 1524 1525
964 1 1524 1526
965 1 1527 1528
966 1 1527 1529
967 1 1530 1531
968 1 1530 1532
969 1 1533 1534
970 1 1533 1535
971 1 1536 1537
972 1 1536 1538
973 1 1539 1540
974 1 1539 1541
975 1 1542 1543
976 1 1542 1544
977 1 1545 1546
978 1 1545 1547
979 1 1548 1549
980 1 1548 1550
981 1 1551 1552
982 1 1551 1553
983 1 1554 1555
984 1 1554 1556
985 1 1557 1558
986 1 1557 1559
987 1 1560 1561
988 1 1560 1562
989 1 1563 1564
990 1 1563 1565
991 1 1566 1567
992 1 1566 1568
993 1 1569 1570
994 1 1569 1571
995 1 1572 1573
996 1 1572 1574
997 1 1575 1576
998 1 1575 1577
999 1 1578 1579
1000 1 1578 1580
1001 1 1581 1582
1002 1 1581 1583
1003 1 1584 1585
1004 1 1584 1586
1005 1 1587 1588
1006 1 1587 1589
1007 1 1590 1591
1008 1 1590 1592
1009 1 1593 1594
1010 1 1593 1595
1011 1 1596 1597
1012 1 1596 1598
1013 1 1607 1608
1014 1 1607 1609
1016 1 1610 1611
1018 1 1610 1612
1020 1 1613 1614
1022 1 1613 1615
1024 1 1616 1617
1026 1 1616 1618
1028 1 1619 1620
1030 1 1619 1621
1031 1 1622 1623
1015 1 1622 1624
1017 1 1625 1626
1019 1 1625 1627
1021 1 1628 1629
1023 1 1628 1630
1025 1 1631 1632
1027 1 1631 1633
1029 1 1634 1635
1032 1 1634 1636
1033 1 1637 1638
1034 1 1637 1639
1035 1 1640 1641
1036 1 1640 1642
1037 1 1643 1644
1038 1 1643 1645
1039 1 1646 1647
1040 1 1646 1648
1041 1 1649 1650
1042 1 1649 1651
1043 1 1652 1653
1044 1 1652 1654
1045 1 1655 1656
1046 1 1655 1657
1047 1 1658 1659
1048 1 1658 1660
1049 1 1661 1662
1050 1 1661 1663
1051 1 1664 1665
1052 1 1664 1666
1053 1 1667 1668
1054 1 1667 1669
1055 1 1670 1671
1056 1 1670 1672
1057 1 1673 1674
1058 1 1673 1675
1059 1 1676 1677
1060 1 1676 1678
1061 1 1679 1680
1062 1 1679 1681
1063 1 1682 1683
1064 1 1682 1684
1065 1 1685 1686
1066 1 1685 1687
1067 1 1688 1689
1068 1 1688 1690
1069 1 1691 1692
1070 1 1691 1693
1071 1 1694 1695
1072 1 1694 1696
1073 1 1697 1698
1074 1 1697 1699
1075 1 1700 1701
1076 1 1700 1702
1077 1 1703 1704
1078 1 1703 1705
1079 1 1706 1707
1080 1 1706 1708
1081 1 1709 1710
1082 1 1709 1711
1083 1 1712 1713
1084 1 1712 1714
1085 1 1715 1716
1086 1 1715 1717
1087 1 1718 1719
1088 1 1718 1720
1089 1 1721 1722
1090 1 1721 1723
1091 1 1724 1725
1092 1 1724 1726
1093 1 1727 1728
1094 1 1727 1729
1095 1 1730 1731
1096 1 1730 1732
1097 1 1733 1734
1098 1 1733 1735
1099 1 1736 1737
1100 1 1736 1738
1101 1 1739 1740
1102 1 1739 1741
1103 1 1742 1743
1104 1 1742 1744
1105 1 1753 1754
1106 1 1753 1755
1108 1 1756 1757
1110 1 1756 1758
1112 1 1759 1760
1114 1 1759 1761
1116 1 1762 1763
1118 1 1762 1764
1120 1 1765 1766
1122 1 1765 1767
1123 1 1768 1769
1107 1 1768 1770
1109 1 1771 1772
1111 1 1771 1773
1113 1 1774 1775
1115 1 1774 1776
1117 1 1777 1778
1119 1 1777 1779
1121 1 1780 1781
1124 1 1780 1782
1125 1 1783 1784
1126 1 1783 1785
1127 1 1786 1787
1128 1 1786 1788
1129 1 1789 1790
1130 1 1789 1791
1131 1 1792 1793
1132 1 1792 1794
1133 1 1795 1796
1134 1 1795 1797
1135 1 1798 1799
1136 1 1798 1800
1137 1 1801 1802
1138 1 1801 1803
1139 1 1804 1805
1140 1 1804 1806
1141 1 1807 1808
1142 1 1807 1809
1143 1 1810 1811
1144 1 1810 1812
1145 1 1813 1814
1146 1 1813 1815
1147 1 1816 1817
1148 1 1816 1818
1149 1 1819 1820
1150 1 1819 1821
1151 1 1822 1823
1152 1 1822 1824
1153 1 1825 1826
1154 1 1825 1827
1155 1 1828 1829
1156 1 1828 1830
1157 1 1831 1832
1158 1 1831 1833
1159 1 1834 1835
1160 1 1834 1836
1161 1 1837 1838
1162 1 1837 1839
1163 1 1840 1841
1164 1 1840 1842
1165 1 1843 1844
1166 1 1843 1845
1167 1 1846 1847
1168 1 1846 1848
1169 1 1849 1850
1170 1 1849 1851
1171 1 1852 1853
1172 1 1852 1854
1173 1 1855 1856
1174 1 1855 1857
1175 1 1858 1859
1176 1 1858 1860
1177 1 1861 1862
1178 1 1861 1863
1179 1 1864 1865
1180 1 1864 1866
1181 1 1867 1868
1182 1 1867 1869
1183 1 1870 1871
1184 1 1870 1872
1185 1 1873 1874
1186 1 1873 1875
1187 1 1876 1877
1188 1 1876 1878
1189 1 1879 1880
1190 1 1879 1881
1191 1 1882 1883
1192 1 1882 1884
1193 1 1885 1886
1194 1 1885 1887
1195 1 1888 1889
1196 1 1888 1890
1197 1 1899 1900
1198 1 1899 1901
1200 1 1902 1903
1202 1 1902 1904
1204 1 1905 1906
1206 1 1905 1907
1208 1 1908 1909
1210 1 1908 1910
1212 1 1911 1912
1214 1 1911 1913
1215 1 1914 1915
1199 1 1914 1916
1201 1 1917 1918
1203 1 1917 1919
1205 1 1920 1921
1207 1 1920 1922
1209 1 1923 1924
1211 1 1923 1925
1213 1 1926 1927
1216 1 1926 1928
1217 1 1929 1930
1218 1 1929 1931
1219 1 1932 1933
1220 1 1932 1934
1221 1 1935 1936
1222 1 1935 1937
1223 1 1938 1939
1224 1 1938 1940
1225 1 1941 1942
1226 1 1941 1943
1227 1 1944 1945
1228 1 1944 1946
1229 1 1947 1948
1230 1 1947 1949
1231 1 1950 1951
1232 1 1950 1952
1233 1 1953 1954
1234 1 1953 1955
1235 1 1956 1957
1236 1 1956 1958
1237 1 1959 1960
1238 1 1959 1961
1239 1 1962 1963
1240 1 1962 1964
1241 1 1965 1966
1242 1 1965 1967
1243 1 1968 1969
1244 1 1968 1970
1245 1 1971 1972
1246 1 1971 1973
1247 1 1974 1975
1248 1 1974 1976
1249 1 1977 1978
1250 1 1977 1979
1251 1 1980 1981
1252 1 1980 1982
1253 1 1983 1984
1254 1 1983 1985
1255 1 1986 1987
1256 1 1986 1988
1257 1 1989 1990
1258 1 1989 1991
1259 1 1992 1993
1260 1 1992 1994
1261 1 1995 1996
1262 1 1995 1997
1263 1 1998 1999
1264 1 1998 2000
1265 1 2001 2002
1266 1 2001 2003
1267 1 2004 2005
1268 1 2004 2006
1269 1 2007 2008
1270 1 2007 2009
1271 1 2010 2011
1272 1 2010 2012
1273 1 2013 2014
1274 1 2013 2015
1275 1 2016 2017
1276 1 2016 2018
1277 1 2019 2020
1278 1 2019 2021
1279 1 2022 2023
1280 1 2022 2024
1281 1 2025 2026
1282 1 2025 2027
1283 1 2028 2029
1284 1 2028 2030
1285 1 2031 2032
1286 1 2031 2033
1287 1 2034 2035
1288 1 2034 2036
1289 1 2045 2046
1290 1 2045 2047
1292 1 2048 2049
1294 1 2048 2050
1296 1 2051 2052
1298 1 2051 2053
1300 1 2054 2055
1302 1 2054 2056
1304 1 2057 2058
1306 1 2057 2059
1307 1 2060 2061
1291 1 2060 2062
1293 1 2063 2064
1295 1 2063 2065
1297 1 2066 2067
1299 1 2066 2068
1301 1 2069 2070
1303 1 2069 2071
1305 1 2072 2073
1308 1 2072 2074
1309 1 2075 2076
1310 1 2075 2077
1311 1 2078 2079
1312 1 2078 2080
1313 1 2081 2082
1314 1 2081 2083
1315 1 2084 2085
1316 1 2084 2086
1317 1 2087 2088
1318 1 2087 2089
1319 1 2090 2091
1320 1 2090 2092
1321 1 2093 2094
1322 1 2093 2095
1323 1 2096 2097
1324 1 2096 2098
1325 1 2099 2100
1326 1 2099 2101
1327 1 2102 2103
1328 1 2102 2104
1329 1 2105 2106
1330 1 2105 2107
1331 1 2108 2109
1332 1 2108 2110
1333 1 2111 2112
1334 1 2111 2113
1335 1 2114 2115
1336 1 2114 2116
1337 1 2117 2118
1338 1 2117 2119
1339 1 2120 2121
1340 1 2120 2122
1341 1 2123 2124
1342 1 2123 2125
1343 1 2126 2127
1344 1 2126 2128
1345 1 2129 2130
1346 1 2129 2131
1347 1 2132 2133
1348 1 2132 2134
1349 1 2135 2136
1350 1 2135 2137
1351 1 2138 2139
1352 1 2138 2140
1353 1 2141 2142
1354 1 2141 2143
1355 1 2144 2145
1356 1 2144 2146
1357 1 2147 2148
1358 1 2147 2149
1359 1 2150 2151
1360 1 2150 2152
1361 1 2153 2154
1362 1 2153 2155
1363 1 2156 2157
1364 1 2156 2158
1365 1 2159 2160
1366 1 2159 2161
1367 1 2162 2163
1368 1 2162 2164
1369 1 2165 2166
1370 1 2165 2167
1371 1 2168 2169
1372 1 2168 2170
1373 1 2171 2172
1374 1 2171 2173
1375 1 2174 2175
1376 1 2174 2176
1377 1 2177 2178
1378 1 2177 2179
1379 1 2180 2181
1380 1 2180 2182
1381 1 2191 2192
1382 1 2191 2193
1384 1 2194 2195
1386 1 2194 2196
1388 1 2197 2198
1390 1 2197 2199
1392 1 2200 2201
1394 1 2200 2202
1396 1 2203 2204
1398 1 2203 2205
1399 1 2206 2207
1383 1 2206 2208
1385 1 2209 2210
1387 1 2209 2211
1389 1 2212 2213
1391 1 2212 2214
1393 1 2215 2216
1395 1 2215 2217
1397 1 2218 2219
1400 1 2218 2220
1401 1 2221 2222
1402 1 2221 2223
1403 1 2224 2225
1404 1 2224 2226
1405 1 2227 2228
1406 1 2227 2229
1407 1 2230 2231
1408 1 2230 2232
1409 1 2233 2234
1410 1 2233 2235
1411 1 2236 2237
1412 1 2236 2238
1413 1 2239 2240
1414 1 2239 2241
1415 1 2242 2243
1416 1 2242 2244
1417 1 2245 2246
1418 1 2245 2247
1419 1 2248 2249
1420 1 2248 2250
1421 1 2251 2252
1422 1 2251 2253
1423 1 2254 2255
1424 1 2254 2256
1425 1 2257 2258
1426 1 2257 2259
1427 1 2260 2261
1428 1 2260 2262
1429 1 2263 2264
1430 1 2263 2265
1431 1 2266 2267
1432 1 2266 2268
1433 1 2269 2270
1434 1 2269 2271
1435 1 2272 2273
1436 1 2272 2274
1437 1 2275 2276
1438 1 2275 2277
1439 1 2278 2279
1440 1 2278 2280
1441 1 2281 2282
1442 1 2281 2283
1443 1 2284 2285
1444 1 2284 2286
1445 1 2287 2288
1446 1 2287 2289
1447 1 2290 2291
1448 1 2290 2292
1449 1 2293 2294
1450 1 2293 2295
1451 1 2296 2297
1452 1 2296 2298
1453 1 2299 2300
1454 1 2299 2301
1455 1 2302 2303
1456 1 2302 2304
1457 1 2305 2306
1458 1 2305 2307
1459 1 2308 2309
1460 1 2308 2310
1461 1 2311 2312
1462 1 2311 2313
1463 1 2314 2315
1464 1 2314 2316
1465 1 2317 2318
1466 1 2317 2319
1467 1 2320 2321
1468 1 2320 2322
1469 1 2323 2324
1470 1 2323 2325
1471 1 2326 2327
1472 1 2326 2328
1473 1 2337 2338
1474 1 2337 2339
1476 1 2340 2341
1478 1 2340 2342
1480 1 2343 2344
1482 1 2343 2345
1484 1 2346 2347
1486 1 2346 2348
1488 1 2349 2350
1490 1 2349 2351
1491 1 2352 2353
1475 1 2352 2354
1477 1 2355 2356
1479 1 2355 2357
1481 1 2358 2359
1483 1 2358 2360
1485 1 2361 2362
1487 1 2361 2363
1489 1 2364 2365
1492 1 2364 2366
1493 1 2367 2368
1494 1 2367 2369
1495 1 2370 2371
1496 1 2370 2372
1497 1 2373 2374
1498 1 2373 2375
1499 1 2376 2377
1500 1 2376 2378
1501 1 2379 2380
1502 1 2379 2381
1503 1 2382 2383
1504 1 2382 2384
1505 1 2385 2386
1506 1 2385 2387
1507 1 2388 2389
1508 1 2388 2390
1509 1 2391 2392
1510 1 2391 2393
1511 1 2394 2395
1512 1 2394 2396
1513 1 2397 2398
1514 1 2397 2399
1515 1 2400 2401
1516 1 2400 2402
1517 1 2403 2404
1518 1 2403 2405
1519 1 2406 2407
1520 1 2406 2408
1521 1 2409 2410
1522 1 2409 2411
1523 1 2412 2413
1524 1 2412 2414
1525 1 2415 2416
1526 1 2415 2417
1527 1 2418 2419
1528 1 2418 2420
1529 1 2421 2422
1530 1 2421 2423
1531 1 2424 2425
1532 1 2424 2426
1533 1 2427 2428
1534 1 2427 2429
1535 1 2430 2431
1536 1 2430 2432
1537 1 2433 2434
1538 1 2433 2435
1539 1 2436 2437
1540 1 2436 2438
1541 1 2439 2440
1542 1 2439 2441
1543 1 2442 2443
1544 1 2442 2444
1545 1 2445 2446
1546 1 2445 2447
1547 1 2448 2449
1548 1 2448 2450
1549 1 2451 2452
1550 1 2451 2453
1551 1 2454 2455
1552 1 2454 2456
1553 1 2457 2458
1554 1 2457 2459
1555 1 2460 2461
1556 1 2460 2462
1557 1 2463 2464
1558 1 2463 2465
1559 1 2466 2467
1560 1 2466 2468
1561 1 2469 2470
1562 1 2469 2471
1563 1 2472 2473
1564 1 2472 2474
1565 1 2483 2484
1566 1 2483 2485
1568 1 2486 2487
1570 1 2486 2488
1572 1 2489 2490
1574 1 2489 2491
1576 1 2492 2493
1578 1 2492 2494
1580 1 2495 2496
1582 1 2495 2497
1583 1 2498 2499
1567 1 2498 2500
1569 1 2501 2502
1571 1 2501 2503
1573 1 2504 2505
1575 1 2504 2506
1577 1 2507 2508
1579 1 2507 2509
1581 1 2510 2511
1584 1 2510 2512
1585 1 2513 2514
1586 1 2513 2515
1587 1 2516 2517
1588 1 2516 2518
1589 1 2519 2520
1590 1 2519 2521
1591 1 2522 2523
1592 1 2522 2524
1593 1 2525 2526
1594 1 2525 2527
1595 1 2528 2529
1596 1 2528 2530
1597 1 2531 2532
1598 1 2531 2533
1599 1 2534 2535
1600 1 2534 2536
1601 1 2537 2538
1602 1 2537 2539
1603 1 2540 2541
1604 1 2540 2542
1605 1 2543 2544
1606 1 2543 2545
1607 1 2546 2547
1608 1 2546 2548
1609 1 2549 2550
1610 1 2549 2551
1611 1 2552 2553
1612 1 2552 2554
1613 1 2555 2556
1614 1 2555 2557
1615 1 2558 2559
1616 1 2558 2560
1617 1 2561 2562
1618 1 2561 2563
1619 1 2564 2565
1620 1 2564 2566
1621 1 2567 2568
1622 1 2567 2569
1623 1 2570 2571
1624 1 2570 2572
1625 1 2573 2574
1626 1 2573 2575
1627 1 2576 2577
1628 1 2576 2578
1629 1 2579 2580
1630 1 2579 2581
1631 1 2582 2583
1632 1 2582 2584
1633 1 2585 2586
1634 1 2585 2587
1635 1 2588 2589
1636 1 2588 2590
1637 1 2591 2592
1638 1 2591 2593
1639 1 2594 2595
1640 1 2594 2596
1641 1 2597 2598
1642 1 2597 2599
1643 1 2600 2601
1644 1 2600 2602
1645 1 2603 2604
1646 1 2603 2605
1647 1 2606 2607
1648 1 2606 2608
1649 1 2609 2610
1650 1 2609 2611
1651 1 2612 2613
1652 1 2612 2614
1653 1 2615 2616
1654 1 2615 2617
1655 1 2618 2619
1656 1 2618 2620
1657 1 2629 2630
1658 1 2629 2631
1660 1 2632 2633
1662 1 2632 2634
1664 1 2635 2636
1666 1 2635 2637
1668 1 2638 2639
1670 1 2638 2640
1672 1 2641 2642
1674 1 2641 2643
1675 1 2644 2645
1659 1 2644 2646
1661 1 2647 2648
1663 1 2647 2649
1665 1 2650 2651
1667 1 2650 2652
1669 1 2653 2654
1671 1 2653 2655
1673 1 2656 2657
1676 1 2656 2658
1677 1 2659 2660
1678 1 2659 2661
1679 1 2662 2663
1680 1 2662 2664
1681 1 2665 2666
1682 1 2665 2667
1683 1 2668 2669
1684 1 2668 2670
1685 1 2671 2672
1686 1 2671 2673
1687 1 2674 2675
1688 1 2674 2676
1689 1 2677 2678
1690 1 2677 2679
1691 1 2680 2681
1692 1 2680 2682
1693 1 2683 2684
1694 1 2683 2685
1695 1 2686 2687
1696 1 2686 2688
1697 1 2689 2690
1698 1 2689 2691
1699 1 2692 2693
1700 1 2692 2694
1701 1 2695 2696
1702 1 2695 2697
1703 1 2698 2699
1704 1 2698 2700
1705 1 2701 2702
1706 1 2701 2703
1707 1 2704 2705
1708 1 2704 2706
1709 1 2707 2708
1710 1 2707 2709
1711 1 2710 2711
1712 1 2710 2712
1713 1 2713 2714
1714 1 2713 2715
1715 1 2716 2717
1716 1 2716 2718
1717 1 2719 2720
1718 1 2719 2721
1719 1 2722 2723
1720 1 2722 2724
1721 1 2725 2726
1722 1 2725 2727
1723 1 2728 2729
1724 1 2728 2730
1725 1 2731 2732
1726 1 2731 2733
1727 1 2734 2735
1728 1 2734 2736
1729 1 2737 2738
1730 1 2737 2739
1731 1 2740 2741
1732 1 2740 2742
1733 1 2743 2744
1734 1 2743 2745
1735 1 2746 2747
1736 1 2746 2748
1737 1 2749 2750
1738 1 2749 2751
1739 1 2752 2753
1740 1 2752 2754
1741 1 2755 2756
1742 1 2755 2757
1743 1 2758 2759
1744 1 2758 2760
1745 1 2761 2762
1746 1 2761 2763
1747 1 2764 2765
1748 1 2764 2766
1749 1 2775 2776
1750 1 2775 2777
1752 1 2778 2779
1754 1 2778 2780
1756 1 2781 2782
1758 1 2781 2783
1760 1 2784 2785
1762 1 2784 2786
1764 1 2787 2788
1766 1 2787 2789
1767 1 2790 2791
1751 1 2790 2792
1753 1 2793 2794
1755 1 2793 2795
1757 1 2796 2797
1759 1 2796 2798
1761 1 2799 2800
1763 1 2799 2801
1765 1 2802 2803
1768 1 2802 2804
1769 1 2805 2806
1770 1 2805 2807
1771 1 2808 2809
1772 1 2808 2810
1773 1 2811 2812
1774 1 2811 2813
1775 1 2814 2815
1776 1 2814 2816
1777 1 2817 2818
1778 1 2817 2819
1779 1 2820 2821
1780 1 2820 2822
1781 1 2823 2824
1782 1 2823 2825
1783 1 2826 2827
1784 1 2826 2828
1785 1 2829 2830
1786 1 2829 2831
1787 1 2832 2833
1788 1 2832 2834
1789 1 2835 2836
1790 1 2835 2837
1791 1 2838 2839
1792 1 2838 2840
1793 1 2841 2842
1794 1 2841 2843
1795 1 2844 2845
1796 1 2844 2846
1797 1 2847 2848
1798 1 2847 2849
1799 1 2850 2851
1800 1 2850 2852
1801 1 2853 2854
1802 1 2853 2855
1803 1 2856 2857
1804 1 2856 2858
1805 1 2859 2860
1806 1 2859 2861
1807 1 2862 2863
1808 1 2862 2864
1809 1 2865 2866
1810 1 2865 2867
1811 1 2868 2869
1812 1 2868 2870
1813 1 2871 2872
1814 1 2871 2873
1815 1 2874 2875
1816 1 2874 2876
1817 1 2877 2878
1818 1 2877 2879
1819 1 2880 2881
1820 1 2880 2882
1821 1 2883 2884
1822 1 2883 2885
1823 1 2886 2887
1824 1 2886 2888
1825 1 2889 2890
1826 1 2889 2891
1827 1 2892 2893
1828 1 2892 2894
1829 1 2895 2896
1830 1 2895 2897
1831 1 2898 2899
1832 1 2898 2900
1833 1 2901 2902
1834 1 2901 2903
1835 1 2904 2905
1836 1 2904 2906
1837 1 2907 2908
1838 1 2907 2909
1839 1 2910 2911
1840 1 2910 2912
1841 1 2921 2922
1842 1 2921 2923
1844 1 2924 2925
1846 1 2924 2926
1848 1 2927 2928
1850 1 2927 2929
1852 1 2930 2931
1854 1 2930 2932
1856 1 2933 2934
1858 1 2933 2935
1859 1 2936 2937
1843 1 2936 2938
1845 1 2939 2940
1847 1 2939 2941
1849 1 2942 2943
1851 1 2942 2944
1853 1 2945 2946
1855 1 2945 2947
1857 1 2948 2949
1860 1 2948 2950
1861 1 2951 2952
1862 1 2951 2953
1863 1 2954 2955
1864 1 2954 2956
1865 1 2957 2958
1866 1 2957 2959
1867 1 2960 2961
1868 1 2960 2962
1869 1 2963 2964
1870 1 2963 2965
1871 1 2966 2967
1872 1 2966 2968
1873 1 2969 2970
1874 1 2969 2971
1875 1 2972 2973
1876 1 2972 2974
1877 1 2975 2976
1878 1 2975 2977
1879 1 2978 2979
1880 1 2978 2980
1881 1 2981 2982
1882 1 2981 2983
1883 1 2984 2985
1884 1 2984 2986
1885 1 2987 2988
1886 1 2987 2989
1887 1 2990 2991
1888 1 2990 2992
1889 1 2993 2994
1890 1 2993 2995
1891 1 2996 2997
1892 1 2996 2998
1893 1 2999 3000
1894 1 2999 3001
1895 1 3002 3003
1896 1 3002 3004
1897 1 3005 3006
1898 1 3005 3007
1899 1 3008 3009
1900 1 3008 3010
1901 1 3011 3012
1902 1 3011 3013
1903 1 3014 3015
1904 1 3014 3016
1905 1 3017 3018
1906 1 3017 3019
1907 1 3020 3021
1908 1 3020 3022
1909 1 3023 3024
1910 1 3023 3025
1911 1 3026 3027
1912 1 3026 3028
1913 1 3029 3030
1914 1 3029 3031
1915 1 3032 3033
1916 1 3032 3034
1917 1 3035 3036
1918 1 3035 3037
1919 1 3038 3039
1920 1 3038 3040
1921 1 3041 3042
1922 1 3041 3043
1923 1 3044 3045
1924 1 3044 3046
1925 1 3047 3048
1926 1 3047 3049
1927 1 3050 3051
1928 1 3050 3052
1929 1 3053 3054
1930 1 3053 3055
1931 1 3056 3057
1932 1 3056 3058
1933 1 3067 3068
1934 1 3067 3069
1936 1 3070 3071
1938 1 3070 3072
1940 1 3073 3074
1942 1 3073 3075
1944 1 3076 3077
1946 1 3076 3078
1948 1 3079 3080
1950 1 3079 3081
1951 1 3082 3083
1935 1 3082 3084
1937 1 3085 3086
1939 1 3085 3087
1941 1 3088 3089
1943 1 3088 3090
1945 1 3091 3092
1947 1 3091 3093
1949 1 3094 3095
1952 1 3094 3096
1953 1 3097 3098
1954 1 3097 3099
1955 1 3100 3101
1956 1 3100 3102
1957 1 3103 3104
1958 1 3103 3105
1959 1 3106 3107
1960 1 3106 3108
1961 1 3109 3110
1962 1 3109 3111
1963 1 3112 3113
1964 1 3112 3114
1965 1 3115 3116
1966 1 3115 3117
1967 1 3118 3119
1968 1 3118 3120
1969 1 3121 3122
1970 1 3121 3123
1971 1 3124 3125
1972 1 3124 3126
1973 1 3127 3128
1974 1 3127 3129
1975 1 3130 3131
1976 1 3130 3132
1977 1 3133 3134
1978 1 3133 3135
1979 1 3136 3137
1980 1 3136 3138
1981 1 3139 3140
1982 1 3139 3141
1983 1 3142 3143
1984 1 3142 3144
1985 1 3145 3146
1986 1 3145 3147
1987 1 3148 3149
1988 1 3148 3150
1989 1 3151 3152
1990 1 3151 3153
1991 1 3154 3155
1992 1 3154 3156
1993 1 3157 3158
1994 1 3157 3159
1995 1 3160 3161
1996 1 3160 3162
1997 1 3163 3164
1998 1 3163 3165
1999 1 3166 3167
2000 1 3166 3168
2001 1 3169 3170
2002 1 3169 3171
2003 1 3172 3173
2004 1 3172 3174
2005 1 3175 3176
2006 1 3175 3177
2007 1 3178 3179
2008 1 3178 3180
2009 1 3181 3182
2010 1 3181 3183
2011 1 3184 3185
2012 1 3184 3186
2013 1 3187 3188
2014 1 3187 3189
2015 1 3190 3191
2016 1 3190 3192
2017 1 3193 3194
2018 1 3193 3195
2019 1 3196 3197
2020 1 3196 3198
2021 1 3199 3200
2022 1 3199 3201
2023 1 3202 3203
2024 1 3202 3204
2025 1 3213 3214
2026 1 3213 3215
2028 1 3216 3217
2030 1 3216 3218
2032 1 3219 3220
2034 1 3219 3221
2036 1 3222 3223
2038 1 3222 3224
2040 1 3225 3226
2042 1 3225 3227
2043 1 3228 3229
2027 1 3228 3230
2029 1 3231 3232
2031 1 3231 3233
2033 1 3234 3235
2035 1 3234 3236
2037 1 3237 3238
2039 1 3237 3239
2041 1 3240 3241
2044 1 3240 3242
2045 1 3243 3244
2046 1 3243 3245
2047 1 3246 3247
2048 1 3246 3248
2049 1 3249 3250
2050 1 3249 3251
2051 1 3252 3253
2052 1 3252 3254
2053 1 3255 3256
2054 1 3255 3257
2055 1 3258 3259
2056 1 3258 3260
2057 1 3261 3262
2058 1 3261 3263
2059 1 3264 3265
2060 1 3264 3266
2061 1 3267 3268
2062 1 3267 3269
2063 1 3270 3271
2064 1 3270 3272
2065 1 3273 3274
2066 1 3273 3275
2067 1 3276 3277
2068 1 3276 3278
2069 1 3279 3280
2070 1 3279 3281
2071 1 3282 3283
2072 1 3282 3284
2073 1 3285 3286
2074 1 3285 3287
2075 1 3288 3289
2076 1 3288 3290
2077 1 3291 3292
2078 1 3291 3293
2079 1 3294 3295
2080 1 3294 3296
2081 1 3297 3298
2082 1 3297 3299
2083 1 3300 3301
2084 1 3300 3302
2085 1 3303 3304
2086 1 3303 3305
2087 1 3306 3307
2088 1 3306 3308
2089 1 3309 3310
2090 1 3309 3311
2091 1 3312 3313
2092 1 3312 3314
2093 1 3315 3316
2094 1 3315 3317
2095 1 3318 3319
2096 1 3318 3320
2097 1 3321 3322
2098 1 3321 3323
2099 1 3324 3325
2100 1 3324 3326
2101 1 3327 3328
2102 1 3327 3329
2103 1 3330 3331
2104 1 3330 3332
2105 1 3333 3334
2106 1 3333 3335
2107 1 3336 3337
2108 1 3336 3338
2109 1 3339 3340
2110 1 3339 3341
2111 1 3342 3343
2112 1 3342 3344
2113 1 3345 3346
2114 1 3345 3347
2115 1 3348 3349
2116 1 3348 3350
2117 1 3359 3360
2118 1 3359 3361
2120 1 3362 3363
2122 1 3362 3364
2124 1 3365 3366
2126 1 3365 3367
2128 1 3368 3369
2130 1 3368 3370
2132 1 3371 3372
2134 1 3371 3373
2135 1 3374 3375
2119 1 3374 3376
2121 1 3377 3378
2123 1 3377 3379
2125 1 3380 3381
2127 1 3380 3382
2129 1 3383 3384
2131 1 3383 3385
2133 1 3386 3387
2136 1 3386 3388
2137 1 3389 3390
2138 1 3389 3391
2139 1 3392 3393
2140 1 3392 3394
2141 1 3395 3396
2142 1 3395 3397
2143 1 3398 3399
2144 1 3398 3400
2145 1 3401 3402
2146 1 3401 3403
2147 1 3404 3405
2148 1 3404 3406
2149 1 3407 3408
2150 1 3407 3409
2151 1 3410 3411
2152 1 3410 3412
2153 1 3413 3414
2154 1 3413 3415
2155 1 3416 3417
2156 1 3416 3418
2157 1 3419 3420
2158 1 3419 3421
2159 1 3422 3423
2160 1 3422 3424
2161 1 3425 3426
2162 1 3425 3427
2163 1 3428 3429
2164 1 3428 3430
2165 1 3431 3432
2166 1 3431 3433
2167 1 3434 3435
2168 1 3434 3436
2169 1 3437 3438
2170 1 3437 3439
2171 1 3440 3441
2172 1 3440 3442
2173 1 3443 3444
2174 1 3443 3445
2175 1 3446 3447
2176 1 3446 3448
2177 1 3449 3450
2178 1 3449 3451
2179 1 3452 3453
2180 1 3452 3454
2181 1 3455 3456
2182 1 3455 3457
2183 1 3458 3459
2184 1 3458 3460
2185 1 3461 3462
2186 1 3461 3463
2187 1 3464 3465
2188 1 3464 3466
2189 1 3467 3468
2190 1 3467 3469
2191 1 3470 3471
2192 1 3470 3472
2193 1 3473 3474
2194 1 3473 3475
2195 1 3476 3477
2196 1 3476 3478
2197 1 3479 3480
2198 1 3479 3481
2199 1 3482 3483
2200 1 3482 3484
2201 1 3485 3486
2202 1 3485 3487
2203 1 3488 3489
2204 1 3488 3490
2205 1 3491 3492
2206 1 3491 3493
2207 1 3494 3495
2208 1 3494 3496
2209 1 3505 3506
2210 1 3505 3507
2211 1 3508 3509
2212 1 3508 3510
2213 1 3511 3512
2214 1 3511 3513
2215 1 3514 3515
2216 1 3514 3516
2217 1 3517 3518
2218 1 3517 3519
2219 1 3520 3521
2220 1 3520 3522
2221 1 3523 3524
2222 1 3523 3525
2223 1 3526 3527
2224 1 3526 3528
2225 1 3529 3530
2226 1 3529 3531
2227 1 3532 3533
2228 1 3532 3534
2229 1 3535 3536
2230 1 3535 3537
2231 1 3538 3539
2232 1 3538 3540
2233 1 3541 3542
2234 1 3541 3543
2235 1 3544 3545
2236 1 3544 3546
2237 1 3547 3548
2238 1 3547 3549
2239 1 3550 3551
2240 1 3550 3552
2241 1 3553 3554
2242 1 3553 3555
2243 1 3556 3557
2244 1 3556 3558
2245 1 3559 3560
2246 1 3559 3561
2247 1 3562 3563
2248 1 3562 3564
2249 1 3565 3566
2250 1 3565 3567
2251 1 3568 3569
2252 1 3568 3570
2253 1 3571 3572
2254 1 3571 3573
2255 1 3574 3575
2256 1 3574 3576
2257 1 3577 3578
2258 1 3577 3579
2259 1 3580 3581
2260 1 3580 3582
2261 1 3583 3584
2262 1 3583 3585
2263 1 3586 3587
2264 1 3586 3588
2265 1 3589 3590
2266 1 3589 3591
2267 1 3592 3593
2268 1 3592 3594
2269 1 3595 3596
2270 1 3595 3597
2271 1 3598 3599
2272 1 3598 3600
2273 1 3601 3602
2274 1 3601 3603
2275 1 3604 3605
2276 1 3604 3606
2277 1 3607 3608
2278 1 3607 3609
2279 1 3610 3611
2280 1 3610 3612
2281 1 3613 3614
2282 1 3613 3615
2283 1 3616 3617
2284 1 3616 3618
2285 1 3619 3620
2286 1 3619 3621
2287 1 3622 3623
2288 1 3622 3624
2289 1 3625 3626
2290 1 3625 3627
2291 1 3628 3629
2292 1 3628 3630
2293 1 3631 3632
2294 1 3631 3633
2295 1 3634 3635
2296 1 3634 3636
2297 1 3637 3638
2298 1 3637 3639
2299 1 3640 3641
2300 1 3640 3642
2301 1 3643 3644
2302 1 3643 3645
2303 1 3646 3647
2304 1 3646 3648
2305 1 3649 3650
2306 1 3649 3651
2307 1 3652 3653
2308 1 3652 3654
2309 1 3655 3656
2310 1 3655 3657
2311 1 3658 3659
2312 1 3658 3660
2313 1 3661 3662
2314 1 3661 3663
2315 1 3664 3665
2316 1 3664 3666
2317 1 3667 3668
2318 1 3667 3669
2319 1 3670 3671
2320 1 3670 3672
2321 1 3673 3674
2322 1 3673 3675
2323 1 3676 3677
2324 1 3676 3678
2325 1 3679 3680
2326 1 3679 3681
2327 1 3682 3683
2328 1 3682 3684
2329 1 3685 3686
2330 1 3685 3687
2331 1 3688 3689
2332 1 3688 3690
2333 1 3691 3692
2334 1 3691 3693
2335 1 3694 3695
2336 1 3694 3696
2337 1 3697 3698
2338 1 3697 3699
2339 1 3700 3701
2340 1 3700 3702
2341 1 3703 3704
2342 1 3703 3705
2343 1 3706 3707
2344 1 3706 3708
2345 1 3709 3710
2346 1 3709 3711
2347 1 3712 3713
2348 1 3712 3714
2349 1 3715 3716
2350 1 3715 3717
2351 1 3718 3719
2352 1 3718 3720
2353 1 3721 3722
2354 1 3721 3723
2355 1 3724 3725
2356 1 3724 3726
2357 1 3727 3728
2358 1 3727 3729
2359 1 3730 3731
2360 1 3730 3732
2361 1 3733 3734
2362 1 3733 3735
2363 1 3736 3737
2364 1 3736 3738
2365 1 3739 3740
2366 1 3739 3741
2367 1 3742 3743
2368 1 3742 3744
2369 1 3745 3746
2370 1 3745 3747
2371 1 3748 3749
2372 1 3748 3750
2373 1 3751 3752
2374 1 3751 3753
2375 1 3754 3755
2376 1 3754 3756
2377 1 3757 3758
2378 1 3757 3759
2379 1 3760 3761
2380 1 3760 3762
2381 1 3763 3764
2382 1 3763 3765
2383 1 3766 3767
2384 1 3766 3768
2385 1 3769 3770
2386 1 3769 3771
2387 1 3772 3773
2388 1 3772 3774
2389 1 3775 3776
2390 1 3775 3777
2391 1 3778 3779
2392 1 3778 3780
2393 1 3781 3782
2394 1 3781 3783
2395 1 3784 3785
2396 1 3784 3786
2397 1 3787 3788
2398 1 3787 3789
2399 1 3790 3791
2400 1 3790 3792
2401 1 3793 3794
2402 1 3793 3795
2403 1 3796 3797
2404 1 3796 3798
2405 1 3799 3800
2406 1 3799 3801
2407 1 3802 3803
2408 1 3802 3804
2409 1 3805 3806
2410 1 3805 3807
2411 1 3808 3809
2412 1 3808 3810
2413 1 3811 3812
2414 1 3811 3813
2415 1 3814 3815
2416 1 3814 3816
2417 1 3817 3818
2418 1 3817 3819
2419 1 3820 3821
2420 1 3820 3822
2421 1 3823 3824
2422 1 3823 3825
2423 1 3826 3827
2424 1 3826 3828
2425 1 3829 3830
2426 1 3829 3831
2427 1 3832 3833
2428 1 3832 3834
2429 1 3835 3836
2430 1 3835 3837
2431 1 3838 3839
2432 1 3838 3840
2433 1 3841 3842
2434 1 3841 3843
2435 1 3844 3845
2436 1 3844 3846
2437 1 3847 3848
2438 1 3847 3849
2439 1 3850 3851
2440 1 3850 3852
2441 1 3853 3854
2442 1 3853 3855
2443 1 3856 3857
2444 1 3856 3858
2445 1 3859 3860
2446 1 3859 3861
2447 1 3862 3863
2448 1 3862 3864
2449 1 3865 3866
2450 1 3865 3867
2451 1 3868 3869
2452 1 3868 3870
2453 1 3871 3872
2454 1 3871 3873
2455 1 3874 3875
2456 1 3874 3876
2457 1 3877 3878
2458 1 3877 3879
2459 1 3880 3881
2460 1 3880 3882
2461 1 3883 3884
2462 1 3883 3885
2463 1 3886 3887
2464 1 3886 3888
2465 1 3889 3890
2466 1 3889 3891
2467 1 3892 3893
2468 1 3892 3894
2469 1 3895 3896
2470 1 3895 3897
2471 1 3898 3899
2472 1 3898 3900
2473 1 3901 3902
2474 1 3901 3903
2475 1 3904 3905
2476 1 3904 3906
2477 1 3907 3908
2478 1 3907 3909
2479 1 3910 3911
2480 1 3910 3912
2481 1 3913 3914
2482 1 3913 3915
2483 1 3916 3917
2484 1 3916 3918
2485 1 3919 3920
2486 1 3919 3921
2487 1 3922 3923
2488 1 3922 3924
2489 1 3925 3926
2490 1 3925 3927
2491 1 3928 3929
2492 1 3928 3930
2493 1 3931 3932
2494 1 3931 3933
2495 1 3934 3935
2496 1 3934 3936
2497 1 3937 3938
2498 1 3937 3939
2499 1 3940 3941
2500 1 3940 3942
2501 1 3943 3944
2502 1 3943 3945
2503 1 3946 3947
2504 1 3946 3948
2505 1 3949 3950
2506 1 3949 3951
2507 1 3952 3953
2508 1 3952 3954
2509 1 3955 3956
2510 1 3955 3957
2511 1 3958 3959
2512 1 3958 3960
2513 1 3961 3962
2514 1 3961 3963
2515 1 3964 3965
2516 1 3964 3966
2517 1 3967 3968
2518 1 3967 3969
2519 1 3970 3971
2520 1 3970 3972
2521 1 3973 3974
2522 1 3973 3975
2523 1 3976 3977
2524 1 3976 3978
2525 1 3979 3980
2526 1 3979 3981
2527 1 3982 3983
2528 1 3982 3984
2529 1 3985 3986
2530 1 3985 3987
2531 1 3988 3989
2532 1 3988 3990
2533 1 3991 3992
2534 1 3991 3993
2535 1 3994 3995
2536 1 3994 3996
2537 1 3997 3998
2538 1 3997 3999
2539 1 4000 4001
2540 1 4000 4002
2541 1 4003 4004
2542 1 4003 4005
2543 1 4006 4007
2544 1 4006 4008
2545 1 4009 4010
2546 1 4009 4011
2547 1 4012 4013
2548 1 4012 4014
2549 1 4015 4016
2550 1 4015 4017
2551 1 4018 4019
2552 1 4018 4020
2553 1 4021 4022
2554 1 4021 4023
2555 1 4024 4025
2556 1 4024 4026
2557 1 4027 4028
2558 1 4027 4029
2559 1 4030 4031
2560 1 4030 4032
2561 1 4033 4034
2562 1 4033 4035
2563 1 4036 4037
2564 1 4036 4038
2565 1 4039 4040
2566 1 4039 4041
2567 1 4042 4043
2568 1 4042 4044
2569 1 4045 4046
2570 1 4045 4047
2571 1 4048 4049
2572 1 4048 4050
2573 1 4051 4052
2574 1 4051 4053
2575 1 4054 4055
2576 1 4054 4056
2577 1 4057 4058
2578 1 4057 4059
2579 1 4060 4061
2580 1 4060 4062
2581 1 4063 4064
2582 1 4063 4065
2583 1 4066 4067
2584 1 4066 4068
2585 1 4069 4070
2586 1 4069 4071
2587 1 4072 4073
2588 1 4072 4074
2589 1 4075 4076
2590 1 4075 4077
2591 1 4078 4079
2592 1 4078 4080
2593 1 4081 4082
2594 1 4081 4083
2595 1 4084 4085
2596 1 4084 4086
2597 1 4087 4088
2598 1 4087 4089
2599 1 4090 4091
2600 1 4090 4092
2601 1 4093 4094
2602 1 4093 4095
2603 1 4096 4097
2604 1 4096 4098
2605 1 4099 4100
2606 1 4099 4101
2607 1 4102 4103
2608 1 4102 4104
2609 1 4105 4106
2610 1 4105 4107
2611 1 4108 4109
2612 1 4108 4110
2613 1 4111 4112
2614 1 4111 4113
2615 1 4114 4115
2616 1 4114 4116
2617 1 4117 4118
2618 1 4117 4119
2619 1 4120 4121
2620 1 4120 4122
2621 1 4123 4124
2622 1 4123 4125
2623 1 4126 4127
2624 1 4126 4128
2625 1 4129 4130
2626 1 4129 4131
2627 1 4132 4133
2628 1 4132 4134
2629 1 4135 4136
2630 1 4135 4137
2631 1 4138 4139
2632 1 4138 4140
2633 1 4141 4142
2634 1 4141 4143
2635 1 4144 4145
2636 1 4144 4146
2637 1 4147 4148
2638 1 4147 4149
2639 1 4150 4151
2640 1 4150 4152
2641 1 4153 4154
2642 1 4153 4155
2643 1 4156 4157
2644 1 4156 4158
2645 1 4159 4160
2646 1 4159 4161
2647 1 4162 4163
2648 1 4162 4164
2649 1 4165 4166
2650 1 4165 4167
2651 1 4168 4169
2652 1 4168 4170
2653 1 4171 4172
2654 1 4171 4173
2655 1 4174 4175
2656 1 4174 4176
2657 1 4177 4178
2658 1 4177 4179
2659 1 4180 4181
2660 1 4180 4182
2661 1 4183 4184
2662 1 4183 4185
2663 1 4186 4187
2664 1 4186 4188
2665 1 4189 4190
2666 1 4189 4191
2667 1 4192 4193
2668 1 4192 4194
2669 1 4195 4196
2670 1 4195 4197
2671 1 4198 4199
2672 1 4198 4200
2673 1 4201 4202
2674 1 4201 4203
2675 1 4204 4205
2676 1 4204 4206
2677 1 4207 4208
2678 1 4207 4209
2679 1 4210 4211
2680 1 4210 4212
2681 1 4213 4214
2682 1 4213 4215
2683 1 4216 4217
2684 1 4216 4218
2685 1 4219 4220
2686 1 4219 4221
2687 1 4222 4223
2688 1 4222 4224
2689 1 4225 4226
2690 1 4225 4227
2691 1 4228 4229
2692 1 4228 4230
2693 1 4231 4232
2694 1 4231 4233
2695 1 4234 4235
2696 1 4234 4236
2697 1 4237 4238
2698 1 4237 4239
2699 1 4240 4241
2700 1 4240 4242
2701 1 4243 4244
2702 1 4243 4245
2703 1 4246 4247
2704 1 4246 4248
2705 1 4249 4250
2706 1 4249 4251
2707 1 4252 4253
2708 1 4252 4254
2709 1 4255 4256
2710 1 4255 4257
2711 1 4258 4259
2712 1 4258 4260
2713 1 4261 4262
2714 1 4261 4263
2715 1 4264 4265
2716 1 4264 4266
2717 1 4267 4268
2718 1 4267 4269
2719 1 4270 4271
2720 1 4270 4272
2721 1 4273 4274
2722 1 4273 4275
2723 1 4276 4277
2724 1 4276 4278
2725 1 4279 4280
2726 1 4279 4281
2727 1 4282 4283
2728 1 4282 4284
2729 1 4285 4286
2730 1 4285 4287
2731 1 4288 4289
2732 1 4288 4290
2733 1 4291 4292
2734 1 4291 4293
2735 1 4294 4295
2736 1 4294 4296
2737 1 4297 4298
2738 1 4297 4299
2739 1 4300 4301
2740 1 4300 4302
2741 1 4303 4304
2742 1 4303 4305
2743 1 4306 4307
2744 1 4306 4308
2745 1 4309 4310
2746 1 4309 4311
2747 1 4312 4313
2748 1 4312 4314
2749 1 4315 4316
2750 1 4315 4317
2751 1 4318 4319
2752 1 4318 4320
2753 1 4321 4322
2754 1 4321 4323
2755 1 4324 4325
2756 1 4324 4326
2757 1 4327 4328
2758 1 4327 4329
2759 1 4330 4331
2760 1 4330 4332
2761 1 4333 4334
2762 1 4333 4335
2763 1 4336 4337
2764 1 4336 4338
2765 1 4339 4340
2766 1 4339 4341
2767 1 4342 4343
2768 1 4342 4344
2769 1 4345 4346
2770 1 4345 4347
2771 1 4348 4349
2772 1 4348 4350
2773 1 4351 4352
2774 1 4351 4353
2775 1 4354 4355
2776 1 4354 4356
2777 1 4357 4358
2778 1 4357 4359
2779 1 4360 4361
2780 1 4360 4362
2781 1 4363 4364
2782 1 4363 4365
2783 1 4366 4367
2784 1 4366 4368
2785 1 4369 4370
2786 1 4369 4371
2787 1 4372 4373
2788 1 4372 4374
2789 1 4375 4376
2790 1 4375 4377
2791 1 4378 4379
2792 1 4378 4380
2793 1 4381 4382
2794 1 4381 4383
2795 1 4384 4385
2796 1 4384 4386
2797 1 4387 4388
2798 1 4387 4389
2799 1 4390 4391
2800 1 4390 4392
2801 1 4393 4394
2802 1 4393 4395
2803 1 4396 4397
2804 1 4396 4398
2805 1 4399 4400
2806 1 4399 4401
2807 1 4402 4403
2808 1 4402 4404
2809 1 4405 4406
2810 1 4405 4407
2811 1 4408 4409
2812 1 4408 4410
2813 1 4411 4412
2814 1 4411 4413
2815 1 4414 4415
2816 1 4414 4416
2817 1 4417 4418
2818 1 4417 4419
2819 1 4420 4421
2820 1 4420 4422
2821 1 4423 4424
2822 1 4423 4425
2823 1 4426 4427
2824 1 4426 4428
2825 1 4429 4430
2826 1 4429 4431
2827 1 4432 4433
2828 1 4432 4434
2829 1 4435 4436
2830 1 4435 4437
2831 1 4438 4439
2832 1 4438 4440
2833 1 4441 4442
2834 1 4441 4443
2835 1 4444 4445
2836 1 4444 4446
2837 1 4447 4448
2838 1 4447 4449
2839 1 4450 4451
2840 1 4450 4452
2841 1 4453 4454
2842 1 4453 4455
2843 1 4456 4457
2844 1 4456 4458
2845 1 4459 4460
2846 1 4459 4461
2847 1 4462 4463
2848 1 4462 4464
2849 1 4465 4466
2850 1 4465 4467
2851 1 4468 4469
2852 1 4468 4470
2853 1 4471 4472
2854 1 4471 4473
2855 1 4474 4475
2856 1 4474 4476
2857 1 4477 4478
2858 1 4477 4479
2859 1 4480 4481
2860 1 4480 4482
2861 1 4483 4484
2862 1 4483 4485
2863 1 4486 4487
2864 1 4486 4488
2865 1 4489 4490
2866 1 4489 4491
2867 1 4492 4493
2868 1 4492 4494
2869 1 4495 4496
2870 1 4495 4497
2871 1 4498 4499
2872 1 4498 4500
2873 1 4501 4502
2874 1 4501 4503
2875 1 4504 4505
2876 1 4504 4506
2877 1 4507 4508
2878 1 4507 4509
2879 1 4510 4511
2880 1 4510 4512
2881 1 4513 4514
2882 1 4513 4515
2883 1 4516 4517
2884 1 4516 4518
2885 1 4519 4520
2886 1 4519 4521
2887 1 4522 4523
2888 1 4522 4524
2889 1 4525 4526
2890 1 4525 4527
2891 1 4528 4529
2892 1 4528 4530
2893 1 4531 4532
2894 1 4531 4533
2895 1 4534 4535
2896 1 4534 4536
2897 1 4537 4538
2898 1 4537 4539
2899 1 4540 4541
2900 1 4540 4542
2901 1 4543 4544
2902 1 4543 4545
2903 1 4546 4547
2904 1 4546 4548
2905 1 4549 4550
2906 1 4549 4551
2907 1 4552 4553
2908 1 4552 4554
2909 1 4555 4556
2910 1 4555 4557
2911 1 4558 4559
2912 1 4558 4560
2913 1 4561 4562
2914 1 4561 4563
2915 1 4564 4565
2916 1 4564 4566
2917 1 4567 4568
2918 1 4567 4569
2919 1 4570 4571
2920 1 4570 4572
2921 1 4573 4574
2922 1 4573 4575
2923 1 4576 4577
2924 1 4576 4578
2925 1 4579 4580
2926 1 4579 4581
2927 1 4582 4583
2928 1 4582 4584
2929 1 4585 4586
2930 1 4585 4587
2931 1 4588 4589
2932 1 4588 4590
2933 1 4591 4592
2934 1 4591 4593
2935 1 4594 4595
2936 1 4594 4596
2937 1 4597 4598
2938 1 4597 4599
2939 1 4600 4601
2940 1 4600 4602
2941 1 4603 4604
2942 1 4603 4605
2943 1 4606 4607
2944 1 4606 4608
2945 1 4609 4610
2946 1 4609 4611
2947 1 4612 4613
2948 1 4612 4614
2949 1 4615 4616
2950 1 4615 4617
2951 1 4618 4619
2952 1 4618 4620
2953 1 4621 4622
2954 1 4621 4623
2955 1 4624 4625
2956 1 4624 4626
2957 1 4627 4628
2958 1 4627 4629
2959 1 4630 4631
2960 1 4630 4632
2961 1 4633 4634
2962 1 4633 4635
2963 1 4636 4637
2964 1 4636 4638
2965 1 4639 4640
2966 1 4639 4641
2967 1 4642 4643
2968 1 4642 4644
2969 1 4645 4646
2970 1 4645 4647
2971 1 4648 4649
2972 1 4648 4650
2973 1 4651 4652
2974 1 4651 4653
2975 1 4654 4655
2976 1 4654 4656
2977 1 4657 4658
2978 1 4657 4659
2979 1 4660 4661
2980 1 4660 4662
2981 1 4663 4664
2982 1 4663 4665
2983 1 4666 4667
2984 1 4666 4668
2985 1 4669 4670
2986 1 4669 4671
2987 1 4672 4673
2988 1 4672 4674
2989 1 4675 4676
2990 1 4675 4677
2991 1 4678 4679
2992 1 4678 4680
2993 1 4681 4682
2994 1 4681 4683
2995 1 4684 4685
2996 1 4684 4686
2997 1 4687 4688
2998 1 4687 4689
2999 1 4690 4691
3000 1 4690 4692
3001 1 4693 4694
3002 1 4693 4695
3003 1 4696 4697
3004 1 4696 4698
3005 1 4699 4700
3006 1 4699 4701
3007 1 4702 4703
3008 1 4702 4704
3009 1 4705 4706
3010 1 4705 4707
3011 1 4708 4709
3012 1 4708 4710
3013 1 4711 4712
3014 1 4711 4713
3015 1 4714 4715
3016 1 4714 4716
3017 1 4717 4718
3018 1 4717 4719
3019 1 4720 4721
3020 1 4720 4722
3021 1 4723 4724
3022 1 4723 4725
3023 1 4726 4727
3024 1 4726 4728
3025 1 4729 4730
3026 1 4729 4731
3027 1 4732 4733
3028 1 4732 4734
3029 1 4735 4736
3030 1 4735 4737
3031 1 4738 4739
3032 1 4738 4740
3033 1 4741 4742
3034 1 4741 4743
3035 1 4744 4745
3036 1 4744 4746
3037 1 4747 4748
3038 1 4747 4749
3039 1 4750 4751
3040 1 4750 4752
3041 1 4753 4754
3042 1 4753 4755
3043 1 4756 4757
3044 1 4756 4758
3045 1 4759 4760
3046 1 4759 4761
3047 1 4762 4763
3048 1 4762 4764
3049 1 4765 4766
3050 1 4765 4767
3051 1 4768 4769
3052 1 4768 4770
3053 1 4771 4772
3054 1 4771 4773
3055 1 4774 4775
3056 1 4774 4776
3057 1 4777 4778
3058 1 4777 4779
3059 1 4780 4781
3060 1 4780 4782
3061 1 4783 4784
3062 1 4783 4785
3063 1 4786 4787
3064 1 4786 4788
3065 1 4789 4790
3066 1 4789 4791
3067 1 4792 4793
3068 1 4792 4794
3069 1 4795 4796
3070 1 4795 4797
3071 1 4798 4799
3072 1 4798 4800
3073 1 4801 4802
3074 1 4801 4803
3075 1 4804 4805
3076 1 4804 4806
3077 1 4807 4808
3078 1 4807 4809
3079 1 4810 4811
3080 1 4810 4812
3081 1 4813 4814
3082 1 4813 4815
3083 1 4816 4817
3084 1 4816 4818
3085 1 4819 4820
3086 1 4819 4821
3087 1 4822 4823
3088 1 4822 4824
3089 1 4825 4826
3090 1 4825 4827
3091 1 4828 4829
3092 1 4828 4830
3093 1 4831 4832
3094 1 4831 4833
3095 1 4834 4835
3096 1 4834 4836
3097 1 4837 4838
3098 1 4837 4839
3099 1 4840 4841
3100 1 4840 4842
3101 1 4843 4844
3102 1 4843 4845
3103 1 4846 4847
3104 1 4846 4848
3105 1 4849 4850
3106 1 4849 4851
3107 1 4852 4853
3108 1 4852 4854
3109 1 4855 4856
3110 1 4855 4857
3111 1 4858 4859
3112 1 4858 4860
3113 1 4861 4862
3114 1 4861 4863
3115 1 4864 4865
3116 1 4864 4866
3117 1 4867 4868
3118 1 4867 4869
3119 1 4870 4871
3120 1 4870 4872
3121 1 4873 4874
3122 1 4873 4875
3123 1 4876 4877
3124 1 4876 4878
3125 1 4879 4880
3126 1 4879 4881
3127 1 4882 4883
3128 1 4882 4884
3129 1 4885 4886
3130 1 4885 4887
3131 1 4888 4889
3132 1 4888 4890
3133 1 4891 4892
3134 1 4891 4893
3135 1 4894 4895
3136 1 4894 4896
3137 1 4897 4898
3138 1 4897 4899
3139 1 4900 4901
3140 1 4900 4902
3141 1 4903 4904
3142 1 4903 4905
3143 1 4906 4907
3144 1 4906 4908
3145 1 4909 4910
3146 1 4909 4911
3147 1 4912 4913
3148 1 4912 4914
3149 1 4915 4916
3150 1 4915 4917
3151 1 4918 4919
3152 1 4918 4920
3153 1 4921 4922
3154 1 4921 4923
3155 1 4924 4925
3156 1 4924 4926
3157 1 4927 4928
3158 1 4927 4929
3159 1 4930 4931
3160 1 4930 4932
3161 1 4933 4934
3162 1 4933 4935
3163 1 4936 4937
3164 1 4936 4938
3165 1 4939 4940
3166 1 4939 4941
3167 1 4942 4943
3168 1 4942 4944
3169 1 4945 4946
3170 1 4945 4947
3171 1 4948 4949
3172 1 4948 4950
3173 1 4951 4952
3174 1 4951 4953
3175 1 4954 4955
3176 1 4954 4956
3177 1 4957 4958
3178 1 4957 4959
3179 1 4960 4961
3180 1 4960 4962
3181 1 4963 4964
3182 1 4963 4965
3183 1 4966 4967
3184 1 4966 4968
3185 1 4969 4970
3186 1 4969 4971
3187 1 4972 4973
3188 1 4972 4974
3189 1 4975 4976
3190 1 4975 4977
3191 1 4978 4979
3192 1 4978 4980
3193 1 4981 4982
3194 1 4981 4983
3195 1 4984 4985
3196 1 4984 4986
3197 1 4987 4988
3198 1 4987 4989
3199 1 4990 4991
3200 1 4990 4992
3201 1 4993 4994
3202 1 4993 4995
3203 1 4996 4997
3204 1 4996 4998
3205 1 4999 5000
3206 1 4999 5001
3207 1 5002 5003
3208 1 5002 5004
3209 1 5005 5006
3210 1 5005 5007
3211 1 5008 5009
3212 1 5008 5010
3213 1 5011 5012
3214 1 5011 5013
3215 1 5014 5015
3216 1 5014 5016
3217 1 5017 5018
3218 1 5017 5019
3219 1 5020 5021
3220 1 5020 5022
3221 1 5023 5024
3222 1 5023 5025
3223 1 5026 5027
3224 1 5026 5028
3225 1 5029 5030
3226 1 5029 5031
3227 1 5032 5033
3228 1 5032 5034
3229 1 5035 5036
3230 1 5035 5037
3231 1 5038 5039
3232 1 5038 5040
3233 1 5041 5042
3234 1 5041 5043
3235 1 5044 5045
3236 1 5044 5046
3237 1 5047 5048
3238 1 5047 5049
3239 1 5050 5051
3240 1 5050 5052
3241 1 5053 5054
3242 1 5053 5055
3243 1 5056 5057
3244 1 5056 5058
3245 1 5059 5060
3246 1 5059 5061
3247 1 5062 5063
3248 1 5062 5064
3249 1 5065 5066
3250 1 5065 5067
3251 1 5068 5069
3252 1 5068 5070
3253 1 5071 5072
3254 1 5071 5073
3255 1 5074 5075
3256 1 5074 5076
3257 1 5077 5078
3258 1 5077 5079
3259 1 5080 5081
3260 1 5080 5082
3261 1 5083 5084
3262 1 5083 5085
3263 1 5086 5087
3264 1 5086 5088
3265 1 5089 5090
3266 1 5089 5091
3267 1 5092 5093
3268 1 5092 5094
3269 1 5095 5096
3270 1 5095 5097
3271 1 5098 5099
3272 1 5098 5100
3273 1 5101 5102
3274 1 5101 5103
3275 1 5104 5105
3276 1 5104 5106
3277 1 5107 5108
3278 1 5107 5109
3279 1 5110 5111
3280 1 5110 5112
3281 1 5113 5114
3282 1 5113 5115
3283 1 5116 5117
3284 1 5116 5118
3285 1 5119 5120
3286 1 5119 5121
3287 1 5122 5123
3288 1 5122 5124
3289 1 5125 5126
3290 1 5125 5127
3291 1 5128 5129
3292 1 5128 5130
3293 1 5131 5132
3294 1 5131 5133
3295 1 5134 5135
3296 1 5134 5136
3297 1 5137 5138
3298 1 5137 5139
3299 1 5140 5141
3300 1 5140 5142
3301 1 5143 5144
3302 1 5143 5145
3303 1 5146 5147
3304 1 5146 5148
3305 1 5149 5150
3306 1 5149 5151
3307 1 5152 5153
3308 1 5152 5154
3309 1 5155 5156
3310 1 5155 5157
3311 1 5158 5159
3312 1 5158 5160
3313 1 5161 5162
3314 1 5161 5163
3315 1 5164 5165
3316 1 5164 5166
3317 1 5167 5168
3318 1 5167 5169
3319 1 5170 5171
3320 1 5170 5172
3321 1 5173 5174
3322 1 5173 5175
3323 1 5176 5177
3324 1 5176 5178
3325 1 5179 5180
3326 1 5179 5181
3327 1 5182 5183
3328 1 5182 5184
3329 1 5185 5186
3330 1 5185 5187
3331 1 5188 5189
3332 1 5188 5190
3333 1 5191 5192
3334 1 5191 5193
3335 1 5194 5195
3336 1 5194 5196
3337 1 5197 5198
3338 1 5197 5199
3339 1 5200 5201
3340 1 5200 5202
3341 1 5203 5204
3342 1 5203 5205
3343 1 5206 5207
3344 1 5206 5208
3345 1 5209 5210
3346 1 5209 5211
3347 1 5212 5213
3348 1 5212 5214
3349 1 5215 5216
3350 1 5215 5217
3351 1 5218 5219
3352 1 5218 5220
3353 1 5221 5222
3354 1 5221 5223
3355 1 5224 5225
3356 1 5224 5226
3357 1 5227 5228
3358 1 5227 5229
3359 1 5230 5231
3360 1 5230 5232
3361 1 5233 5234
3362 1 5233 5235
3363 1 5236 5237
3364 1 5236 5238
3365 1 5239 5240
3366 1 5239 5241
3367 1 5242 5243
3368 1 5242 5244
3369 1 5245 5246
3370 1 5245 5247
3371 1 5248 5249
3372 1 5248 5250
3373 1 5251 5252
3374 1 5251 5253
3375 1 5254 5255
3376 1 5254 5256
3377 1 5257 5258
3378 1 5257 5259
3379 1 5260 5261
3380 1 5260 5262
3381 1 5263 5264
3382 1 5263 5265
3383 1 5266 5267
3384 1 5266 5268
3385 1 5269 5270
3386 1 5269 5271
3387 1 5272 5273
3388 1 5272 5274
3389 1 5275 5276
3390 1 5275 5277
3391 1 5278 5279
3392 1 5278 5280
3393 1 5281 5282
3394 1 5281 5283
3395 1 5284 5285
3396 1 5284 5286
3397 1 5287 5288
3398 1 5287 5289
3399 1 5290 5291
3400 1 5290 5292
3401 1 5293 5294
3402 1 5293 5295
3403 1 5296 5297
3404 1 5296 5298
3405 1 5299 5300
3406 1 5299 5301
3407 1 5302 5303
3408 1 5302 5304
3409 1 5305 5306
3410 1 5305 5307
3411 1 5308 5309
3412 1 5308 5310
3413 1 5311 5312
3414 1 5311 5313
3415 1 5314 5315
3416 1 5314 5316
3417 1 5317 5318
3418 1 5317 5319
3419 1 5320 5321
3420 1 5320 5322
3421 1 5323 5324
3422 1 5323 5325
3423 1 5326 5327
3424 1 5326 5328
3425 1 5329 5330
3426 1 5329 5331
3427 1 5332 5333
3428 1 5332 5334
3429 1 5335 5336
3430 1 5335 5337
3431 1 5338 5339
3432 1 5338 5340
3433 1 5341 5342
3434 1 5341 5343
3435 1 5344 5345
3436 1 5344 5346
3437 1 5347 5348
3438 1 5347 5349
3439 1 5350 5351
3440 1 5350 5352
3441 1 5353 5354
3442 1 5353 5355
3443 1 5356 5357
3444 1 5356 5358
3445 1 5359 5360
3446 1 5359 5361
3447 1 5362 5363
3448 1 5362 5364
3449 1 5365 5366
3450 1 5365 5367
3451 1 5368 5369
3452 1 5368 5370
3453 1 5371 5372
3454 1 5371 5373
3455 1 5374 5375
3456 1 5374 5376
3457 1 5377 5378
3458 1 5377 5379
3459 1 5380 5381
3460 1 5380 5382
3461 1 5383 5384
3462 1 5383 5385
3463 1 5386 5387
3464 1 5386 5388
3465 1 5389 5390
3466 1 5389 5391
3467 1 5392 5393
3468 1 5392 5394
3469 1 5395 5396
3470 1 5395 5397
3471 1 5398 5399
3472 1 5398 5400
3473 1 5401 5402
3474 1 5401 5403
3475 1 5404 5405
3476 1 5404 5406
3477 1 5407 5408
3478 1 5407 5409
3479 1 5410 5411
3480 1 5410 5412
3481 1 5413 5414
3482 1 5413 5415
3483 1 5416 5417
3484 1 5416 5418
3485 1 5419 5420
3486 1 5419 5421
3487 1 5422 5423
3488 1 5422 5424
3489 1 5425 5426
3490 1 5425 5427
3491 1 5428 5429
3492 1 5428 5430
3493 1 5431 5432
3494 1 5431 5433
3495 1 5434 5435
3496 1 5434 5436
3497 1 5437 5438
3498 1 5437 5439
3499 1 5440 5441
3500 1 5440 5442
3501 1 5443 5444
3502 1 5443 5445
3503 1 5446 5447
3504 1 5446 5448
3505 1 5449 5450
3506 1 5449 5451
3507 1 5452 5453
3508 1 5452 5454
3509 1 5455 5456
3510 1 5455 5457
3511 1 5458 5459
3512 1 5458 5460
3513 1 5461 5462
3514 1 5461 5463
3515 1 5464 5465
3516 1 5464 5466
3517 1 5467 5468
3518 1 5467 5469
3519 1 5470 5471
3520 1 5470 5472
3521 1 5473 5474
3522 1 5473 5475
3523 1 5476 5477
3524 1 5476 5478
3525 1 5479 5480
3526 1 5479 5481
3527 1 5482 5483
3528 1 5482 5484
3529 1 5485 5486
3530 1 5485 5487
3531 1 5488 5489
3532 1 5488 5490
3533 1 5491 5492
3534 1 5491 5493
3535 1 5494 5495
3536 1 5494 5496
3537 1 5497 5498
3538 1 5497 5499
3539 1 5500 5501
3540 1 5500 5502
3541 1 5503 5504
3542 1 5503 5505
3543 1 5506 5507
3544 1 5506 5508
3545 1 5509 5510
3546 1 5509 5511
3547 1 5512 5513
3548 1 5512 5514
3549 1 5515 5516
3550 1 5515 5517
3551 1 5518 5519
3552 1 5518 5520
3553 1 5521 5522
3554 1 5521 5523
3555 1 5524 5525
3556 1 5524 5526
3557 1 5527 5528
3558 1 5527 5529
3559 1 5530 5531
3560 1 5530 5532
3561 1 5533 5534
3562 1 5533 5535
3563 1 5536 5537
3564 1 5536 5538
3565 1 5539 5540
3566 1 5539 5541
3567 1 5542 5543
3568 1 5542 5544
3569 1 5545 5546
3570 1 5545 5547
3571 1 5548 5549
3572 1 5548 5550
3573 1 5551 5552
3574 1 5551 5553
3575 1 5554 5555
3576 1 5554 5556
3577 1 5557 5558
3578 1 5557 5559
3579 1 5560 5561
3580 1 5560 5562
3581 1 5563 5564
3582 1 5563 5565
3583 1 5566 5567
3584 1 5566 5568
3585 1 5569 5570
3586 1 5569 5571
3587 1 5572 5573
3588 1 5572 5574
3589 1 5575 5576
3590 1 5575 5577
3591 1 5578 5579
3592 1 5578 5580
3593 1 5581 5582
3594 1 5581 5583
3595 1 5584 5585
3596 1 5584 5586
3597 1 5587 5588
3598 1 5587 5589
3599 1 5590 5591
3600 1 5590 5592
3601 1 5593 5594
3602 1 5593 5595
3603 1 5596 5597
3604 1 5596 5598
3605 1 5599 5600
3606 1 5599 5601
3607 1 5602 5603
3608 1 5602 5604
3609 1 5605 5606
3610 1 5605 5607
3611 1 5608 5609
3612 1 5608 5610
3613 1 5611 5612
3614 1 5611 5613
3615 1 5614 5615
3616 1 5614 5616
3617 1 5617 5618
3618 1 5617 5619
3619 1 5620 5621
3620 1 5620 5622
3621 1 5623 5624
3622 1 5623 5625
3623 1 5626 5627
3624 1 5626 5628
3625 1 5629 5630
3626 1 5629 5631
3627 1 5632 5633
3628 1 5632 5634
3629 1 5635 5636
3630 1 5635 5637
3631 1 5638 5639
3632 1 5638 5640
3633 1 5641 5642
3634 1 5641 5643
3635 1 5644 5645
3636 1 5644 5646
3637 1 5647 5648
3638 1 5647 5649
3639 1 5650 5651
3640 1 5650 5652
3641 1 5653 5654
3642 1 5653 5655
3643 1 5656 5657
3644 1 5656 5658
3645 1 5659 5660
3646 1 5659 5661
3647 1 5662 5663
3648 1 5662 5664
3649 1 5665 5666
3650 1 5665 5667
3651 1 5668 5669
3652 1 5668 5670
3653 1 5671 5672
3654 1 5671 5673
3655 1 5674 5675
3656 1 5674 5676
3657 1 5677 5678
3658 1 5677 5679
3659 1 5680 5681
3660 1 5680 5682
3661 1 5683 5684
3662 1 5683 5685
3663 1 5686 5687
3664 1 5686 5688
3665 1 5689 5690
3666 1 5689 5691
3667 1 5692 5693
3668 1 5692 5694
3669 1 5695 5696
3670 1 5695 5697
3671 1 5698 5699
3672 1 5698 5700
3673 1 5701 5702
3674 1 5701 5703
3675 1 5704 5705
3676 1 5704 5706
3677 1 5707 5708
3678 1 5707 5709
3679 1 5710 5711
3680 1 5710 5712
3681 1 5713 5714
3682 1 5713 5715
3683 1 5716 5717
3684 1 5716 5718
3685 1 5719 5720
3686 1 5719 5721
3687 1 5722 5723
3688 1 5722 5724
3689 1 5725 5726
3690 1 5725 5727
3691 1 5728 5729
3692 1 5728 5730
3693 1 5731 5732
3694 1 5731 5733
3695 1 5734 5735
3696 1 5734 5736
3697 1 5737 5738
3698 1 5737 5739
3699 1 5740 5741
3700 1 5740 5742
3701 1 5743 5744
3702 1 5743 5745
3703 1 5746 5747
3704 1 5746 5748
3705 1 5749 5750
3706 1 5749 5751
3707 1 5752 5753
3708 1 5752 5754
3709 1 5755 5756
3710 1 5755 5757
3711 1 5758 5759
3712 1 5758 5760
3713 1 5761 5762
3714 1 5761 5763
3715 1 5764 5765
3716 1 5764 5766
3717 1 5767 5768
3718 1 5767 5769
3719 1 5770 5771
3720 1 5770 5772
3721 1 5773 5774
3722 1 5773 5775
3723 1 5776 5777
3724 1 5776 5778
3725 1 5779 5780
3726 1 5779 5781
3727 1 5782 5783
3728 1 5782 5784
3729 1 5785 5786
3730 1 5785 5787
3731 1 5788 5789
3732 1 5788 5790
3733 1 5791 5792
3734 1 5791 5793
3735 1 5794 5795
3736 1 5794 5796
3737 1 5797 5798
3738 1 5797 5799
3739 1 5800 5801
3740 1 5800 5802
3741 1 5803 5804
3742 1 5803 5805
3743 1 5806 5807
3744 1 5806 5808
3745 1 5809 5810
3746 1 5809 5811
3747 1 5812 5813
3748 1 5812 5814
3749 1 5815 5816
3750 1 5815 5817
3751 1 5818 5819
3752 1 5818 5820
3753 1 5821 5822
3754 1 5821 5823
3755 1 5824 5825
3756 1 5824 5826
3757 1 5827 5828
3758 1 5827 5829
3759 1 5830 5831
3760 1 5830 5832
3761 1 5833 5834
3762 1 5833 5835
3763 1 5836 5837
3764 1 5836 5838
3765 1 5839 5840
3766 1 5839 5841
3767 1 5842 5843
3768 1 5842 5844
3769 1 5845 5846
3770 1 5845 5847
3771 1 5848 5849
3772 1 5848 5850
3773 1 5851 5852
3774 1 5851 5853
3775 1 5854 5855
3776 1 5854 5856
3777 1 5857 5858
3778 1 5857 5859
3779 1 5860 5861
3780 1 5860 5862
3781 1 5863 5864
3782 1 5863 5865
3783 1 5866 5867
3784 1 5866 5868
3785 1 5869 5870
3786 1 5869 5871
3787 1 5872 5873
3788 1 5872 5874
3789 1 5875 5876
3790 1 5875 5877
3791 1 5878 5879
3792 1 5878 5880
3793 1 5881 5882
3794 1 5881 5883
3795 1 5884 5885
3796 1 5884 5886
3797 1 5887 5888
3798 1 5887 5889
3799 1 5890 5891
3800 1 5890 5892
3801 1 5893 5894
3802 1 5893 5895
3803 1 5896 5897
3804 1 5896 5898
3805 1 5899 5900
3806 1 5899 5901
3807 1 5902 5903
3808 1 5902 5904
3809 1 5905 5906
3810 1 5905 5907
3811 1 5908 5909
3812 1 5908 5910
3813 1 5911 5912
3814 1 5911 5913
3815 1 5914 5915
3816 1 5914 5916
3817 1 5917 5918
3818 1 5917 5919
3819 1 5920 5921
3820 1 5920 5922
3821 1 5923 5924
3822 1 5923 5925
3823 1 5926 5927
3824 1 5926 5928
3825 1 5929 5930
3826 1 5929 5931
3827 1 5932 5933
3828 1 5932 5934
3829 1 5935 5936
3830 1 5935 5937
3831 1 5938 5939
3832 1 5938 5940
3833 1 5941 5942
3834 1 5941 5943
3835 1 5944 5945
3836 1 5944 5946
3837 1 5947 5948
3838 1 5947 5949
3839 1 5950 5951
3840 1 5950 5952
3841 1 5953 5954
3842 1 5953 5955
3843 1 5956 5957
3844 1 5956 5958
3845 1 5959 5960
3846 1 5959 5961
3847 1 5962 5963
3848 1 5962 5964
3849 1 5965 5966
3850 1 5965 5967
3851 1 5968 5969
3852 1 5968 5970
3853 1 5971 5972
3854 1 5971 5973
3855 1 5974 5975
3856 1 5974 5976
3857 1 5977 5978
3858 1 5977 5979
3859 1 5980 5981
3860 1 5980 5982
3861 1 5983 5984
3862 1 5983 5985
3863 1 5986 5987
3864 1 5986 5988
3865 1 5989 5990
3866 1 5989 5991
3867 1 5992 5993
3868 1 5992 5994
3869 1 5995 5996
3870 1 5995 5997
3871 1 5998 5999
3872 1 5998 6000
3873 1 6001 6002
3874 1 6001 6003
3875 1 6004 6005
3876 1 6004 6006
3877 1 6007 6008
3878 1 6007 6009
3879 1 6010 6011
3880 1 6010 6012
3881 1 6013 6014
3882 1 6013 6015
3883 1 6016 6017
3884 1 6016 6018
3885 1 6019 6020
3886 1 6019 6021
3887 1 6022 6023
3888 1 6022 6024
3889 1 6025 6026
3890 1 6025 6027
3891 1 6028 6029
3892 1 6028 6030
3893 1 6031 6032
3894 1 6031 6033
3895 1 6034 6035
3896 1 6034 6036
3897 1 6037 6038
3898 1 6037 6039
3899 1 6040 6041
3900 1 6040 6042
3901 1 6043 6044
3902 1 6043 6045
3903 1 6046 6047
3904 1 6046 6048
3905 1 6049 6050
3906 1 6049 6051
3907 1 6052 6053
3908 1 6052 6054
3909 1 6055 6056
3910 1 6055 6057
3911 1 6058 6059
3912 1 6058 6060
3913 1 6061 6062
3914 1 6061 6063
3915 1 6064 6065
3916 1 6064 6066
3917 1 6067 6068
3918 1 6067 6069
3919 1 6070 6071
3920 1 6070 6072
3921 1 6073 6074
3922 1 6073 6075
3923 1 6076 6077
3924 1 6076 6078
3925 1 6079 6080
3926 1 6079 6081
3927 1 6082 6083
3928 1 6082 6084
3929 1 6085 6086
3930 1 6085 6087
3931 1 6088 6089
3932 1 6088 6090
3933 1 6091 6092
3934 1 6091 6093
3935 1 6094 6095
3936 1 6094 6096
3937 1 6097 6098
3938 1 6097 6099
3939 1 6100 6101
3940 1 6100 6102
3941 1 6103 6104
3942 1 6103 6105
3943 1 6106 6107
3944 1 6106 6108
3945 1 6109 6110
3946 1 6109 6111
3947 1 6112 6113
3948 1 6112 6114
3949 1 6115 6116
3950 1 6115 6117
3951 1 6118 6119
3952 1 6118 6120
3953 1 6121 6122
3954 1 6121 6123
3955 1 6124 6125
3956 1 6124 6126
3957 1 6127 6128
3958 1 6127 6129
3959 1 6130 6131
3960 1 6130 6132
3961 1 6133 6134
3962 1 6133 6135
3963 1 6136 6137
3964 1 6136 6138
3965 1 6139 6140
3966 1 6139 6141
3967 1 6142 6143
3968 1 6142 6144
3969 1 6145 6146
3970 1 6145 6147
3971 1 6148 6149
3972 1 6148 6150
3973 1 6151 6152
3974 1 6151 6153
3975 1 6154 6155
3976 1 6154 6156
3977 1 6157 6158
3978 1 6157 6159
3979 1 6160 6161
3980 1 6160 6162
3981 1 6163 6164
3982 1 6163 6165
3983 1 6166 6167
3984 1 6166 6168
3985 1 6169 6170
3986 1 6169 6171
3987 1 6172 6173
3988 1 6172 6174
3989 1 6175 6176
3990 1 6175 6177
3991 1 6178 6179
3992 1 6178 6180
3993 1 6181 6182
3994 1 6181 6183
3995 1 6184 6185
3996 1 6184 6186
3997 1 6187 6188
3998 1 6187 6189
3999 1 6190 6191
4000 1 6190 6192
4001 1 6193 6194
4002 1 6193 6195
4003 1 6196 6197
4004 1 6196 6198
4005 1 6199 6200
4006 1 6199 6201
4007 1 6202 6203
4008 1 6202 6204
4009 1 6205 6206
4010 1 6205 6207
4011 1 6208 6209
4012 1 6208 6210
4013 1 6211 6212
4014 1 6211 6213
4015 1 6214 6215
4016 1 6214 6216
4017 1 6217 6218
4018 1 6217 6219
4019 1 6220 6221
4020 1 6220 6222
4021 1 6223 6224
4022 1 6223 6225
4023 1 6226 6227
4024 1 6226 6228
4025 1 6229 6230
4026 1 6229 6231
4027 1 6232 6233
4028 1 6232 6234
4029 1 6235 6236
4030 1 6235 6237
4031 1 6238 6239
4032 1 6238 6240
4033 1 6241 6242
4034 1 6241 6243
4035 1 6244 6245
4036 1 6244 6246
4037 1 6247 6248
4038 1 6247 6249
4039 1 6250 6251
4040 1 6250 6252
4041 1 6253 6254
4042 1 6253 6255
4043 1 6256 6257
4044 1 6256 6258
4045 1 6259 6260
4046 1 6259 6261
4047 1 6262 6263
4048 1 6262 6264
4049 1 6265 6266
4050 1 6265 6267
4051 1 6268 6269
4052 1 6268 6270
4053 1 6271 6272
4054 1 6271 6273
4055 1 6274 6275
4056 1 6274 6276
4057 1 6277 6278
4058 1 6277 6279
4059 1 6280 6281
4060 1 6280 6282
4061 1 6283 6284
4062 1 6283 6285
4063 1 6286 6287
4064 1 6286 6288
4065 1 6289 6290
4066 1 6289 6291
4067 1 6292 6293
4068 1 6292 6294
4069 1 6295 6296
4070 1 6295 6297
4071 1 6298 6299
4072 1 6298 6300
4073 1 6301 6302
4074 1 6301 6303
4075 1 6304 6305
4076 1 6304 6306
4077 1 6307 6308
4078 1 6307 6309
4079 1 6310 6311
4080 1 6310 6312
4081 1 6313 6314
4082 1 6313 6315
4083 1 6316 6317
4084 1 6316 6318
4085 1 6319 6320
4086 1 6319 6321
4087 1 6322 6323
4088 1 6322 6324
4089 1 6325 6326
4090 1 6325 6327
4091 1 6328 6329
4092 1 6328 6330
4093 1 6331 6332
4094 1 6331 6333
4095 1 6334 6335
4096 1 6334 6336
4097 1 6337 6338
4098 1 6337 6339
4099 1 6340 6341
4100 1 6340 6342
4101 1 6343 6344
4102 1 6343 6345
4103 1 6346 6347
4104 1 6346 6348
4105 1 6349 6350
4106 1 6349 6351
4107 1 6352 6353
4108 1 6352 6354
4109 1 6355 6356
4110 1 6355 6357
4111 1 6358 6359
4112 1 6358 6360
4113 1 6361 6362
4114 1 6361 6363
4115 1 6364 6365
4116 1 6364 6366
4117 1 6367 6368
4118 1 6367 6369
4119 1 6370 6371
4120 1 6370 6372
4121 1 6373 6374
4122 1 6373 6375
4123 1 6376 6377
4124 1 6376 6378
4125 1 6379 6380
4126 1 6379 6381
4127 1 6382 6383
4128 1 6382 6384
4129 1 6385 6386
4130 1 6385 6387
4131 1 6388 6389
4132 1 6388 6390
4133 1 6391 6392
4134 1 6391 6393
4135 1 6394 6395
4136 1 6394 6396
4137 1 6397 6398
4138 1 6397 6399
4139 1 6400 6401
4140 1 6400 6402
4141 1 6403 6404
4142 1 6403 6405
4143 1 6406 6407
4144 1 6406 6408
4145 1 6409 6410
4146 1 6409 6411
4147 1 6412 6413
4148 1 6412 6414
4149 1 6415 6416
4150 1 6415 6417
4151 1 6418 6419
4152 1 6418 6420
4153 1 6421 6422
4154 1 6421 6423
4155 1 6424 6425
4156 1 6424 6426
4157 1 6427 6428
4158 1 6427 6429
4159 1 6430 6431
4160 1 6430 6432
4161 1 6433 6434
4162 1 6433 6435
4163 1 6436 6437
4164 1 6436 6438
4165 1 6439 6440
4166 1 6439 6441
4167 1 6442 6443
4168 1 6442 6444
4169 1 6445 6446
4170 1 6445 6447
4171 1 6448 6449
4172 1 6448 6450
4173 1 6451 6452
4174 1 6451 6453
4175 1 6454 6455
4176 1 6454 6456
4177 1 6457 6458
4178 1 6457 6459
4179 1 6460 6461
4180 1 6460 6462
4181 1 6463 6464
4182 1 6463 6465
4183 1 6466 6467
4184 1 6466 6468
4185 1 6469 6470
4186 1 6469 6471
4187 1 6472 6473
4188 1 6472 6474
4189 1 6475 6476
4190 1 6475 6477
4191 1 6478 6479
4192 1 6478 6480
4193 1 6481 6482
4194 1 6481 6483
4195 1 6484 6485
4196 1 6484 6486
4197 1 6487 6488
4198 1 6487 6489
4199 1 6490 6491
4200 1 6490 6492
4201 1 6493 6494
4202 1 6493 6495
4203 1 6496 6497
4204 1 6496 6498
4205 1 6499 6500
4206 1 6499 6501
4207 1 6502 6503
4208 1 6502 6504
4209 1 6505 6506
4210 1 6505 6507
4211 1 6508 6509
4212 1 6508 6510
4213 1 6511 6512
4214 1 6511 6513
4215 1 6514 6515
4216 1 6514 6516
4217 1 6517 6518
4218 1 6517 6519
4219 1 6520 6521
4220 1 6520 6522
4221 1 6523 6524
4222 1 6523 6525
4223 1 6526 6527
4224 1 6526 6528
4225 1 6529 6530
4226 1 6529 6531
4227 1 6532 6533
4228 1 6532 6534
4229 1 6535 6536
4230 1 6535 6537
4231 1 6538 6539
4232 1 6538 6540
4233 1 6541 6542
4234 1 6541 6543
4235 1 6544 6545
4236 1 6544 6546
4237 1 6547 6548
4238 1 6547 6549
4239 1 6550 6551
4240 1 6550 6552
4241 1 6553 6554
4242 1 6553 6555
4243 1 6556 6557
4244 1 6556 6558
4245 1 6559 6560
4246 1 6559 6561
4247 1 6562 6563
4248 1 6562 6564
4249 1 6565 6566
4250 1 6565 6567
4251 1 6568 6569
4252 1 6568 6570
4253 1 6571 6572
4254 1 6571 6573
4255 1 6574 6575
4256 1 6574 6576
4257 1 6577 6578
4258 1 6577 6579
4259 1 6580 6581
4260 1 6580 6582
4261 1 6583 6584
4262 1 6583 6585
4263 1 6586 6587
4264 1 6586 6588
4265 1 6589 6590
4266 1 6589 6591
4267 1 6592 6593
4268 1 6592 6594
4269 1 6595 6596
4270 1 6595 6597
4271 1 6598 6599
4272 1 6598 6600
4273 1 6601 6602
4274 1 6601 6603
4275 1 6604 6605
4276 1 6604 6606
4277 1 6607 6608
4278 1 6607 6609
4279 1 6610 6611
4280 1 6610 6612
4281 1 6613 6614
4282 1 6613 6615
4283 1 6616 6617
4284 1 6616 6618
4285 1 6619 6620
4286 1 6619 6621
4287 1 6622 6623
4288 1 6622 6624
4289 1 6625 6626
4290 1 6625 6627
4291 1 6628 6629
4292 1 6628 6630
4293 1 6631 6632
4294 1 6631 6633
4295 1 6634 6635
4296 1 6634 6636
4297 1 6637 6638
4298 1 6637 6639
4299 1 6640 6641
4300 1 6640 6642
4301 1 6643 6644
4302 1 6643 6645
4303 1 6646 6647
4304 1 6646 6648
4305 1 6649 6650
4306 1 6649 6651
4307 1 6652 6653
4308 1 6652 6654
4309 1 6655 6656
4310 1 6655 6657
4311 1 6658 6659
4312 1 6658 6660
4313 1 6661 6662
4314 1 6661 6663
4315 1 6664 6665
4316 1 6664 6666
4317 1 6667 6668
4318 1 6667 6669
4319 1 6670 6671
4320 1 6670 6672
4321 1 6673 6674
4322 1 6673 6675
4323 1 6676 6677
4324 1 6676 6678
4325 1 6679 6680
4326 1 6679 6681
4327 1 6682 6683
4328 1 6682 6684
4329 1 6685 6686
4330 1 6685 6687
4331 1 6688 6689
4332 1 6688 6690
4333 1 6691 6692
4334 1 6691 6693
4335 1 6694 6695
4336 1 6694 6696
4337 1 6697 6698
4338 1 6697 6699
4339 1 6700 6701
4340 1 6700 6702
4341 1 6703 6704
4342 1 6703 6705
4343 1 6706 6707
4344 1 6706 6708
4345 1 6709 6710
4346 1 6709 6711
4347 1 6712 6713
4348 1 6712 6714
4349 1 6715 6716
4350 1 6715 6717
4351 1 6718 6719
4352 1 6718 6720
4353 1 6721 6722
4354 1 6721 6723
4355 1 6724 6725
4356 1 6724 6726
4357 1 6727 6728
4358 1 6727 6729
4359 1 6730 6731
4360 1 6730 6732
4361 1 6733 6734
4362 1 6733 6735
4363 1 6736 6737
4364 1 6736 6738
4365 1 6739 6740
4366 1 6739 6741
4367 1 6742 6743
4368 1 6742 6744
4369 1 6745 6746
4370 1 6745 6747
4371 1 6748 6749
4372 1 6748 6750
4373 1 6751 6752
4374 1 6751 6753
4375 1 6754 6755
4376 1 6754 6756
4377 1 6757 6758
4378 1 6757 6759
4379 1 6760 6761
4380 1 6760 6762
4381 1 6763 6764
4382 1 6763 6765
4383 1 6766 6767
4384 1 6766 6768
4385 1 6769 6770
4386 1 6769 6771
4387 1 6772 6773
4388 1 6772 6774
4389 1 6775 6776
4390 1 6775 6777
4391 1 6778 6779
4392 1 6778 6780
4393 1 6781 6782
4394 1 6781 6783
4395 1 6784 6785
4396 1 6784 6786
4397 1 6787 6788
4398 1 6787 6789
4399 1 6790 6791
4400 1 6790 6792
4401 1 6793 6794
4402 1 6793 6795
4403 1 6796 6797
4404 1 6796 6798
4405 1 6799 6800
4406 1 6799 6801
4407 1 6802 6803
4408 1 6802 6804
4409 1 6805 6806
4410 1 6805 6807
4411 1 6808 6809
4412 1 6808 6810
4413 1 6811 6812
4414 1 6811 6813
4415 1 6814 6815
4416 1 6814 6816
4417 1 6817 6818
4418 1 6817 6819
4419 1 6820 6821
4420 1 6820 6822
4421 1 6823 6824
4422 1 6823 6825
4423 1 6826 6827
4424 1 6826 6828
4425 1 6829 6830
4426 1 6829 6831
4427 1 6832 6833
4428 1 6832 6834
4429 1 6835 6836
4430 1 6835 6837
4431 1 6838 6839
4432 1 6838 6840
4433 1 6841 6842
4434 1 6841 6843
4435 1 6844 6845
4436 1 6844 6846
4437 1 6847 6848
4438 1 6847 6849
4439 1 6850 6851
4440 1 6850 6852
4441 1 6853 6854
4442 1 6853 6855
4443 1 6856 6857
4444 1 6856 6858
4445 1 6859 6860
4446 1 6859 6861
4447 1 6862 6863
4448 1 6862 6864
4449 1 6865 6866
4450 1 6865 6867
4451 1 6868 6869
4452 1 6868 6870
4453 1 6871 6872
4454 1 6871 6873
4455 1 6874 6875
4456 1 6874 6876
4457 1 6877 6878
4458 1 6877 6879
4459 1 6880 6881
4460 1 6880 6882
4461 1 6883 6884
4462 1 6883 6885
4463 1 6886 6887
4464 1 6886 6888
4465 1 6889 6890
4466 1 6889 6891
4467 1 6892 6893
4468 1 6892 6894
4469 1 6895 6896
4470 1 6895 6897
4471 1 6898 6899
4472 1 6898 6900
4473 1 6901 6902
4474 1 6901 6903
4475 1 6904 6905
4476 1 6904 6906
4477 1 6907 6908
4478 1 6907 6909
4479 1 6910 6911
4480 1 6910 6912
4481 1 6913 6914
4482 1 6913 6915
4483 1 6916 6917
4484 1 6916 6918
4485 1 6919 6920
4486 1 6919 6921
4487 1 6922 6923
4488 1 6922 6924
4489 1 6925 6926
4490 1 6925 6927
4491 1 6928 6929
4492 1 6928 6930
4493 1 6931 6932
4494 1 6931 6933
4495 1 6934 6935
4496 1 6934 6936
4497 1 6937 6938
4498 1 6937 6939
4499 1 6940 6941
4500 1 6940 6942
4501 1 6943 6944
4502 1 6943 6945
4503 1 6946 6947
4504 1 6946 6948
4505 1 6949 6950
4506 1 6949 6951
4507 1 6952 6953
4508 1 6952 6954
4509 2 7203 7204
4510 3 7204 7205
4511 4 7203 7206
4512 5 7203 7207
4513 6 7203 7208
4514 7 7204 7209
4515 8 7204 7210
4516 9 7205 7211
4517 10 7206 7212
4518 2 7213 7214
4519 3 7214 7215
4520 4 7213 7216
4521 5 7213 7217
4522 6 7213 7218
4523 7 7214 7219
4524 8 7214 7220
4525 9 7215 7221
4526 10 7216 7222
4527 2 7223 7224
4528 3 7224 7225
4529 4 7223 7226
4530 5 7223 7227
4531 6 7223 7228
4532 7 7224 7229
4533 8 7224 7230
4534 9 7225 7231
4535 10 7226 7232
4536 2 7233 7234
4537 3 7234 7235
4538 4 7233 7236
4539 5 7233 7237
4540 6 7233 7238
4541 7 7234 7239
4542 8 7234 7240
4543 9 7235 7241
4544 10 7236 7242
4545 2 7243 7244
4546 3 7244 7245
4547 4 7243 7246
4548 5 7243 7247
4549 6 7243 7248
4550 7 7244 7249
4551 8 7244 7250
4552 9 7245 7251
4553 10 7246 7252
4554 2 7253 7254
4555 3 7254 7255
4556 4 7253 7256
4557 5 7253 7257
4558 6 7253 7258
4559 7 7254 7259
4560 8 7254 7260
4561 9 7255 7261
4562 10 7256 7262
4563 2 7263 7264
4564 3 7264 7265
4565 4 7263 7266
4566 5 7263 7267
4567 6 7263 7268
4568 7 7264 7269
4569 8 7264 7270
4570 9 7265 7271
4571 10 7266 7272
4572 2 7273 7274
4573 3 7274 7275
4574 4 7273 7276
4575 5 7273 7277
4576 6 7273 7278
4577 7 7274 7279
4578 8 7274 7280
4579 9 7275 7281
4580 10 7276 7282
4581 2 7283 7284
4582 3 7284 7285
4583 4 7283 7286
4584 5 7283 7287
4585 6 7283 7288
4586 7 7284 7289
4587 8 7284 7290
4588 9 7285 7291
4589 10 7286 7292
4590 2 7293 7294
4591 3 7294 7295
4592 4 7293 7296
4593 5 7293 7297
4594 6 7293 7298
4595 7 7294 7299
4596 8 7294 7300
4597 9 7295 7301
4598 10 7296 7302
4599 2 7303 7304
4600 3 7304 7305
4601 4 7303 7306
4602 5 7303 7307
4603 6 7303 7308
4604 7 7304 7309
4605 8 7304 7310
4606 9 7305 7311
4607 10 7306 7312
4608 2 7313 7314
4609 3 7314 7315
4610 4 7313 7316
4611 5 7313 7317
4612 6 7313 7318
4613 7 7314 7319
4614 8 7314 7320
4615 9 7315 7321
4616 10 7316 7322
4617 2 7323 7324
4618 3 7324 7325
4619 4 7323 7326
4620 5 7323 7327
4621 6 7323 7328
4622 7 7324 7329
4623 8 7324 7330
4624 9 7325 7331
4625 10 7326 7332
4626 2 7333 7334
4627 3 7334 7335
4628 4 7333 7336
4629 5 7333 7337
4630 6 7333 7338
4631 7 7334 7339
4632 8 7334 7340
4633 9 7335 7341
4634 10 7336 7342
4635 2 7343 7344
4636 3 7344 7345
4637 4 7343 7346
4638 5 7343 7347
4639 6 7343 7348
4640 7 7344 7349
4641 8 7344 7350
4642 9 7345 7351
4643 10 7346 7352
4644 2 7353 7354
4645 3 7354 7355
4646 4 7353 7356
4647 5 7353 7357
4648 6 7353 7358
4649 7 7354 7359
4650 8 7354 7360
4651 9 7355 7361
4652 10 7356 7362
4653 2 7363 7364
4654 3 7364 7365
4655 4 7363 7366
4656 5 7363 7367
4657 6 7363 7368
4658 7 7364 7369
4659 8 7364 7370
4660 9 7365 7371
4661 10 7366 7372
4662 2 7373 7374
4663 3 7374 7375
4664 4 7373 7376
4665 5 7373 7377
4666 6 7373 7378
4667 7 7374 7379
4668 8 7374 7380
4669 9 7375 7381
4670 10 7376 7382
4671 2 7383 7384
4672 3 7384 7385
4673 4 7383 7386
4674 5 7383 7387
4675 6 7383 7388
4676 7 7384 7389
4677 8 7384 7390
4678 9 7385 7391
4679 10 7386 7392
4680 2 7393 7394
4681 3 7394 7395
4682 4 7393 7396
4683 5 7393 7397
4684 6 7393 7398
4685 7 7394 7399
4686 8 7394 7400
4687 9 7395 7401
4688 10 7396 7402
4689 2 7403 7404
4690 3 7404 7405
4691 4 7403 7406
4692 5 7403 7407
4693 6 7403 7408
4694 7 7404 7409
4695 8 7404 7410
4696 9 7405 7411
4697 10 7406 7412
4698 2 7413 7414
4699 3 7414 7415
4700 4 7413 7416
4701 5 7413 7417
4702 6 7413 7418
4703 7 7414 7419
4704 8 7414 7420
4705 9 7415 7421
4706 10 7416 7422
4707 2 7423 7424
4708 3 7424 7425
4709 4 7423 7426
4710 5 7423 7427
4711 6 7423 7428
4712 7 7424 7429
4713 8 7424 7430
4714 9 7425 7431
4715 10 7426 7432
4716 2 7433 7434
4717 3 7434 7435
4718 4 7433 7436
4719 5 7433 7437
4720 6 7433 7438
4721 7 7434 7439
4722 8 7434 7440
4723 9 7435 7441
4724 10 7436 7442
4725 2 7443 7444
4726 3 7444 7445
4727 4 7443 7446
4728 5 7443 7447
4729 6 7443 7448
4730 7 7444 7449
4731 8 7444 7450
4732 9 7445 7451
4733 10 7446 7452
4734 2 7453 7454
4735 3 7454 7455
4736 4 7453 7456
4737 5 7453 7457
4738 6 7453 7458
4739 7 7454 7459
4740 8 7454 7460
4741 9 7455 7461
4742 10 7456 7462
4743 2 7463 7464
4744 3 7464 7465
4745 4 7463 7466
4746 5 7463 7467
4747 6 7463 7468
4748 7 7464 7469
4749 8 7464 7470
4750 9 7465 7471
4751 10 7466 7472
4752 2 7473 7474
4753 3 7474 7475
4754 4 7473 7476
4755 5 7473 7477
4756 6 7473 7478
4757 7 7474 7479
4758 8 7474 7480
4759 9 7475 7481
4760 10 7476 7482
4761 2 7483 7484
4762 3 7484 7485
4763 4 7483 7486
4764 5 7483 7487
4765 6 7483 7488
4766 7 7484 7489
4767 8 7484 7490
4768 9 7485 7491
4769 10 7486 7492
4770 2 7493 7494
4771 3 7494 7495
4772 4 7493 7496
4773 5 7493 7497
4774 6 7493 7498
4775 7 7494 7499
4776 8 7494 7500
4777 9 7495 7501
4778 10 7496 7502
4779 2 7503 7504
4780 3 7504 7505
4781 4 7503 7506
4782 5 7503 7507
4783 6 7503 7508
4784 7 7504 7509
4785 8 7504 7510
4786 9 7505 7511
4787 10 7506 7512
4788 2 7513 7514
4789 3 7514 7515
4790 4 7513 7516
4791 5 7513 7517
4792 6 7513 7518
4793 7 7514 7519
4794 8 7514 7520
4795 9 7515 7521
4796 10 7516 7522
4797 2 7523 7524
4798 3 7524 7525
4799 4 7523 7526
4800 5 7523 7527
4801 6 7523 7528
4802 7 7524 7529
4803 8 7524 7530
4804 9 7525 7531
4805 10 7526 7532
4806 2 7533 7534
4807 3 7534 7535
4808 4 7533 7536
4809 5 7533 7537
4810 6 7533 7538
4811 7 7534 7539
4812 8 7534 7540
4813 9 7535 7541
4814 10 7536 7542
4815 2 7543 7544
4816 3 7544 7545
4817 4 7543 7546
4818 5 7543 7547
4819 6 7543 7548
4820 7 7544 7549
4821 8 7544 7550
4822 9 7545 7551
4823 10 7546 7552
4824 2 7553 7554
4825 3 7554 7555
4826 4 7553 7556
4827 5 7553 7557
4828 6 7553 7558
4829 7 7554 7559
4830 8 7554 7560
4831 9 7555 7561
4832 10 7556 7562
4833 2 7563 7564
4834 3 7564 7565
4835 4 7563 7566
4836 5 7563 7567
4837 6 7563 7568
4838 7 7564 7569
4839 8 7564 7570
4840 9 7565 7571
4841 10 7566 7572
4842 2 7573 7574
4843 3 7574 7575
4844 4 7573 7576
4845 5 7573 7577
4846 6 7573 7578
4847 7 7574 7579
4848 8 7574 7580
4849 9 7575 7581
4850 10 7576 7582
4851 2 7583 7584
4852 3 7584 7585
4853 4 7583 7586
4854 5 7583 7587
4855 6 7583 7588
4856 7 7584 7589
4857 8 7584 7590
4858 9 7585 7591
4859 10 7586 7592
4860 2 7593 7594
4861 3 7594 7595
4862 4 7593 7596
4863 5 7593 7597
4864 6 7593 7598
4865 7 7594 7599
4866 8 7594 7600
4867 9 7595 7601
4868 10 7596 7602
4869 2 7603 7604
4870 3 7604 7605
4871 4 7603 7606
4872 5 7603 7607
4873 6 7603 7608
4874 7 7604 7609
4875 8 7604 7610
4876 9 7605 7611
4877 10 7606 7612
4878 2 7613 7614
4879 3 7614 7615
4880 4 7613 7616
4881 5 7613 7617
4882 6 7613 7618
4883 7 7614 7619
4884 8 7614 7620
4885 9 7615 7621
4886 10 7616 7622
4887 2 7623 7624
4888 3 7624 7625
4889 4 7623 7626
4890 5 7623 7627
4891 6 7623 7628
4892 7 7624 7629
4893 8 7624 7630
4894 9 7625 7631
4895 10 7626 7632
4896 2 7633 7634
4897 3 7634 7635
4898 4 7633 7636
4899 5 7633 7637
4900 6 7633 7638
4901 7 7634 7639
4902 8 7634 7640
4903 9 7635 7641
4904 10 7636 7642
4905 2 7643 7644
4906 3 7644 7645
4907 4 7643 7646
4908 5 7643 7647
4909 6 7643 7648
4910 7 7644 7649
4911 8 7644 7650
4912 9 7645 7651
4913 10 7646 7652
4914 2 7653 7654
4915 3 7654 7655
4916 4 7653 7656
4917 5 7653 7657
4918 6 7653 7658
4919 7 7654 7659
4920 8 7654 7660
4921 9 7655 7661
4922 10 7656 7662
4923 2 7663 7664
4924 3 7664 7665
4925 4 7663 7666
4926 5 7663 7667
4927 6 7663 7668
4928 7 7664 7669
4929 8 7664 7670
4930 9 7665 7671
4931 10 7666 7672
4932 2 7673 7674
4933 3 7674 7675
4934 4 7673 7676
4935 5 7673 7677
4936 6 7673 7678
4937 7 7674 7679
4938 8 7674 7680
4939 9 7675 7681
4940 10 7676 7682
4941 11 7683 7684
4942 12 7684 7685
4943 13 7685 7686
4944 14 7686 7687
4945 15 7687 7688
4946 16 7685 7689
4947 17 7688 7690
4948 18 7683 7691
4949 19 7683 7692
4950 20 7683 7693
4951 21 7684 7694
4952 22 7684 7695
4953 23 7686 7696
4954 24 7687 7697
4955 25 7689 7698
4956 26 7690 7699
4957 27 7690 7700
4958 28 7690 7701
4959 29 7688 7689
4960 30 7703 7704
4961 31 7704 7705
4962 32 7705 7706
4963 33 7703 7707
4964 34 7705 7708
4965 35 7708 7709
4966 36 7708 7710
4967 37 7703 7711
4968 38 7703 7712
4969 39 7704 7713
4970 40 7704 7714
4971 41 7705 7715
4972 42 7706 7716
4973 43 7707 7717
4974 44 7707 7718
4975 45 7710 7719
4976 46 7706 7707
4977 30 7720 7721
4978 31 7721 7722
4979 32 7722 7723
4980 33 7720 7724
4981 34 7722 7725
4982 35 7725 7726
4983 36 7725 7727
4984 37 7720 7728
4985 38 7720 7729
4986 39 7721 7730
4987 40 7721 7731
4988 41 7722 7732
4989 42 7723 7733
4990 43 7724 7734
4991 44 7724 7735
4992 45 7727 7736
4993 46 7723 7724
4994 30 7737 7738
4995 31 7738 7739
4996 32 7739 7740
4997 33 7737 7741
4998 34 7739 7742
4999 35 7742 7743
5000 36 7742 7744
5001 37 7737 7745
5002 38 7737 7746
5003 39 7738 7747
5004 40 7738 7748
5005 41 7739 7749
5006 42 7740 7750
5007 43 7741 7751
5008 44 7741 7752
5009 45 7744 7753
5010 46 7740 7741
5011 30 7754 7755
5012 31 7755 7756
5013 32 7756 7757
5014 33 7754 7758
5015 34 7756 7759
5016 35 7759 7760
5017 36 7759 7761
5018 37 7754 7762
5019 38 7754 7763
5020 39 7755 7764
5021 40 7755 7765
5022 41 7756 7766
5023 42 7757 7767
5024 43 7758 7768
5025 44 7758 7769
5026 45 7761 7770
5027 46 7757 7758
5028 30 7771 7772
5029 31 7772 7773
5030 32 7773 7774
5031 33 7771 7775
5032 34 7773 7776
5033 35 7776 7777
5034 36 7776 7778
5035 37 7771 7779
5036 38 7771 7780
5037 39 7772 7781
5038 40 7772 7782
5039 41 7773 7783
5040 42 7774 7784
5041 43 7775 7785
5042 44 7775 7786
5043 45 7778 7787
5044 46 7774 7775
5045 30 7788 7789
5046 31 7789 7790
5047 32 7790 7791
5048 33 7788 7792
5049 34 7790 7793
5050 35 7793 7794
5051 36 7793 7795
5052 37 7788 7796
5053 38 7788 7797
5054 39 7789 7798
5055 40 7789 7799
5056 41 7790 7800
5057 42 7791 7801
5058 43 7792 7802
5059 44 7792 7803
5060 45 7795 7804
5061 46 7791 7792
5062 30 7805 7806
5063 31 7806 7807
5064 32 7807 7808
5065 33 7805 7809
5066 34 7807 7810
5067 35 7810 7811
5068 36 7810 7812
5069 37 7805 7813
5070 38 7805 7814
5071 39 7806 7815
5072 40 7806 7816
5073 41 7807 7817
5074 42 7808 7818
5075 43 7809 7819
5076 44 7809 7820
5077 45 7812 7821
5078 46 7808 7809
5079 30 7822 7823
5080 31 7823 7824
5081 32 7824 7825
5082 33 7822 7826
5083 34 7824 7827
5084 35 7827 7828
5085 36 7827 7829
5086 37 7822 7830
5087 38 7822 7831
5088 39 7823 7832
5089 40 7823 7833
5090 41 7824 7834
5091 42 7825 7835
5092 43 7826 7836
5093 44 7826 7837
5094 45 7829 7838
5095 46 7825 7826
5096 30 7839 7840
5097 31 7840 7841
5098 32 7841 7842
5099 33 7839 7843
5100 34 7841 7844
5101 35 7844 7845
5102 36 7844 7846
5103 37 7839 7847
5104 38 7839 7848
5105 39 7840 7849
5106 40 7840 7850
5107 41 7841 7851
5108 42 7842 7852
5109 43 7843 7853
5110 44 7843 7854
5111 45 7846 7855
5112 46 7842 7843
5113 30 7856 7857
5114 31 7857 7858
5115 32 7858 7859
5116 33 7856 7860
5117 34 7858 7861
5118 35 7861 7862
5119 36 7861 7863
5120 37 7856 7864
5121 38 7856 7865
5122 39 7857 7866
5123 40 7857 7867
5124 41 7858 7868
5125 42 7859 7869
5126 43 7860 7870
5127 44 7860 7871
5128 45 7863 7872
5129 46 7859 7860
5130 30 7873 7874
5131 31 7874 7875
5132 32 7875 7876
5133 33 7873 7877
5134 34 7875 7878
5135 35 7878 7879
5136 36 7878 7880
5137 37 7873 7881
5138 38 7873 7882
5139 39 7874 7883
5140 40 7874 7884
5141 41 7875 7885
5142 42 7876 7886
5143 43 7877 7887
5144 44 7877 7888
5145 45 7880 7889
5146 46 7876 7877
5147 30 7890 7891
5148 31 7891 7892
5149 32 7892 7893
5150 33 7890 7894
5151 34 7892 7895
5152 35 7895 7896
5153 36 7895 7897
5154 37 7890 7898
5155 38 7890 7899
5156 39 7891 7900
5157 40 7891 7901
5158 41 7892 7902
5159 42 7893 7903
5160 43 7894 7904
5161 44 7894 7905
5162 45 7897 7906
5163 46 7893 7894
5164 30 7907 7908
5165 31 7908 7909
5166 32 7909 7910
5167 33 7907 7911
5168 34 7909 7912
5169 35 7912 7913
5170 36 7912 7914
5171 37 7907 7915
5172 38 7907 7916
5173 39 7908 7917
5174 40 7908 7918
5175 41 7909 7919
5176 42 7910 7920
5177 43 7911 7921
5178 44 7911 7922
5179 45 7914 7923
5180 46 7910 7911
5181 30 7924 7925
5182 31 7925 7926
5183 32 7926 7927
5184 33 7924 7928
5185 34 7926 7929
5186 35 7929 7930
5187 36 7929 7931
5188 37 7924 7932
5189 38 7924 7933
5190 39 7925 7934
5191 40 7925 7935
5192 41 7926 7936
5193 42 7927 7937
5194 43 7928 7938
5195 44 7928 7939
5196 45 7931 7940
5197 46 7927 7928
5198 30 7941 7942
5199 31 7942 7943
5200 32 7943 7944
5201 33 7941 7945
5202 34 7943 7946
5203 35 7946 7947
5204 36 7946 7948
5205 37 7941 7949
5206 38 7941 7950
5207 39 7942 7951
5208 40 7942 7952
5209 41 7943 7953
5210 42 7944 7954
5211 43 7945 7955
5212 44 7945 7956
5213 45 7948 7957
5214 46 7944 7945
5215 30 7958 7959
5216 31 7959 7960
5217 32 7960 7961
5218 33 7958 7962
5219 34 7960 7963
5220 35 7963 7964
5221 36 7963 7965
5222 37 7958 7966
5223 38 7958 7967
5224 39 7959 7968
5225 40 7959 7969
5226 41 7960 7970
5227 42 7961 7971
5228 43 7962 7972
5229 44 7962 7973
5230 45 7965 7974
5231 46 7961 7962
5232 30 7975 7976
5233 31 7976 7977
5234 32 7977 7978
5235 33 7975 7979
5236 34 7977 7980
5237 35 7980 7981
5238 36 7980 7982
5239 37 7975 7983
5240 38 7975 7984
5241 39 7976 7985
5242 40 7976 7986
5243 41 7977 7987
5244 42 7978 7988
5245 43 7979 7989
5246 44 7979 7990
5247 45 7982 7991
5248 46 7978 7979
5249 30 7992 7993
5250 31 7993 7994
5251 32 7994 7995
5252 33 7992 7996
5253 34 7994 7997
5254 35 7997 7998
5255 36 7997 7999
5256 37 7992 8000
5257 38 7992 8001
5258 39 7993 8002
5259 40 7993 8003
5260 41 7994 8004
5261 42 7995 8005
5262 43 7996 8006
5263 44 7996 8007
5264 45 7999 8008
5265 46 7995 7996

Angles

1 1 2 1 3
2 1 5 4 6
4 1 8 7 9
6 1 11 10 12
8 1 14 13 15
10 1 17 16 18
12 1 20 19 21
14 1 23 22 24
16 1 26 25 27
18 1 29 28 30
19 1 32 31 33
3 1 35 34 36
5 1 38 37 39
7 1 41 40 42
9 1 44 43 45
11 1 47 46 48
13 1 50 49 51
15 1 53 52 54
17 1 56 55 57
20 1 59 58 60
21 1 62 61 63
22 1 65 64 66
23 1 68 67 69
24 1 71 70 72
25 1 74 73 75
26 1 77 76 78
27 1 80 79 81
28 1 83 82 84
29 1 86 85 87
30 1 89 88 90
31 1 92 91 93
32 1 95 94 96
33 1 98 97 99
34 1 101 100 102
35 1 104 103 105
36 1 107 106 108
37 1 110 109 111
38 1 113 112 114
39 1 116 115 117
40 1 119 118 120
41 1 122 121 123
42 1 125 124 126
43 1 128 127 129
44 1 131 130 132
45 1 134 133 135
46 1 137 136 138
47 1 148 147 149
48 1 151 150 152
50 1 154 153 155
52 1 157 156 158
54 1 160 159 161
56 1 163 162 164
58 1 166 165 167
60 1 169 168 170
62 1 172 171 173
64 1 175 174 176
65 1 178 177 179
49 1 181 180 182
51 1 184 183 185
53 1 187 186 188
55 1 190 189 191
57 1 193 192 194
59 1 196 195 197
61 1 199 198 200
63 1 202 201 203
66 1 205 204 206
67 1 208 207 209
68 1 211 210 212
69 1 214 213 215
70 1 217 216 218
71 1 220 219 221
72 1 223 222 224
73 1 226 225 227
74 1 229 228 230
75 1 232 231 233
76 1 235 234 236
77 1 238 237 239
78 1 241 240 242
79 1 244 243 245
80 1 247 246 248
81 1 250 249 251
82 1 253 252 254
83 1 256 255 257
84 1 259 258 260
85 1 262 261 263
86 1 265 264 266
87 1 268 267 269
88 1 271 270 272
89 1 274 273 275
90 1 277 276 278
91 1 280 279 281
92 1 283 282 284
93 1 294 293 295
94 1 297 296 298
96 1 300 299 301
98 1 303 302 304
100 1 306 305 307
102 1 309 308 310
104 1 312 311 313
106 1 315 314 316
108 1 318 317 319
110 1 321 320 322
111 1 324 323 325
95 1 327 326 328
97 1 330 329 331
99 1 333 332 334
101 1 336 335 337
103 1 339 338 340
105 1 342 341 343
107 1 345 344 346
109 1 348 347 349
112 1 351 350 352
113 1 354 353 355
114 1 357 356 358
115 1 360 359 361
116 1 363 362 364
117 1 366 365 367
118 1 369 368 370
119 1 372 371 373
120 1 375 374 376
121 1 378 377 379
122 1 381 380 382
123 1 384 383 385
124 1 387 386 388
125 1 390 389 391
126 1 393 392 394
127 1 396 395 397
128 1 399 398 400
129 1 402 401 403
130 1 405 404 406
131 1 408 407 409
132 1 411 410 412
133 1 414 413 415
134 1 417 416 418
135 1 420 419 421
136 1 423 422 424
137 1 426 425 427
138 1 429 428 430
139 1 440 439 441
140 1 443 442 444
142 1 446 445 447
144 1 449 448 450
146 1 452 451 453
148 1 455 454 456
150 1 458 457 459
152 1 461 460 462
154 1 464 463 465
156 1 467 466 468
157 1 470 469 471
141 1 473 472 474
143 1 476 475 477
145 1 479 478 480
147 1 482 481 483
149 1 485 484 486
151 1 488 487 489
153 1 491 490 492
155 1 494 493 495
158 1 497 496 498
159 1 500 499 501
160 1 503 502 504
161 1 506 505 507
162 1 509 508 510
163 1 512 511 513
164 1 515 514 516
165 1 518 517 519
166 1 521 520 522
167 1 524 523 525
168 1 527 526 528
169 1 530 529 531
170 1 533 532 534
171 1 536 535 537
172 1 539 538 540
173 1 542 541 543
174 1 545 544 546
175 1 548 547 549
176 1 551 550 552
177 1 554 553 555
178 1 557 556 558
179 1 560 559 561
180 1 563 562 564
181 1 566 565 567
182 1 569 568 570
183 1 572 571 573
184 1 575 574 576
185 1 586 585 587
186 1 589 588 590
188 1 592 591 593
190 1 595 594 596
192 1 598 597 599
194 1 601 600 602
196 1 604 603 605
198 1 607 606 608
200 1 610 609 611
202 1 613 612 614
203 1 616 615 617
187 1 619 618 620
189 1 622 621 623
191 1 625 624 626
193 1 628 627 629
195 1 631 630 632
197 1 634 633 635
199 1 637 636 638
201 1 640 639 641
204 1 643 642 644
205 1 646 645 647
206 1 649 648 650
207 1 652 651 653
208 1 655 654 656
209 1 658 657 659
210 1 661 660 662
211 1 664 663 665
212 1 667 666 668
213 1 670 669 671
214 1 673 672 674
215 1 676 675 677
216 1 679 678 680
217 1 682 681 683
218 1 685 684 686
219 1 688 687 689
220 1 691 690 692
221 1 694 693 695
222 1 697 696 698
223 1 700 699 701
224 1 703 702 704
225 1 706 705 707
226 1 709 708 710
227 1 712 711 713
228 1 715 714 716
229 1 718 717 719
230 1 721 720 722
231 1 732 731 733
232 1 735 734 736
234 1 738 737 739
236 1 741 740 742
238 1 744 743 745
240 1 747 746 748
242 1 750 749 751
244 1 753 752 754
246 1 756 755 757
248 1 759 758 760
249 1 762 761 763
233 1 765 764 766
235 1 768 767 769
237 1 771 770 772
239 1 774 773 775
241 1 777 776 778
243 1 780 779 781
245 1 783 782 784
247 1 786 785 787
250 1 789 788 790
251 1 792 791 793
252 1 795 794 796
253 1 798 797 799
254 1 801 800 802
255 1 804 803 805
256 1 807 806 808
257 1 810 809 811
258 1 813 812 814
259 1 816 815 817
260 1 819 818 820
261 1 822 821 823
262 1 825 824 826
263 1 828 827 829
264 1 831 830 832
265 1 834 833 835
266 1 837 836 838
267 1 840 839 841
268 1 843 842 844
269 1 846 845 847
270 1 849 848 850
271 1 852 851 853
272 1 855 854 856
273 1 858 857 859
274 1 861 860 862
275 1 864 863 865
276 1 867 866 868
277 1 878 877 879
278 1 881 880 882
280 1 884 883 885
282 1 887 886 888
284 1 890 889 891
286 1 893 892 894
288 1 896 895 897
290 1 899 898 900
292 1 902 901 903
294 1 905 904 906
295 1 908 907 909
279 1 911 910 912
281 1 914 913 915
283 1 917 916 918
285 1 920 919 921
287 1 923 922 924
289 1 926 925 927
291 1 929 928 930
293 1 932 931 933
296 1 935 934 936
297 1 938 937 939
298 1 941 940 942
299 1 944 943 945
300 1 947 946 948
301 1 950 949 951
302 1 953 952 954
303 1 956 955 957
304 1 959 958 960
305 1 962 961 963
306 1 965 964 966
307 1 968 967 969
308 1 971 970 972
309 1 974 973 975
310 1 977 976 978
311 1 980 979 981
312 1 983 982 984
313 1 986 985 987
314 1 989 988 990
315 1 992 991 993
316 1 995 994 996
317 1 998 997 999
318 1 1001 1000 1002
319 1 1004 1003 1005
320 1 1007 1006 1008
321 1 1010 1009 1011
322 1 1013 1012 1014
323 1 1024 1023 1025
324 1 1027 1026 1028
326 1 1030 1029 1031
328 1 1033 1032 1034
330 1 1036 1035 1037
332 1 1039 1038 1040
334 1 1042 1041 1043
336 1 1045 1044 1046
338 1 1048 1047 1049
340 1 1051 1050 1052
341 1 1054 1053 1055
325 1 1057 1056 1058
327 1 1060 1059 1061
329 1 1063 1062 1064
331 1 1066 1065 1067
333 1 1069 1068 1070
335 1 1072 1071 1073
337 1 1075 1074 1076
339 1 1078 1077 1079
342 1 1081 1080 1082
343 1 1084 1083 1085
344 1 1087 1086 1088
345 1 1090 1089 1091
346 1 1093 1092 1094
347 1 1096 1095 1097
348 1 1099 1098 1100
349 1 1102 1101 1103
350 1 1105 1104 1106
351 1 1108 1107 1109
352 1 1111 1110 1112
353 1 1114 1113 1115
354 1 1117 1116 1118
355 1 1120 1119 1121
356 1 1123 1122 1124
357 1 1126 1125 1127
358 1 1129 1128 1130
359 1 1132 1131 1133
360 1 1135 1134 1136
361 1 1138 1137 1139
362 1 1141 1140 1142
363 1 1144 1143 1145
364 1 1147 1146 1148
365 1 1150 1149 1151
366 1 1153 1152 1154
367 1 1156 1155 1157
368 1 1159 1158 1160
369 1 1170 1169 1171
370 1 1173 1172 1174
372 1 1176 1175 1177
374 1 1179 1178 1180
376 1 1182 1181 1183
378 1 1185 1184 1186
380 1 1188 1187 1189
382 1 1191 1190 1192
384 1 1194 1193 1195
386 1 1197 1196 1198
387 1 1200 1199 1201
371 1 1203 1202 1204
373 1 1206 1205 1207
375 1 1209 1208 1210
377 1 1212 1211 1213
379 1 1215 1214 1216
381 1 1218 1217 1219
383 1 1221 1220 1222
385 1 1224 1223 1225
388 1 1227 1226 1228
389 1 1230 1229 1231
390 1 1233 1232 1234
391 1 1236 1235 1237
392 1 1239 1238 1240
393 1 1242 1241 1243
394 1 1245 1244 1246
395 1 1248 1247 1249
396 1 1251 1250 1252
397 1 1254 1253 1255
398 1 1257 1256 1258
399 1 1260 1259 1261
400 1 1263 1262 1264
401 1 1266 1265 1267
402 1 1269 1268 1270
403 1 1272 1271 1273
404 1 1275 1274 1276
405 1 1278 1277 1279
406 1 1281 1280 1282
407 1 1284 1283 1285
408 1 1287 1286 1288
409 1 1290 1289 1291
410 1 1293 1292 1294
411 1 1296 1295 1297
412 1 1299 1298 1300
413 1 1302 1301 1303
414 1 1305 1304 1306
415 1 1316 1315 1317
416 1 1319 1318 1320
418 1 1322 1321 1323
420 1 1325 1324 1326
422 1 1328 1327 1329
424 1 1331 1330 1332
426 1 1334 1333 1335
428 1 1337 1336 1338
430 1 1340 1339 1341
432 1 1343 1342 1344
433 1 1346 1345 1347
417 1 1349 1348 1350
419 1 1352 1351 1353
421 1 1355 1354 1356
423 1 1358 1357 1359
425 1 1361 1360 1362
427 1 1364 1363 1365
429 1 1367 1366 1368
431 1 1370 1369 1371
434 1 1373 1372 1374
435 1 1376 1375 1377
436 1 1379 1378 1380
437 1 1382 1381 1383
438 1 1385 1384 1386
439 1 1388 1387 1389
440 1 1391 1390 1392
441 1 1394 1393 1395
442 1 1397 1396 1398
443 1 1400 1399 1401
444 1 1403 1402 1404
445 1 1406 1405 1407
446 1 1409 1408 1410
447 1 1412 1411 1413
448 1 1415 1414 1416
449 1 1418 1417 1419
450 1 1421 1420 1422
451 1 1424 1423 1425
452 1 1427 1426 1428
453 1 1430 1429 1431
454 1 1433 1432 1434
455 1 1436 1435 1437
456 1 1439 1438 1440
457 1 1442 1441 1443
458 1 1445 1444 1446
459 1 1448 1447 1449
460 1 1451 1450 1452
461 1 1462 1461 1463
462 1 1465 1464 1466
464 1 1468 1467 1469
466 1 1471 1470 1472
468 1 1474 1473 1475
470 1 1477 1476 1478
472 1 1480 1479 1481
474 1 1483 1482 1484
476 1 1486 1485 1487
478 1 1489 1488 1490
479 1 1492 1491 1493
463 1 1495 1494 1496
465 1 1498 1497 1499
467 1 1501 1500 1502
469 1 1504 1503 1505
471 1 1507 1506 1508
473 1 1510 1509 1511
475 1 1513 1512 1514
477 1 1516 1515 1517
480 1 1519 1518 1520
481 1 1522 1521 1523
482 1 1525 1524 1526
483 1 1528 1527 1529
484 1 1531 1530 1532
485 1 1534 1533 1535
486 1 1537 1536 1538
487 1 1540 1539 1541
488 1 1543 1542 1544
489 1 1546 1545 1547
490 1 1549 1548 1550
491 1 1552 1551 1553
492 1 1555 1554 1556
493 1 1558 1557 1559
494 1 1561 1560 1562
495 1 1564 1563 1565
496 1 1567 1566 1568
497 1 1570 1569 1571
498 1 1573 1572 1574
499 1 1576 1575 1577
500 1 1579 1578 1580
501 1 1582 1581 1583
502 1 1585 1584 1586
503 1 1588 1587 1589
504 1 1591 1590 1592
505 1 1594 1593 1595
506 1 1597 1596 1598
507 1 1608 1607 1609
508 1 1611 1610 1612
510 1 1614 1613 1615
512 1 1617 1616 1618
514 1 1620 1619 1621
516 1 1623 1622 1624
518 1 1626 1625 1627
520 1 1629 1628 1630
522 1 1632 1631 1633
524 1 1635 1634 1636
525 1 1638 1637 1639
509 1 1641 1640 1642
511 1 1644 1643 1645
513 1 1647 1646 1648
515 1 1650 1649 1651
517 1 1653 1652 1654
519 1 1656 1655 1657
521 1 1659 1658 1660
523 1 1662 1661 1663
526 1 1665 1664 1666
527 1 1668 1667 1669
528 1 1671 1670 1672
529 1 1674 1673 1675
530 1 1677 1676 1678
531 1 1680 1679 1681
532 1 1683 1682 1684
533 1 1686 1685 1687
534 1 1689 1688 1690
535 1 1692 1691 1693
536 1 1695 1694 1696
537 1 1698 1697 1699
538 1 1701 1700 1702
539 1 1704 1703 1705
540 1 1707 1706 1708
541 1 1710 1709 1711
542 1 1713 1712 1714
543 1 1716 1715 1717
544 1 1719 1718 1720
545 1 1722 1721 1723
546 1 1725 1724 1726
547 1 1728 1727 1729
548 1 1731 1730 1732
549 1 1734 1733 1735
550 1 1737 1736 1738
551 1 1740 1739 1741
552 1 1743 1742 1744
553 1 1754 1753 1755
554 1 1757 1756 1758
556 1 1760 1759 1761
558 1 1763 1762 1764
560 1 1766 1765 1767
562 1 1769 1768 1770
564 1 1772 1771 1773
566 1 1775 1774 1776
568 1 1778 1777 1779
570 1 1781 1780 1782
571 1 1784 1783 1785
555 1 1787 1786 1788
557 1 1790 1789 1791
559 1 1793 1792 1794
561 1 1796 1795 1797
563 1 1799 1798 1800
565 1 1802 1801 1803
567 1 1805 1804 1806
569 1 1808 1807 1809
572 1 1811 1810 1812
573 1 1814 1813 1815
574 1 1817 1816 1818
575 1 1820 1819 1821
576 1 1823 1822 1824
577 1 1826 1825 1827
578 1 1829 1828 1830
579 1 1832 1831 1833
580 1 1835 1834 1836
581 1 1838 1837 1839
582 1 1841 1840 1842
583 1 1844 1843 1845
584 1 1847 1846 1848
585 1 1850 1849 1851
586 1 1853 1852 1854
587 1 1856 1855 1857
588 1 1859 1858 1860
589 1 1862 1861 1863
590 1 1865 1864 1866
591 1 1868 1867 1869
592 1 1871 1870 1872
593 1 1874 1873 1875
594 1 1877 1876 1878
595 1 1880 1879 1881
596 1 1883 1882 1884
597 1 1886 1885 1887
598 1 1889 1888 1890
599 1 1900 1899 1901
600 1 1903 1902 1904
602 1 1906 1905 1907
604 1 1909 1908 1910
606 1 1912 1911 1913
608 1 1915 1914 1916
610 1 1918 1917 1919
612 1 1921 1920 1922
614 1 1924 1923 1925
616 1 1927 1926 1928
617 1 1930 1929 1931
601 1 1933 1932 1934
603 1 1936 1935 1937
605 1 1939 1938 1940
607 1 1942 1941 1943
609 1 1945 1944 1946
611 1 1948 1947 1949
613 1 1951 1950 1952
615 1 1954 1953 1955
618 1 1957 1956 1958
619 1 1960 1959 1961
620 1 1963 1962 1964
621 1 1966 1965 1967
622 1 1969 1968 1970
623 1 1972 1971 1973
624 1 1975 1974 1976
625 1 1978 1977 1979
626 1 1981 1980 1982
627 1 1984 1983 1985
628 1 1987 1986 1988
629 1 1990 1989 1991
630 1 1993 1992 1994
631 1 1996 1995 1997
632 1 1999 1998 2000
633 1 2002 2001 2003
634 1 2005 2004 2006
635 1 2008 2007 2009
636 1 2011 2010 2012
637 1 2014 2013 2015
638 1 2017 2016 2018
639 1 2020 2019 2021
640 1 2023 2022 2024
641 1 2026 2025 2027
642 1 2029 2028 2030
643 1 2032 2031 2033
644 1 2035 2034 2036
645 1 2046 2045 2047
646 1 2049 2048 2050
648 1 2052 2051 2053
650 1 2055 2054 2056
652 1 2058 2057 2059
654 1 2061 2060 2062
656 1 2064 2063 2065
658 1 2067 2066 2068
660 1 2070 2069 2071
662 1 2073 2072 2074
663 1 2076 2075 2077
647 1 2079 2078 2080
649 1 2082 2081 2083
651 1 2085 2084 2086
653 1 2088 2087 2089
655 1 2091 2090 2092
657 1 2094 2093 2095
659 1 2097 2096 2098
661 1 2100 2099 2101
664 1 2103 2102 2104
665 1 2106 2105 2107
666 1 2109 2108 2110
667 1 2112 2111 2113
668 1 2115 2114 2116
669 1 2118 2117 2119
670 1 2121 2120 2122
671 1 2124 2123 2125
672 1 2127 2126 2128
673 1 2130 2129 2131
674 1 2133 2132 2134
675 1 2136 2135 2137
676 1 2139 2138 2140
677 1 2142 2141 2143
678 1 2145 2144 2146
679 1 2148 2147 2149
680 1 2151 2150 2152
681 1 2154 2153 2155
682 1 2157 2156 2158
683 1 2160 2159 2161
684 1 2163 2162 2164
685 1 2166 2165 2167
686 1 2169 2168 2170
687 1 2172 2171 2173
688 1 2175 2174 2176
689 1 2178 2177 2179
690 1 2181 2180 2182
691 1 2192 2191 2193
692 1 2195 2194 2196
694 1 2198 2197 2199
696 1 2201 2200 2202
698 1 2204 2203 2205
700 1 2207 2206 2208
702 1 2210 2209 2211
704 1 2213 2212 2214
706 1 2216 2215 2217
708 1 2219 2218 2220
709 1 2222 2221 2223
693 1 2225 2224 2226
695 1 2228 2227 2229
697 1 2231 2230 2232
699 1 2234 2233 2235
701 1 2237 2236 2238
703 1 2240 2239 2241
705 1 2243 2242 2244
707 1 2246 2245 2247
710 1 2249 2248 2250
711 1 2252 2251 2253
712 1 2255 2254 2256
713 1 2258 2257 2259
714 1 2261 2260 2262
715 1 2264 2263 2265
716 1 2267 2266 2268
717 1 2270 2269 2271
718 1 2273 2272 2274
719 1 2276 2275 2277
720 1 2279 2278 2280
721 1 2282 2281 2283
722 1 2285 2284 2286
723 1 2288 2287 2289
724 1 2291 2290 2292
725 1 2294 2293 2295
726 1 2297 2296 2298
727 1 2300 2299 2301
728 1 2303 2302 2304
729 1 2306 2305 2307
730 1 2309 2308 2310
731 1 2312 2311 2313
732 1 2315 2314 2316
733 1 2318 2317 2319
734 1 2321 2320 2322
735 1 2324 2323 2325
736 1 2327 2326 2328
737 1 2338 2337 2339
738 1 2341 2340 2342
740 1 2344 2343 2345
742 1 2347 2346 2348
744 1 2350 2349 2351
746 1 2353 2352 2354
748 1 2356 2355 2357
750 1 2359 2358 2360
752 1 2362 2361 2363
754 1 2365 2364 2366
755 1 2368 2367 2369
739 1 2371 2370 2372
741 1 2374 2373 2375
743 1 2377 2376 2378
745 1 2380 2379 2381
747 1 2383 2382 2384
749 1 2386 2385 2387
751 1 2389 2388 2390
753 1 2392 2391 2393
756 1 2395 2394 2396
757 1 2398 2397 2399
758 1 2401 2400 2402
759 1 2404 2403 2405
760 1 2407 2406 2408
761 1 2410 2409 2411
762 1 2413 2412 2414
763 1 2416 2415 2417
764 1 2419 2418 2420
765 1 2422 2421 2423
766 1 2425 2424 2426
767 1 2428 2427 2429
768 1 2431 2430 2432
769 1 2434 2433 2435
770 1 2437 2436 2438
771 1 2440 2439 2441
772 1 2443 2442 2444
773 1 2446 2445 2447
774 1 2449 2448 2450
775 1 2452 2451 2453
776 1 2455 2454 2456
777 1 2458 2457 2459
778 1 2461 2460 2462
779 1 2464 2463 2465
780 1 2467 2466 2468
781 1 2470 2469 2471
782 1 2473 2472 2474
783 1 2484 2483 2485
784 1 2487 2486 2488
786 1 2490 2489 2491
788 1 2493 2492 2494
790 1 2496 2495 2497
792 1 2499 2498 2500
794 1 2502 2501 2503
796 1 2505 2504 2506
798 1 2508 2507 2509
800 1 2511 2510 2512
801 1 2514 2513 2515
785 1 2517 2516 2518
787 1 2520 2519 2521
789 1 2523 2522 2524
791 1 2526 2525 2527
793 1 2529 2528 2530
795 1 2532 2531 2533
797 1 2535 2534 2536
799 1 2538 2537 2539
802 1 2541 2540 2542
803 1 2544 2543 2545
804 1 2547 2546 2548
805 1 2550 2549 2551
806 1 2553 2552 2554
807 1 2556 2555 2557
808 1 2559 2558 2560
809 1 2562 2561 2563
810 1 2565 2564 2566
811 1 2568 2567 2569
812 1 2571 2570 2572
813 1 2574 2573 2575
814 1 2577 2576 2578
815 1 2580 2579 2581
816 1 2583 2582 2584
817 1 2586 2585 2587
818 1 2589 2588 2590
819 1 2592 2591 2593
820 1 2595 2594 2596
821 1 2598 2597 2599
822 1 2601 2600 2602
823 1 2604 2603 2605
824 1 2607 2606 2608
825 1 2610 2609 2611
826 1 2613 2612 2614
827 1 2616 2615 2617
828 1 2619 2618 2620
829 1 2630 2629 2631
830 1 2633 2632 2634
832 1 2636 2635 2637
834 1 2639 2638 2640
836 1 2642 2641 2643
838 1 2645 2644 2646
840 1 2648 2647 2649
842 1 2651 2650 2652
844 1 2654 2653 2655
846 1 2657 2656 2658
847 1 2660 2659 2661
831 1 2663 2662 2664
833 1 2666 2665 2667
835 1 2669 2668 2670
837 1 2672 2671 2673
839 1 2675 2674 2676
841 1 2678 2677 2679
843 1 2681 2680 2682
845 1 2684 2683 2685
848 1 2687 2686 2688
849 1 2690 2689 2691
850 1 2693 2692 2694
851 1 2696 2695 2697
852 1 2699 2698 2700
853 1 2702 2701 2703
854 1 2705 2704 2706
855 1 2708 2707 2709
856 1 2711 2710 2712
857 1 2714 2713 2715
858 1 2717 2716 2718
859 1 2720 2719 2721
860 1 2723 2722 2724
861 1 2726 2725 2727
862 1 2729 2728 2730
863 1 2732 2731 2733
864 1 2735 2734 2736
865 1 2738 2737 2739
866 1 2741 2740 2742
867 1 2744 2743 2745
868 1 2747 2746 2748
869 1 2750 2749 2751
870 1 2753 2752 2754
871 1 2756 2755 2757
872 1 2759 2758 2760
873 1 2762 2761 2763
874 1 2765 2764 2766
875 1 2776 2775 2777
876 1 2779 2778 2780
878 1 2782 2781 2783
880 1 2785 2784 2786
882 1 2788 2787 2789
884 1 2791 2790 2792
886 1 2794 2793 2795
888 1 2797 2796 2798
890 1 2800 2799 2801
892 1 2803 2802 2804
893 1 2806 2805 2807
877 1 2809 2808 2810
879 1 2812 2811 2813
881 1 2815 2814 2816
883 1 2818 2817 2819
885 1 2821 2820 2822
887 1 2824 2823 2825
889 1 2827 2826 2828
891 1 2830 2829 2831
894 1 2833 2832 2834
895 1 2836 2835 2837
896 1 2839 2838 2840
897 1 2842 2841 2843
898 1 2845 2844 2846
899 1 2848 2847 2849
900 1 2851 2850 2852
901 1 2854 2853 2855
902 1 2857 2856 2858
903 1 2860 2859 2861
904 1 2863 2862 2864
905 1 2866 2865 2867
906 1 2869 2868 2870
907 1 2872 2871 2873
908 1 2875 2874 2876
909 1 2878 2877 2879
910 1 2881 2880 2882
911 1 2884 2883 2885
912 1 2887 2886 2888
913 1 2890 2889 2891
914 1 2893 2892 2894
915 1 2896 2895 2897
916 1 2899 2898 2900
917 1 2902 2901 2903
918 1 2905 2904 2906
919 1 2908 2907 2909
920 1 2911 2910 2912
921 1 2922 2921 2923
922 1 2925 2924 2926
924 1 2928 2927 2929
926 1 2931 2930 2932
928 1 2934 2933 2935
930 1 2937 2936 2938
932 1 2940 2939 2941
934 1 2943 2942 2944
936 1 2946 2945 2947
938 1 2949 2948 2950
939 1 2952 2951 2953
923 1 2955 2954 2956
925 1 2958 2957 2959
927 1 2961 2960 2962
929 1 2964 2963 2965
931 1 2967 2966 2968
933 1 2970 2969 2971
935 1 2973 2972 2974
937 1 2976 2975 2977
940 1 2979 2978 2980
941 1 2982 2981 2983
942 1 2985 2984 2986
943 1 2988 2987 2989
944 1 2991 2990 2992
945 1 2994 2993 2995
946 1 2997 2996 2998
947 1 3000 2999 3001
948 1 3003 3002 3004
949 1 3006 3005 3007
950 1 3009 3008 3010
951 1 3012 3011 3013
952 1 3015 3014 3016
953 1 3018 3017 3019
954 1 3021 3020 3022
955 1 3024 3023 3025
956 1 3027 3026 3028
957 1 3030 3029 3031
958 1 3033 3032 3034
959 1 3036 3035 3037
960 1 3039 3038 3040
961 1 3042 3041 3043
962 1 3045 3044 3046
963 1 3048 3047 3049
964 1 3051 3050 3052
965 1 3054 3053 3055
966 1 3057 3056 3058
967 1 3068 3067 3069
968 1 3071 3070 3072
970 1 3074 3073 3075
972 1 3077 3076 3078
974 1 3080 3079 3081
976 1 3083 3082 3084
978 1 3086 3085 3087
980 1 3089 3088 3090
982 1 3092 3091 3093
984 1 3095 3094 3096
985 1 3098 3097 3099
969 1 3101 3100 3102
971 1 3104 3103 3105
973 1 3107 3106 3108
975 1 3110 3109 3111
977 1 3113 3112 3114
979 1 3116 3115 3117
981 1 3119 3118 3120
983 1 3122 3121 3123
986 1 3125 3124 3126
987 1 3128 3127 3129
988 1 3131 3130 3132
989 1 3134 3133 3135
990 1 3137 3136 3138
991 1 3140 3139 3141
992 1 3143 3142 3144
993 1 3146 3145 3147
994 1 3149 3148 3150
995 1 3152 3151 3153
996 1 3155 3154 3156
997 1 3158 3157 3159
998 1 3161 3160 3162
999 1 3164 3163 3165
1000 1 3167 3166 3168
1001 1 3170 3169 3171
1002 1 3173 3172 3174
1003 1 3176 3175 3177
1004 1 3179 3178 3180
1005 1 3182 3181 3183
1006 1 3185 3184 3186
1007 1 3188 3187 3189
1008 1 3191 3190 3192
1009 1 3194 3193 3195
1010 1 3197 3196 3198
1011 1 3200 3199 3201
1012 1 3203 3202 3204
1013 1 3214 3213 3215
1014 1 3217 3216 3218
1016 1 3220 3219 3221
1018 1 3223 3222 3224
1020 1 3226 3225 3227
1022 1 3229 3228 3230
1024 1 3232 3231 3233
1026 1 3235 3234 3236
1028 1 3238 3237 3239
1030 1 3241 3240 3242
1031 1 3244 3243 3245
1015 1 3247 3246 3248
1017 1 3250 3249 3251
1019 1 3253 3252 3254
1021 1 3256 3255 3257
1023 1 3259 3258 3260
1025 1 3262 3261 3263
1027 1 3265 3264 3266
1029 1 3268 3267 3269
1032 1 3271 3270 3272
1033 1 3274 3273 3275
1034 1 3277 3276 3278
1035 1 3280 3279 3281
1036 1 3283 3282 3284
1037 1 3286 3285 3287
1038 1 3289 3288 3290
1039 1 3292 3291 3293
1040 1 3295 3294 3296
1041 1 3298 3297 3299
1042 1 3301 3300 3302
1043 1 3304 3303 3305
1044 1 3307 3306 3308
1045 1 3310 3309 3311
1046 1 3313 3312 3314
1047 1 3316 3315 3317
1048 1 3319 3318 3320
1049 1 3322 3321 3323
1050 1 3325 3324 3326
1051 1 3328 3327 3329
1052 1 3331 3330 3332
1053 1 3334 3333 3335
1054 1 3337 3336 3338
1055 1 3340 3339 3341
1056 1 3343 3342 3344
1057 1 3346 3345 3347
1058 1 3349 3348 3350
1059 1 3360 3359 3361
1060 1 3363 3362 3364
1062 1 3366 3365 3367
1064 1 3369 3368 3370
1066 1 3372 3371 3373
1068 1 3375 3374 3376
1070 1 3378 3377 3379
1072 1 3381 3380 3382
1074 1 3384 3383 3385
1076 1 3387 3386 3388
1077 1 3390 3389 3391
1061 1 3393 3392 3394
1063 1 3396 3395 3397
1065 1 3399 3398 3400
1067 1 3402 3401 3403
1069 1 3405 3404 3406
1071 1 3408 3407 3409
1073 1 3411 3410 3412
1075 1 3414 3413 3415
1078 1 3417 3416 3418
1079 1 3420 3419 3421
1080 1 3423 3422 3424
1081 1 3426 3425 3427
1082 1 3429 3428 3430
1083 1 3432 3431 3433
1084 1 3435 3434 3436
1085 1 3438 3437 3439
1086 1 3441 3440 3442
1087 1 3444 3443 3445
1088 1 3447 3446 3448
1089 1 3450 3449 3451
1090 1 3453 3452 3454
1091 1 3456 3455 3457
1092 1 3459 3458 3460
1093 1 3462 3461 3463
1094 1 3465 3464 3466
1095 1 3468 3467 3469
1096 1 3471 3470 3472
1097 1 3474 3473 3475
1098 1 3477 3476 3478
1099 1 3480 3479 3481
1100 1 3483 3482 3484
1101 1 3486 3485 3487
1102 1 3489 3488 3490
1103 1 3492 3491 3493
1104 1 3495 3494 3496
1105 1 3506 3505 3507
1106 1 3509 3508 3510
1107 1 3512 3511 3513
1108 1 3515 3514 3516
1109 1 3518 3517 3519
1110 1 3521 3520 3522
1111 1 3524 3523 3525
1112 1 3527 3526 3528
1113 1 3530 3529 3531
1114 1 3533 3532 3534
1115 1 3536 3535 3537
1116 1 3539 3538 3540
1117 1 3542 3541 3543
1118 1 3545 3544 3546
1119 1 3548 3547 3549
1120 1 3551 3550 3552
1121 1 3554 3553 3555
1122 1 3557 3556 3558
1123 1 3560 3559 3561
1124 1 3563 3562 3564
1125 1 3566 3565 3567
1126 1 3569 3568 3570
1127 1 3572 3571 3573
1128 1 3575 3574 3576
1129 1 3578 3577 3579
1130 1 3581 3580 3582
1131 1 3584 3583 3585
1132 1 3587 3586 3588
1133 1 3590 3589 3591
1134 1 3593 3592 3594
1135 1 3596 3595 3597
1136 1 3599 3598 3600
1137 1 3602 3601 3603
1138 1 3605 3604 3606
1139 1 3608 3607 3609
1140 1 3611 3610 3612
1141 1 3614 3613 3615
1142 1 3617 3616 3618
1143 1 3620 3619 3621
1144 1 3623 3622 3624
1145 1 3626 3625 3627
1146 1 3629 3628 3630
1147 1 3632 3631 3633
1148 1 3635 3634 3636
1149 1 3638 3637 3639
1150 1 3641 3640 3642
1151 1 3644 3643 3645
1152 1 3647 3646 3648
1153 1 3650 3649 3651
1154 1 3653 3652 3654
1155 1 3656 3655 3657
1156 1 3659 3658 3660
1157 1 3662 3661 3663
1158 1 3665 3664 3666
1159 1 3668 3667 3669
1160 1 3671 3670 3672
1161 1 3674 3673 3675
1162 1 3677 3676 3678
1163 1 3680 3679 3681
1164 1 3683 3682 3684
1165 1 3686 3685 3687
1166 1 3689 3688 3690
1167 1 3692 3691 3693
1168 1 3695 3694 3696
1169 1 3698 3697 3699
1170 1 3701 3700 3702
1171 1 3704 3703 3705
1172 1 3707 3706 3708
1173 1 3710 3709 3711
1174 1 3713 3712 3714
1175 1 3716 3715 3717
1176 1 3719 3718 3720
1177 1 3722 3721 3723
1178 1 3725 3724 3726
1179 1 3728 3727 3729
1180 1 3731 3730 3732
1181 1 3734 3733 3735
1182 1 3737 3736 3738
1183 1 3740 3739 3741
1184 1 3743 3742 3744
1185 1 3746 3745 3747
1186 1 3749 3748 3750
1187 1 3752 3751 3753
1188 1 3755 3754 3756
1189 1 3758 3757 3759
1190 1 3761 3760 3762
1191 1 3764 3763 3765
1192 1 3767 3766 3768
1193 1 3770 3769 3771
1194 1 3773 3772 3774
1195 1 3776 3775 3777
1196 1 3779 3778 3780
1197 1 3782 3781 3783
1198 1 3785 3784 3786
1199 1 3788 3787 3789
1200 1 3791 3790 3792
1201 1 3794 3793 3795
1202 1 3797 3796 3798
1203 1 3800 3799 3801
1204 1 3803 3802 3804
1205 1 3806 3805 3807
1206 1 3809 3808 3810
1207 1 3812 3811 3813
1208 1 3815 3814 3816
1209 1 3818 3817 3819
1210 1 3821 3820 3822
1211 1 3824 3823 3825
1212 1 3827 3826 3828
1213 1 3830 3829 3831
1214 1 3833 3832 3834
1215 1 3836 3835 3837
1216 1 3839 3838 3840
1217 1 3842 3841 3843
1218 1 3845 3844 3846
1219 1 3848 3847 3849
1220 1 3851 3850 3852
1221 1 3854 3853 3855
1222 1 3857 3856 3858
1223 1 3860 3859 3861
1224 1 3863 3862 3864
1225 1 3866 3865 3867
1226 1 3869 3868 3870
1227 1 3872 3871 3873
1228 1 3875 3874 3876
1229 1 3878 3877 3879
1230 1 3881 3880 3882
1231 1 3884 3883 3885
1232 1 3887 3886 3888
1233 1 3890 3889 3891
1234 1 3893 3892 3894
1235 1 3896 3895 3897
1236 1 3899 3898 3900
1237 1 3902 3901 3903
1238 1 3905 3904 3906
1239 1 3908 3907 3909
1240 1 3911 3910 3912
1241 1 3914 3913 3915
1242 1 3917 3916 3918
1243 1 3920 3919 3921
1244 1 3923 3922 3924
1245 1 3926 3925 3927
1246 1 3929 3928 3930
1247 1 3932 3931 3933
1248 1 3935 3934 3936
1249 1 3938 3937 3939
1250 1 3941 3940 3942
1251 1 3944 3943 3945
1252 1 3947 3946 3948
1253 1 3950 3949 3951
1254 1 3953 3952 3954
1255 1 3956 3955 3957
1256 1 3959 3958 3960
1257 1 3962 3961 3963
1258 1 3965 3964 3966
1259 1 3968 3967 3969
1260 1 3971 3970 3972
1261 1 3974 3973 3975
1262 1 3977 3976 3978
1263 1 3980 3979 3981
1264 1 3983 3982 3984
1265 1 3986 3985 3987
1266 1 3989 3988 3990
1267 1 3992 3991 3993
1268 1 3995 3994 3996
1269 1 3998 3997 3999
1270 1 4001 4000 4002
1271 1 4004 4003 4005
1272 1 4007 4006 4008
1273 1 4010 4009 4011
1274 1 4013 4012 4014
1275 1 4016 4015 4017
1276 1 4019 4018 4020
1277 1 4022 4021 4023
1278 1 4025 4024 4026
1279 1 4028 4027 4029
1280 1 4031 4030 4032
1281 1 4034 4033 4035
1282 1 4037 4036 4038
1283 1 4040 4039 4041
1284 1 4043 4042 4044
1285 1 4046 4045 4047
1286 1 4049 4048 4050
1287 1 4052 4051 4053
1288 1 4055 4054 4056
1289 1 4058 4057 4059
1290 1 4061 4060 4062
1291 1 4064 4063 4065
1292 1 4067 4066 4068
1293 1 4070 4069 4071
1294 1 4073 4072 4074
1295 1 4076 4075 4077
1296 1 4079 4078 4080
1297 1 4082 4081 4083
1298 1 4085 4084 4086
1299 1 4088 4087 4089
1300 1 4091 4090 4092
1301 1 4094 4093 4095
1302 1 4097 4096 4098
1303 1 4100 4099 4101
1304 1 4103 4102 4104
1305 1 4106 4105 4107
1306 1 4109 4108 4110
1307 1 4112 4111 4113
1308 1 4115 4114 4116
1309 1 4118 4117 4119
1310 1 4121 4120 4122
1311 1 4124 4123 4125
1312 1 4127 4126 4128
1313 1 4130 4129 4131
1314 1 4133 4132 4134
1315 1 4136 4135 4137
1316 1 4139 4138 4140
1317 1 4142 4141 4143
1318 1 4145 4144 4146
1319 1 4148 4147 4149
1320 1 4151 4150 4152
1321 1 4154 4153 4155
1322 1 4157 4156 4158
1323 1 4160 4159 4161
1324 1 4163 4162 4164
1325 1 4166 4165 4167
1326 1 4169 4168 4170
1327 1 4172 4171 4173
1328 1 4175 4174 4176
1329 1 4178 4177 4179
1330 1 4181 4180 4182
1331 1 4184 4183 4185
1332 1 4187 4186 4188
1333 1 4190 4189 4191
1334 1 4193 4192 4194
1335 1 4196 4195 4197
1336 1 4199 4198 4200
1337 1 4202 4201 4203
1338 1 4205 4204 4206
1339 1 4208 4207 4209
1340 1 4211 4210 4212
1341 1 4214 4213 4215
1342 1 4217 4216 4218
1343 1 4220 4219 4221
1344 1 4223 4222 4224
1345 1 4226 4225 4227
1346 1 4229 4228 4230
1347 1 4232 4231 4233
1348 1 4235 4234 4236
1349 1 4238 4237 4239
1350 1 4241 4240 4242
1351 1 4244 4243 4245
1352 1 4247 4246 4248
1353 1 4250 4249 4251
1354 1 4253 4252 4254
1355 1 4256 4255 4257
1356 1 4259 4258 4260
1357 1 4262 4261 4263
1358 1 4265 4264 4266
1359 1 4268 4267 4269
1360 1 4271 4270 4272
1361 1 4274 4273 4275
1362 1 4277 4276 4278
1363 1 4280 4279 4281
1364 1 4283 4282 4284
1365 1 4286 4285 4287
1366 1 4289 4288 4290
1367 1 4292 4291 4293
1368 1 4295 4294 4296
1369 1 4298 4297 4299
1370 1 4301 4300 4302
1371 1 4304 4303 4305
1372 1 4307 4306 4308
1373 1 4310 4309 4311
1374 1 4313 4312 4314
1375 1 4316 4315 4317
1376 1 4319 4318 4320
1377 1 4322 4321 4323
1378 1 4325 4324 4326
1379 1 4328 4327 4329
1380 1 4331 4330 4332
1381 1 4334 4333 4335
1382 1 4337 4336 4338
1383 1 4340 4339 4341
1384 1 4343 4342 4344
1385 1 4346 4345 4347
1386 1 4349 4348 4350
1387 1 4352 4351 4353
1388 1 4355 4354 4356
1389 1 4358 4357 4359
1390 1 4361 4360 4362
1391 1 4364 4363 4365
1392 1 4367 4366 4368
1393 1 4370 4369 4371
1394 1 4373 4372 4374
1395 1 4376 4375 4377
1396 1 4379 4378 4380
1397 1 4382 4381 4383
1398 1 4385 4384 4386
1399 1 4388 4387 4389
1400 1 4391 4390 4392
1401 1 4394 4393 4395
1402 1 4397 4396 4398
1403 1 4400 4399 4401
1404 1 4403 4402 4404
1405 1 4406 4405 4407
1406 1 4409 4408 4410
1407 1 4412 4411 4413
1408 1 4415 4414 4416
1409 1 4418 4417 4419
1410 1 4421 4420 4422
1411 1 4424 4423 4425
1412 1 4427 4426 4428
1413 1 4430 4429 4431
1414 1 4433 4432 4434
1415 1 4436 4435 4437
1416 1 4439 4438 4440
1417 1 4442 4441 4443
1418 1 4445 4444 4446
1419 1 4448 4447 4449
1420 1 4451 4450 4452
1421 1 4454 4453 4455
1422 1 4457 4456 4458
1423 1 4460 4459 4461
1424 1 4463 4462 4464
1425 1 4466 4465 4467
1426 1 4469 4468 4470
1427 1 4472 4471 4473
1428 1 4475 4474 4476
1429 1 4478 4477 4479
1430 1 4481 4480 4482
1431 1 4484 4483 4485
1432 1 4487 4486 4488
1433 1 4490 4489 4491
1434 1 4493 4492 4494
1435 1 4496 4495 4497
1436 1 4499 4498 4500
1437 1 4502 4501 4503
1438 1 4505 4504 4506
1439 1 4508 4507 4509
1440 1 4511 4510 4512
1441 1 4514 4513 4515
1442 1 4517 4516 4518
1443 1 4520 4519 4521
1444 1 4523 4522 4524
1445 1 4526 4525 4527
1446 1 4529 4528 4530
1447 1 4532 4531 4533
1448 1 4535 4534 4536
1449 1 4538 4537 4539
1450 1 4541 4540 4542
1451 1 4544 4543 4545
1452 1 4547 4546 4548
1453 1 4550 4549 4551
1454 1 4553 4552 4554
1455 1 4556 4555 4557
1456 1 4559 4558 4560
1457 1 4562 4561 4563
1458 1 4565 4564 4566
1459 1 4568 4567 4569
1460 1 4571 4570 4572
1461 1 4574 4573 4575
1462 1 4577 4576 4578
1463 1 4580 4579 4581
1464 1 4583 4582 4584
1465 1 4586 4585 4587
1466 1 4589 4588 4590
1467 1 4592 4591 4593
1468 1 4595 4594 4596
1469 1 4598 4597 4599
1470 1 4601 4600 4602
1471 1 4604 4603 4605
1472 1 4607 4606 4608
1473 1 4610 4609 4611
1474 1 4613 4612 4614
1475 1 4616 4615 4617
1476 1 4619 4618 4620
1477 1 4622 4621 4623
1478 1 4625 4624 4626
1479 1 4628 4627 4629
1480 1 4631 4630 4632
1481 1 4634 4633 4635
1482 1 4637 4636 4638
1483 1 4640 4639 4641
1484 1 4643 4642 4644
1485 1 4646 4645 4647
1486 1 4649 4648 4650
1487 1 4652 4651 4653
1488 1 4655 4654 4656
1489 1 4658 4657 4659
1490 1 4661 4660 4662
1491 1 4664 4663 4665
1492 1 4667 4666 4668
1493 1 4670 4669 4671
1494 1 4673 4672 4674
1495 1 4676 4675 4677
1496 1 4679 4678 4680
1497 1 4682 4681 4683
1498 1 4685 4684 4686
1499 1 4688 4687 4689
1500 1 4691 4690 4692
1501 1 4694 4693 4695
1502 1 4697 4696 4698
1503 1 4700 4699 4701
1504 1 4703 4702 4704
1505 1 4706 4705 4707
1506 1 4709 4708 4710
1507 1 4712 4711 4713
1508 1 4715 4714 4716
1509 1 4718 4717 4719
1510 1 4721 4720 4722
1511 1 4724 4723 4725
1512 1 4727 4726 4728
1513 1 4730 4729 4731
1514 1 4733 4732 4734
1515 1 4736 4735 4737
1516 1 4739 4738 4740
1517 1 4742 4741 4743
1518 1 4745 4744 4746
1519 1 4748 4747 4749
1520 1 4751 4750 4752
1521 1 4754 4753 4755
1522 1 4757 4756 4758
1523 1 4760 4759 4761
1524 1 4763 4762 4764
1525 1 4766 4765 4767
1526 1 4769 4768 4770
1527 1 4772 4771 4773
1528 1 4775 4774 4776
1529 1 4778 4777 4779
1530 1 4781 4780 4782
1531 1 4784 4783 4785
1532 1 4787 4786 4788
1533 1 4790 4789 4791
1534 1 4793 4792 4794
1535 1 4796 4795 4797
1536 1 4799 4798 4800
1537 1 4802 4801 4803
1538 1 4805 4804 4806
1539 1 4808 4807 4809
1540 1 4811 4810 4812
1541 1 4814 4813 4815
1542 1 4817 4816 4818
1543 1 4820 4819 4821
1544 1 4823 4822 4824
1545 1 4826 4825 4827
1546 1 4829 4828 4830
1547 1 4832 4831 4833
1548 1 4835 4834 4836
1549 1 4838 4837 4839
1550 1 4841 4840 4842
1551 1 4844 4843 4845
1552 1 4847 4846 4848
1553 1 4850 4849 4851
1554 1 4853 4852 4854
1555 1 4856 4855 4857
1556 1 4859 4858 4860
1557 1 4862 4861 4863
1558 1 4865 4864 4866
1559 1 4868 4867 4869
1560 1 4871 4870 4872
1561 1 4874 4873 4875
1562 1 4877 4876 4878
1563 1 4880 4879 4881
1564 1 4883 4882 4884
1565 1 4886 4885 4887
1566 1 4889 4888 4890
1567 1 4892 4891 4893
1568 1 4895 4894 4896
1569 1 4898 4897 4899
1570 1 4901 4900 4902
1571 1 4904 4903 4905
1572 1 4907 4906 4908
1573 1 4910 4909 4911
1574 1 4913 4912 4914
1575 1 4916 4915 4917
1576 1 4919 4918 4920
1577 1 4922 4921 4923
1578 1 4925 4924 4926
1579 1 4928 4927 4929
1580 1 4931 4930 4932
1581 1 4934 4933 4935
1582 1 4937 4936 4938
1583 1 4940 4939 4941
1584 1 4943 4942 4944
1585 1 4946 4945 4947
1586 1 4949 4948 4950
1587 1 4952 4951 4953
1588 1 4955 4954 4956
1589 1 4958 4957 4959
1590 1 4961 4960 4962
1591 1 4964 4963 4965
1592 1 4967 4966 4968
1593 1 4970 4969 4971
1594 1 4973 4972 4974
1595 1 4976 4975 4977
1596 1 4979 4978 4980
1597 1 4982 4981 4983
1598 1 4985 4984 4986
1599 1 4988 4987 4989
1600 1 4991 4990 4992
1601 1 4994 4993 4995
1602 1 4997 4996 4998
1603 1 5000 4999 5001
1604 1 5003 5002 5004
1605 1 5006 5005 5007
1606 1 5009 5008 5010
1607 1 5012 5011 5013
1608 1 5015 5014 5016
1609 1 5018 5017 5019
1610 1 5021 5020 5022
1611 1 5024 5023 5025
1612 1 5027 5026 5028
1613 1 5030 5029 5031
1614 1 5033 5032 5034
1615 1 5036 5035 5037
1616 1 5039 5038 5040
1617 1 5042 5041 5043
1618 1 5045 5044 5046
1619 1 5048 5047 5049
1620 1 5051 5050 5052
1621 1 5054 5053 5055
1622 1 5057 5056 5058
1623 1 5060 5059 5061
1624 1 5063 5062 5064
1625 1 5066 5065 5067
1626 1 5069 5068 5070
1627 1 5072 5071 5073
1628 1 5075 5074 5076
1629 1 5078 5077 5079
1630 1 5081 5080 5082
1631 1 5084 5083 5085
1632 1 5087 5086 5088
1633 1 5090 5089 5091
1634 1 5093 5092 5094
1635 1 5096 5095 5097
1636 1 5099 5098 5100
1637 1 5102 5101 5103
1638 1 5105 5104 5106
1639 1 5108 5107 5109
1640 1 5111 5110 5112
1641 1 5114 5113 5115
1642 1 5117 5116 5118
1643 1 5120 5119 5121
1644 1 5123 5122 5124
1645 1 5126 5125 5127
1646 1 5129 5128 5130
1647 1 5132 5131 5133
1648 1 5135 5134 5136
1649 1 5138 5137 5139
1650 1 5141 5140 5142
1651 1 5144 5143 5145
1652 1 5147 5146 5148
1653 1 5150 5149 5151
1654 1 5153 5152 5154
1655 1 5156 5155 5157
1656 1 5159 5158 5160
1657 1 5162 5161 5163
1658 1 5165 5164 5166
1659 1 5168 5167 5169
1660 1 5171 5170 5172
1661 1 5174 5173 5175
1662 1 5177 5176 5178
1663 1 5180 5179 5181
1664 1 5183 5182 5184
1665 1 5186 5185 5187
1666 1 5189 5188 5190
1667 1 5192 5191 5193
1668 1 5195 5194 5196
1669 1 5198 5197 5199
1670 1 5201 5200 5202
1671 1 5204 5203 5205
1672 1 5207 5206 5208
1673 1 5210 5209 5211
1674 1 5213 5212 5214
1675 1 5216 5215 5217
1676 1 5219 5218 5220
1677 1 5222 5221 5223
1678 1 5225 5224 5226
1679 1 5228 5227 5229
1680 1 5231 5230 5232
1681 1 5234 5233 5235
1682 1 5237 5236 5238
1683 1 5240 5239 5241
1684 1 5243 5242 5244
1685 1 5246 5245 5247
1686 1 5249 5248 5250
1687 1 5252 5251 5253
1688 1 5255 5254 5256
1689 1 5258 5257 5259
1690 1 5261 5260 5262
1691 1 5264 5263 5265
1692 1 5267 5266 5268
1693 1 5270 5269 5271
1694 1 5273 5272 5274
1695 1 5276 5275 5277
1696 1 5279 5278 5280
1697 1 5282 5281 5283
1698 1 5285 5284 5286
1699 1 5288 5287 5289
1700 1 5291 5290 5292
1701 1 5294 5293 5295
1702 1 5297 5296 5298
1703 1 5300 5299 5301
1704 1 5303 5302 5304
1705 1 5306 5305 5307
1706 1 5309 5308 5310
1707 1 5312 5311 5313
1708 1 5315 5314 5316
1709 1 5318 5317 5319
1710 1 5321 5320 5322
1711 1 5324 5323 5325
1712 1 5327 5326 5328
1713 1 5330 5329 5331
1714 1 5333 5332 5334
1715 1 5336 5335 5337
1716 1 5339 5338 5340
1717 1 5342 5341 5343
1718 1 5345 5344 5346
1719 1 5348 5347 5349
1720 1 5351 5350 5352
1721 1 5354 5353 5355
1722 1 5357 5356 5358
1723 1 5360 5359 5361
1724 1 5363 5362 5364
1725 1 5366 5365 5367
1726 1 5369 5368 5370
1727 1 5372 5371 5373
1728 1 5375 5374 5376
1729 1 5378 5377 5379
1730 1 5381 5380 5382
1731 1 5384 5383 5385
1732 1 5387 5386 5388
1733 1 5390 5389 5391
1734 1 5393 5392 5394
1735 1 5396 5395 5397
1736 1 5399 5398 5400
1737 1 5402 5401 5403
1738 1 5405 5404 5406
1739 1 5408 5407 5409
1740 1 5411 5410 5412
1741 1 5414 5413 5415
1742 1 5417 5416 5418
1743 1 5420 5419 5421
1744 1 5423 5422 5424
1745 1 5426 5425 5427
1746 1 5429 5428 5430
1747 1 5432 5431 5433
1748 1 5435 5434 5436
1749 1 5438 5437 5439
1750 1 5441 5440 5442
1751 1 5444 5443 5445
1752 1 5447 5446 5448
1753 1 5450 5449 5451
1754 1 5453 5452 5454
1755 1 5456 5455 5457
1756 1 5459 5458 5460
1757 1 5462 5461 5463
1758 1 5465 5464 5466
1759 1 5468 5467 5469
1760 1 5471 5470 5472
1761 1 5474 5473 5475
1762 1 5477 5476 5478
1763 1 5480 5479 5481
1764 1 5483 5482 5484
1765 1 5486 5485 5487
1766 1 5489 5488 5490
1767 1 5492 5491 5493
1768 1 5495 5494 5496
1769 1 5498 5497 5499
1770 1 5501 5500 5502
1771 1 5504 5503 5505
1772 1 5507 5506 5508
1773 1 5510 5509 5511
1774 1 5513 5512 5514
1775 1 5516 5515 5517
1776 1 5519 5518 5520
1777 1 5522 5521 5523
1778 1 5525 5524 5526
1779 1 5528 5527 5529
1780 1 5531 5530 5532
1781 1 5534 5533 5535
1782 1 5537 5536 5538
1783 1 5540 5539 5541
1784 1 5543 5542 5544
1785 1 5546 5545 5547
1786 1 5549 5548 5550
1787 1 5552 5551 5553
1788 1 5555 5554 5556
1789 1 5558 5557 5559
1790 1 5561 5560 5562
1791 1 5564 5563 5565
1792 1 5567 5566 5568
1793 1 5570 5569 5571
1794 1 5573 5572 5574
1795 1 5576 5575 5577
1796 1 5579 5578 5580
1797 1 5582 5581 5583
1798 1 5585 5584 5586
1799 1 5588 5587 5589
1800 1 5591 5590 5592
1801 1 5594 5593 5595
1802 1 5597 5596 5598
1803 1 5600 5599 5601
1804 1 5603 5602 5604
1805 1 5606 5605 5607
1806 1 5609 5608 5610
1807 1 5612 5611 5613
1808 1 5615 5614 5616
1809 1 5618 5617 5619
1810 1 5621 5620 5622
1811 1 5624 5623 5625
1812 1 5627 5626 5628
1813 1 5630 5629 5631
1814 1 5633 5632 5634
1815 1 5636 5635 5637
1816 1 5639 5638 5640
1817 1 5642 5641 5643
1818 1 5645 5644 5646
1819 1 5648 5647 5649
1820 1 5651 5650 5652
1821 1 5654 5653 5655
1822 1 5657 5656 5658
1823 1 5660 5659 5661
1824 1 5663 5662 5664
1825 1 5666 5665 5667
1826 1 5669 5668 5670
1827 1 5672 5671 5673
1828 1 5675 5674 5676
1829 1 5678 5677 5679
1830 1 5681 5680 5682
1831 1 5684 5683 5685
1832 1 5687 5686 5688
1833 1 5690 5689 5691
1834 1 5693 5692 5694
1835 1 5696 5695 5697
1836 1 5699 5698 5700
1837 1 5702 5701 5703
1838 1 5705 5704 5706
1839 1 5708 5707 5709
1840 1 5711 5710 5712
1841 1 5714 5713 5715
1842 1 5717 5716 5718
1843 1 5720 5719 5721
1844 1 5723 5722 5724
1845 1 5726 5725 5727
1846 1 5729 5728 5730
1847 1 5732 5731 5733
1848 1 5735 5734 5736
1849 1 5738 5737 5739
1850 1 5741 5740 5742
1851 1 5744 5743 5745
1852 1 5747 5746 5748
1853 1 5750 5749 5751
1854 1 5753 5752 5754
1855 1 5756 5755 5757
1856 1 5759 5758 5760
1857 1 5762 5761 5763
1858 1 5765 5764 5766
1859 1 5768 5767 5769
1860 1 5771 5770 5772
1861 1 5774 5773 5775
1862 1 5777 5776 5778
1863 1 5780 5779 5781
1864 1 5783 5782 5784
1865 1 5786 5785 5787
1866 1 5789 5788 5790
1867 1 5792 5791 5793
1868 1 5795 5794 5796
1869 1 5798 5797 5799
1870 1 5801 5800 5802
1871 1 5804 5803 5805
1872 1 5807 5806 5808
1873 1 5810 5809 5811
1874 1 5813 5812 5814
1875 1 5816 5815 5817
1876 1 5819 5818 5820
1877 1 5822 5821 5823
1878 1 5825 5824 5826
1879 1 5828 5827 5829
1880 1 5831 5830 5832
1881 1 5834 5833 5835
1882 1 5837 5836 5838
1883 1 5840 5839 5841
1884 1 5843 5842 5844
1885 1 5846 5845 5847
1886 1 5849 5848 5850
1887 1 5852 5851 5853
1888 1 5855 5854 5856
1889 1 5858 5857 5859
1890 1 5861 5860 5862
1891 1 5864 5863 5865
1892 1 5867 5866 5868
1893 1 5870 5869 5871
1894 1 5873 5872 5874
1895 1 5876 5875 5877
1896 1 5879 5878 5880
1897 1 5882 5881 5883
1898 1 5885 5884 5886
1899 1 5888 5887 5889
1900 1 5891 5890 5892
1901 1 5894 5893 5895
1902 1 5897 5896 5898
1903 1 5900 5899 5901
1904 1 5903 5902 5904
1905 1 5906 5905 5907
1906 1 5909 5908 5910
1907 1 5912 5911 5913
1908 1 5915 5914 5916
1909 1 5918 5917 5919
1910 1 5921 5920 5922
1911 1 5924 5923 5925
1912 1 5927 5926 5928
1913 1 5930 5929 5931
1914 1 5933 5932 5934
1915 1 5936 5935 5937
1916 1 5939 5938 5940
1917 1 5942 5941 5943
1918 1 5945 5944 5946
1919 1 5948 5947 5949
1920 1 5951 5950 5952
1921 1 5954 5953 5955
1922 1 5957 5956 5958
1923 1 5960 5959 5961
1924 1 5963 5962 5964
1925 1 5966 5965 5967
1926 1 5969 5968 5970
1927 1 5972 5971 5973
1928 1 5975 5974 5976
1929 1 5978 5977 5979
1930 1 5981 5980 5982
1931 1 5984 5983 5985
1932 1 5987 5986 5988
1933 1 5990 5989 5991
1934 1 5993 5992 5994
1935 1 5996 5995 5997
1936 1 5999 5998 6000
1937 1 6002 6001 6003
1938 1 6005 6004 6006
1939 1 6008 6007 6009
1940 1 6011 6010 6012
1941 1 6014 6013 6015
1942 1 6017 6016 6018
1943 1 6020 6019 6021
1944 1 6023 6022 6024
1945 1 6026 6025 6027
1946 1 6029 6028 6030
1947 1 6032 6031 6033
1948 1 6035 6034 6036
1949 1 6038 6037 6039
1950 1 6041 6040 6042
1951 1 6044 6043 6045
1952 1 6047 6046 6048
1953 1 6050 6049 6051
1954 1 6053 6052 6054
1955 1 6056 6055 6057
1956 1 6059 6058 6060
1957 1 6062 6061 6063
1958 1 6065 6064 6066
1959 1 6068 6067 6069
1960 1 6071 6070 6072
1961 1 6074 6073 6075
1962 1 6077 6076 6078
1963 1 6080 6079 6081
1964 1 6083 6082 6084
1965 1 6086 6085 6087
1966 1 6089 6088 6090
1967 1 6092 6091 6093
1968 1 6095 6094 6096
1969 1 6098 6097 6099
1970 1 6101 6100 6102
1971 1 6104 6103 6105
1972 1 6107 6106 6108
1973 1 6110 6109 6111
1974 1 6113 6112 6114
1975 1 6116 6115 6117
1976 1 6119 6118 6120
1977 1 6122 6121 6123
1978 1 6125 6124 6126
1979 1 6128 6127 6129
1980 1 6131 6130 6132
1981 1 6134 6133 6135
1982 1 6137 6136 6138
1983 1 6140 6139 6141
1984 1 6143 6142 6144
1985 1 6146 6145 6147
1986 1 6149 6148 6150
1987 1 6152 6151 6153
1988 1 6155 6154 6156
1989 1 6158 6157 6159
1990 1 6161 6160 6162
1991 1 6164 6163 6165
1992 1 6167 6166 6168
1993 1 6170 6169 6171
1994 1 6173 6172 6174
1995 1 6176 6175 6177
1996 1 6179 6178 6180
1997 1 6182 6181 6183
1998 1 6185 6184 6186
1999 1 6188 6187 6189
2000 1 6191 6190 6192
2001 1 6194 6193 6195
2002 1 6197 6196 6198
2003 1 6200 6199 6201
2004 1 6203 6202 6204
2005 1 6206 6205 6207
2006 1 6209 6208 6210
2007 1 6212 6211 6213
2008 1 6215 6214 6216
2009 1 6218 6217 6219
2010 1 6221 6220 6222
2011 1 6224 6223 6225
2012 1 6227 6226 6228
2013 1 6230 6229 6231
2014 1 6233 6232 6234
2015 1 6236 6235 6237
2016 1 6239 6238 6240
2017 1 6242 6241 6243
2018 1 6245 6244 6246
2019 1 6248 6247 6249
2020 1 6251 6250 6252
2021 1 6254 6253 6255
2022 1 6257 6256 6258
2023 1 6260 6259 6261
2024 1 6263 6262 6264
2025 1 6266 6265 6267
2026 1 6269 6268 6270
2027 1 6272 6271 6273
2028 1 6275 6274 6276
2029 1 6278 6277 6279
2030 1 6281 6280 6282
2031 1 6284 6283 6285
2032 1 6287 6286 6288
2033 1 6290 6289 6291
2034 1 6293 6292 6294
2035 1 6296 6295 6297
2036 1 6299 6298 6300
2037 1 6302 6301 6303
2038 1 6305 6304 6306
2039 1 6308 6307 6309
2040 1 6311 6310 6312
2041 1 6314 6313 6315
2042 1 6317 6316 6318
2043 1 6320 6319 6321
2044 1 6323 6322 6324
2045 1 6326 6325 6327
2046 1 6329 6328 6330
2047 1 6332 6331 6333
2048 1 6335 6334 6336
2049 1 6338 6337 6339
2050 1 6341 6340 6342
2051 1 6344 6343 6345
2052 1 6347 6346 6348
2053 1 6350 6349 6351
2054 1 6353 6352 6354
2055 1 6356 6355 6357
2056 1 6359 6358 6360
2057 1 6362 6361 6363
2058 1 6365 6364 6366
2059 1 6368 6367 6369
2060 1 6371 6370 6372
2061 1 6374 6373 6375
2062 1 6377 6376 6378
2063 1 6380 6379 6381
2064 1 6383 6382 6384
2065 1 6386 6385 6387
2066 1 6389 6388 6390
2067 1 6392 6391 6393
2068 1 6395 6394 6396
2069 1 6398 6397 6399
2070 1 6401 6400 6402
2071 1 6404 6403 6405
2072 1 6407 6406 6408
2073 1 6410 6409 6411
2074 1 6413 6412 6414
2075 1 6416 6415 6417
2076 1 6419 6418 6420
2077 1 6422 6421 6423
2078 1 6425 6424 6426
2079 1 6428 6427 6429
2080 1 6431 6430 6432
2081 1 6434 6433 6435
2082 1 6437 6436 6438
2083 1 6440 6439 6441
2084 1 6443 6442 6444
2085 1 6446 6445 6447
2086 1 6449 6448 6450
2087 1 6452 6451 6453
2088 1 6455 6454 6456
2089 1 6458 6457 6459
2090 1 6461 6460 6462
2091 1 6464 6463 6465
2092 1 6467 6466 6468
2093 1 6470 6469 6471
2094 1 6473 6472 6474
2095 1 6476 6475 6477
2096 1 6479 6478 6480
2097 1 6482 6481 6483
2098 1 6485 6484 6486
2099 1 6488 6487 6489
2100 1 6491 6490 6492
2101 1 6494 6493 6495
2102 1 6497 6496 6498
2103 1 6500 6499 6501
2104 1 6503 6502 6504
2105 1 6506 6505 6507
2106 1 6509 6508 6510
2107 1 6512 6511 6513
2108 1 6515 6514 6516
2109 1 6518 6517 6519
2110 1 6521 6520 6522
2111 1 6524 6523 6525
2112 1 6527 6526 6528
2113 1 6530 6529 6531
2114 1 6533 6532 6534
2115 1 6536 6535 6537
2116 1 6539 6538 6540
2117 1 6542 6541 6543
2118 1 6545 6544 6546
2119 1 6548 6547 6549
2120 1 6551 6550 6552
2121 1 6554 6553 6555
2122 1 6557 6556 6558
2123 1 6560 6559 6561
2124 1 6563 6562 6564
2125 1 6566 6565 6567
2126 1 6569 6568 6570
2127 1 6572 6571 6573
2128 1 6575 6574 6576
2129 1 6578 6577 6579
2130 1 6581 6580 6582
2131 1 6584 6583 6585
2132 1 6587 6586 6588
2133 1 6590 6589 6591
2134 1 6593 6592 6594
2135 1 6596 6595 6597
2136 1 6599 6598 6600
2137 1 6602 6601 6603
2138 1 6605 6604 6606
2139 1 6608 6607 6609
2140 1 6611 6610 6612
2141 1 6614 6613 6615
2142 1 6617 6616 6618
2143 1 6620 6619 6621
2144 1 6623 6622 6624
2145 1 6626 6625 6627
2146 1 6629 6628 6630
2147 1 6632 6631 6633
2148 1 6635 6634 6636
2149 1 6638 6637 6639
2150 1 6641 6640 6642
2151 1 6644 6643 6645
2152 1 6647 6646 6648
2153 1 6650 6649 6651
2154 1 6653 6652 6654
2155 1 6656 6655 6657
2156 1 6659 6658 6660
2157 1 6662 6661 6663
2158 1 6665 6664 6666
2159 1 6668 6667 6669
2160 1 6671 6670 6672
2161 1 6674 6673 6675
2162 1 6677 6676 6678
2163 1 6680 6679 6681
2164 1 6683 6682 6684
2165 1 6686 6685 6687
2166 1 6689 6688 6690
2167 1 6692 6691 6693
2168 1 6695 6694 6696
2169 1 6698 6697 6699
2170 1 6701 6700 6702
2171 1 6704 6703 6705
2172 1 6707 6706 6708
2173 1 6710 6709 6711
2174 1 6713 6712 6714
2175 1 6716 6715 6717
2176 1 6719 6718 6720
2177 1 6722 6721 6723
2178 1 6725 6724 6726
2179 1 6728 6727 6729
2180 1 6731 6730 6732
2181 1 6734 6733 6735
2182 1 6737 6736 6738
2183 1 6740 6739 6741
2184 1 6743 6742 6744
2185 1 6746 6745 6747
2186 1 6749 6748 6750
2187 1 6752 6751 6753
2188 1 6755 6754 6756
2189 1 6758 6757 6759
2190 1 6761 6760 6762
2191 1 6764 6763 6765
2192 1 6767 6766 6768
2193 1 6770 6769 6771
2194 1 6773 6772 6774
2195 1 6776 6775 6777
2196 1 6779 6778 6780
2197 1 6782 6781 6783
2198 1 6785 6784 6786
2199 1 6788 6787 6789
2200 1 6791 6790 6792
2201 1 6794 6793 6795
2202 1 6797 6796 6798
2203 1 6800 6799 6801
2204 1 6803 6802 6804
2205 1 6806 6805 6807
2206 1 6809 6808 6810
2207 1 6812 6811 6813
2208 1 6815 6814 6816
2209 1 6818 6817 6819
2210 1 6821 6820 6822
2211 1 6824 6823 6825
2212 1 6827 6826 6828
2213 1 6830 6829 6831
2214 1 6833 6832 6834
2215 1 6836 6835 6837
2216 1 6839 6838 6840
2217 1 6842 6841 6843
2218 1 6845 6844 6846
2219 1 6848 6847 6849
2220 1 6851 6850 6852
2221 1 6854 6853 6855
2222 1 6857 6856 6858
2223 1 6860 6859 6861
2224 1 6863 6862 6864
2225 1 6866 6865 6867
2226 1 6869 6868 6870
2227 1 6872 6871 6873
2228 1 6875 6874 6876
2229 1 6878 6877 6879
2230 1 6881 6880 6882
2231 1 6884 6883 6885
2232 1 6887 6886 6888
2233 1 6890 6889 6891
2234 1 6893 6892 6894
2235 1 6896 6895 6897
2236 1 6899 6898 6900
2237 1 6902 6901 6903
2238 1 6905 6904 6906
2239 1 6908 6907 6909
2240 1 6911 6910 6912
2241 1 6914 6913 6915
2242 1 6917 6916 6918
2243 1 6920 6919 6921
2244 1 6923 6922 6924
2245 1 6926 6925 6927
2246 1 6929 6928 6930
2247 1 6932 6931 6933
2248 1 6935 6934 6936
2249 1 6938 6937 6939
2250 1 6941 6940 6942
2251 1 6944 6943 6945
2252 1 6947 6946 6948
2253 1 6950 6949 6951
2254 1 6953 6952 6954
2255 2 7203 7204 7205
2256 3 7204 7203 7206
2257 4 7204 7203 7207
2258 5 7204 7203 7208
2259 6 7203 7204 7209
2260 7 7203 7204 7210
2261 8 7204 7205 7211
2262 9 7203 7206 7212
2263 10 7206 7203 7207
2264 11 7207 7203 7208
2265 12 7205 7204 7209
2266 13 7205 7204 7210
2267 14 7206 7203 7208
2268 15 7209 7204 7210
2269 2 7213 7214 7215
2270 3 7214 7213 7216
2271 4 7214 7213 7217
2272 5 7214 7213 7218
2273 6 7213 7214 7219
2274 7 7213 7214 7220
2275 8 7214 7215 7221
2276 9 7213 7216 7222
2277 10 7216 7213 7217
2278 11 7217 7213 7218
2279 12 7215 7214 7219
2280 13 7215 7214 7220
2281 14 7216 7213 7218
2282 15 7219 7214 7220
2283 2 7223 7224 7225
2284 3 7224 7223 7226
2285 4 7224 7223 7227
2286 5 7224 7223 7228
2287 6 7223 7224 7229
2288 7 7223 7224 7230
2289 8 7224 7225 7231
2290 9 7223 7226 7232
2291 10 7226 7223 7227
2292 11 7227 7223 7228
2293 12 7225 7224 7229
2294 13 7225 7224 7230
2295 14 7226 7223 7228
2296 15 7229 7224 7230
2297 2 7233 7234 7235
2298 3 7234 7233 7236
2299 4 7234 7233 7237
2300 5 7234 7233 7238
2301 6 7233 7234 7239
2302 7 7233 7234 7240
2303 8 7234 7235 7241
2304 9 7233 7236 7242
2305 10 7236 7233 7237
2306 11 7237 7233 7238
2307 12 7235 7234 7239
2308 13 7235 7234 7240
2309 14 7236 7233 7238
2310 15 7239 7234 7240
2311 2 7243 7244 7245
2312 3 7244 7243 7246
2313 4 7244 7243 7247
2314 5 7244 7243 7248
2315 6 7243 7244 7249
2316 7 7243 7244 7250
2317 8 7244 7245 7251
2318 9 7243 7246 7252
2319 10 7246 7243 7247
2320 11 7247 7243 7248
2321 12 7245 7244 7249
2322 13 7245 7244 7250
2323 14 7246 7243 7248
2324 15 7249 7244 7250
2325 2 7253 7254 7255
2326 3 7254 7253 7256
2327 4 7254 7253 7257
2328 5 7254 7253 7258
2329 6 7253 7254 7259
2330 7 7253 7254 7260
2331 8 7254 7255 7261
2332 9 7253 7256 7262
2333 10 7256 7253 7257
2334 11 7257 7253 7258
2335 12 7255 7254 7259
2336 13 7255 7254 7260
2337 14 7256 7253 7258
2338 15 7259 7254 7260
2339 2 7263 7264 7265
2340 3 7264 7263 7266
2341 4 7264 7263 7267
2342 5 7264 7263 7268
2343 6 7263 7264 7269
2344 7 7263 7264 7270
2345 8 7264 7265 7271
2346 9 7263 7266 7272
2347 10 7266 7263 7267
2348 11 7267 7263 7268
2349 12 7265 7264 7269
2350 13 7265 7264 7270
2351 14 7266 7263 7268
2352 15 7269 7264 7270
2353 2 7273 7274 7275
2354 3 7274 7273 7276
2355 4 7274 7273 7277
2356 5 7274 7273 7278
2357 6 7273 7274 7279
2358 7 7273 7274 7280
2359 8 7274 7275 7281
2360 9 7273 7276 7282
2361 10 7276 7273 7277
2362 11 7277 7273 7278
2363 12 7275 7274 7279
2364 13 7275 7274 7280
2365 14 7276 7273 7278
2366 15 7279 7274 7280
2367 2 7283 7284 7285
2368 3 7284 7283 7286
2369 4 7284 7283 7287
2370 5 7284 7283 7288
2371 6 7283 7284 7289
2372 7 7283 7284 7290
2373 8 7284 7285 7291
2374 9 7283 7286 7292
2375 10 7286 7283 7287
2376 11 7287 7283 7288
2377 12 7285 7284 7289
2378 13 7285 7284 7290
2379 14 7286 7283 7288
2380 15 7289 7284 7290
2381 2 7293 7294 7295
2382 3 7294 7293 7296
2383 4 7294 7293 7297
2384 5 7294 7293 7298
2385 6 7293 7294 7299
2386 7 7293 7294 7300
2387 8 7294 7295 7301
2388 9 7293 7296 7302
2389 10 7296 7293 7297
2390 11 7297 7293 7298
2391 12 7295 7294 7299
2392 13 7295 7294 7300
2393 14 7296 7293 7298
2394 15 7299 7294 7300
2395 2 7303 7304 7305
2396 3 7304 7303 7306
2397 4 7304 7303 7307
2398 5 7304 7303 7308
2399 6 7303 7304 7309
2400 7 7303 7304 7310
2401 8 7304 7305 7311
2402 9 7303 7306 7312
2403 10 7306 7303 7307
2404 11 7307 7303 7308
2405 12 7305 7304 7309
2406 13 7305 7304 7310
2407 14 7306 7303 7308
2408 15 7309 7304 7310
2409 2 7313 7314 7315
2410 3 7314 7313 7316
2411 4 7314 7313 7317
2412 5 7314 7313 7318
2413 6 7313 7314 7319
2414 7 7313 7314 7320
2415 8 7314 7315 7321
2416 9 7313 7316 7322
2417 10 7316 7313 7317
2418 11 7317 7313 7318
2419 12 7315 7314 7319
2420 13 7315 7314 7320
2421 14 7316 7313 7318
2422 15 7319 7314 7320
2423 2 7323 7324 7325
2424 3 7324 7323 7326
2425 4 7324 7323 7327
2426 5 7324 7323 7328
2427 6 7323 7324 7329
2428 7 7323 7324 7330
2429 8 7324 7325 7331
2430 9 7323 7326 7332
2431 10 7326 7323 7327
2432 11 7327 7323 7328
2433 12 7325 7324 7329
2434 13 7325 7324 7330
2435 14 7326 7323 7328
2436 15 7329 7324 7330
2437 2 7333 7334 7335
2438 3 7334 7333 7336
2439 4 7334 7333 7337
2440 5 7334 7333 7338
2441 6 7333 7334 7339
2442 7 7333 7334 7340
2443 8 7334 7335 7341
2444 9 7333 7336 7342
2445 10 7336 7333 7337
2446 11 7337 7333 7338
2447 12 7335 7334 7339
2448 13 7335 7334 7340
2449 14 7336 7333 7338
2450 15 7339 7334 7340
2451 2 7343 7344 7345
2452 3 7344 7343 7346
2453 4 7344 7343 7347
2454 5 7344 7343 7348
2455 6 7343 7344 7349
2456 7 7343 7344 7350
2457 8 7344 7345 7351
2458 9 7343 7346 7352
2459 10 7346 7343 7347
2460 11 7347 7343 7348
2461 12 7345 7344 7349
2462 13 7345 7344 7350
2463 14 7346 7343 7348
2464 15 7349 7344 7350
2465 2 7353 7354 7355
2466 3 7354 7353 7356
2467 4 7354 7353 7357
2468 5 7354 7353 7358
2469 6 7353 7354 7359
2470 7 7353 7354 7360
2471 8 7354 7355 7361
2472 9 7353 7356 7362
2473 10 7356 7353 7357
2474 11 7357 7353 7358
2475 12 7355 7354 7359
2476 13 7355 7354 7360
2477 14 7356 7353 7358
2478 15 7359 7354 7360
2479 2 7363 7364 7365
2480 3 7364 7363 7366
2481 4 7364 7363 7367
2482 5 7364 7363 7368
2483 6 7363 7364 7369
2484 7 7363 7364 7370
2485 8 7364 7365 7371
2486 9 7363 7366 7372
2487 10 7366 7363 7367
2488 11 7367 7363 7368
2489 12 7365 7364 7369
2490 13 7365 7364 7370
2491 14 7366 7363 7368
2492 15 7369 7364 7370
2493 2 7373 7374 7375
2494 3 7374 7373 7376
2495 4 7374 7373 7377
2496 5 7374 7373 7378
2497 6 7373 7374 7379
2498 7 7373 7374 7380
2499 8 7374 7375 7381
2500 9 7373 7376 7382
2501 10 7376 7373 7377
2502 11 7377 7373 7378
2503 12 7375 7374 7379
2504 13 7375 7374 7380
2505 14 7376 7373 7378
2506 15 7379 7374 7380
2507 2 7383 7384 7385
2508 3 7384 7383 7386
2509 4 7384 7383 7387
2510 5 7384 7383 7388
2511 6 7383 7384 7389
2512 7 7383 7384 7390
2513 8 7384 7385 7391
2514 9 7383 7386 7392
2515 10 7386 7383 7387
2516 11 7387 7383 7388
2517 12 7385 7384 7389
2518 13 7385 7384 7390
2519 14 7386 7383 7388
2520 15 7389 7384 7390
2521 2 7393 7394 7395
2522 3 7394 7393 7396
2523 4 7394 7393 7397
2524 5 7394 7393 7398
2525 6 7393 7394 7399
2526 7 7393 7394 7400
2527 8 7394 7395 7401
2528 9 7393 7396 7402
2529 10 7396 7393 7397
2530 11 7397 7393 7398
2531 12 7395 7394 7399
2532 13 7395 7394 7400
2533 14 7396 7393 7398
2534 15 7399 7394 7400
2535 2 7403 7404 7405
2536 3 7404 7403 7406
2537 4 7404 7403 7407
2538 5 7404 7403 7408
2539 6 7403 7404 7409
2540 7 7403 7404 7410
2541 8 7404 7405 7411
2542 9 7403 7406 7412
2543 10 7406 7403 7407
2544 11 7407 7403 7408
2545 12 7405 7404 7409
2546 13 7405 7404 7410
2547 14 7406 7403 7408
2548 15 7409 7404 7410
2549 2 7413 7414 7415
2550 3 7414 7413 7416
2551 4 7414 7413 7417
2552 5 7414 7413 7418
2553 6 7413 7414 7419
2554 7 7413 7414 7420
2555 8 7414 7415 7421
2556 9 7413 7416 7422
2557 10 7416 7413 7417
2558 11 7417 7413 7418
2559 12 7415 7414 7419
2560 13 7415 7414 7420
2561 14 7416 7413 7418
2562 15 7419 7414 7420
2563 2 7423 7424 7425
2564 3 7424 7423 7426
2565 4 7424 7423 7427
2566 5 7424 7423 7428
2567 6 7423 7424 7429
2568 7 7423 7424 7430
2569 8 7424 7425 7431
2570 9 7423 7426 7432
2571 10 7426 7423 7427
2572 11 7427 7423 7428
2573 12 7425 7424 7429
2574 13 7425 7424 7430
2575 14 7426 7423 7428
2576 15 7429 7424 7430
2577 2 7433 7434 7435
2578 3 7434 7433 7436
2579 4 7434 7433 7437
2580 5 7434 7433 7438
2581 6 7433 7434 7439
2582 7 7433 7434 7440
2583 8 7434 7435 7441
2584 9 7433 7436 7442
2585 10 7436 7433 7437
2586 11 7437 7433 7438
2587 12 7435 7434 7439
2588 13 7435 7434 7440
2589 14 7436 7433 7438
2590 15 7439 7434 7440
2591 2 7443 7444 7445
2592 3 7444 7443 7446
2593 4 7444 7443 7447
2594 5 7444 7443 7448
2595 6 7443 7444 7449
2596 7 7443 7444 7450
2597 8 7444 7445 7451
2598 9 7443 7446 7452
2599 10 7446 7443 7447
2600 11 7447 7443 7448
2601 12 7445 7444 7449
2602 13 7445 7444 7450
2603 14 7446 7443 7448
2604 15 7449 7444 7450
2605 2 7453 7454 7455
2606 3 7454 7453 7456
2607 4 7454 7453 7457
2608 5 7454 7453 7458
2609 6 7453 7454 7459
2610 7 7453 7454 7460
2611 8 7454 7455 7461
2612 9 7453 7456 7462
2613 10 7456 7453 7457
2614 11 7457 7453 7458
2615 12 7455 7454 7459
2616 13 7455 7454 7460
2617 14 7456 7453 7458
2618 15 7459 7454 7460
2619 2 7463 7464 7465
2620 3 7464 7463 7466
2621 4 7464 7463 7467
2622 5 7464 7463 7468
2623 6 7463 7464 7469
2624 7 7463 7464 7470
2625 8 7464 7465 7471
2626 9 7463 7466 7472
2627 10 7466 7463 7467
2628 11 7467 7463 7468
2629 12 7465 7464 7469
2630 13 7465 7464 7470
2631 14 7466 7463 7468
2632 15 7469 7464 7470
2633 2 7473 7474 7475
2634 3 7474 7473 7476
2635 4 7474 7473 7477
2636 5 7474 7473 7478
2637 6 7473 7474 7479
2638 7 7473 7474 7480
2639 8 7474 7475 7481
2640 9 7473 7476 7482
2641 10 7476 7473 7477
2642 11 7477 7473 7478
2643 12 7475 7474 7479
2644 13 7475 7474 7480
2645 14 7476 7473 7478
2646 15 7479 7474 7480
2647 2 7483 7484 7485
2648 3 7484 7483 7486
2649 4 7484 7483 7487
2650 5 7484 7483 7488
2651 6 7483 7484 7489
2652 7 7483 7484 7490
2653 8 7484 7485 7491
2654 9 7483 7486 7492
2655 10 7486 7483 7487
2656 11 7487 7483 7488
2657 12 7485 7484 7489
2658 13 7485 7484 7490
2659 14 7486 7483 7488
2660 15 7489 7484 7490
2661 2 7493 7494 7495
2662 3 7494 7493 7496
2663 4 7494 7493 7497
2664 5 7494 7493 7498
2665 6 7493 7494 7499
2666 7 7493 7494 7500
2667 8 7494 7495 7501
2668 9 7493 7496 7502
2669 10 7496 7493 7497
2670 11 7497 7493 7498
2671 12 7495 7494 7499
2672 13 7495 7494 7500
2673 14 7496 7493 7498
2674 15 7499 7494 7500
2675 2 7503 7504 7505
2676 3 7504 7503 7506
2677 4 7504 7503 7507
2678 5 7504 7503 7508
2679 6 7503 7504 7509
2680 7 7503 7504 7510
2681 8 7504 7505 7511
2682 9 7503 7506 7512
2683 10 7506 7503 7507
2684 11 7507 7503 7508
2685 12 7505 7504 7509
2686 13 7505 7504 7510
2687 14 7506 7503 7508
2688 15 7509 7504 7510
2689 2 7513 7514 7515
2690 3 7514 7513 7516
2691 4 7514 7513 7517
2692 5 7514 7513 7518
2693 6 7513 7514 7519
2694 7 7513 7514 7520
2695 8 7514 7515 7521
2696 9 7513 7516 7522
2697 10 7516 7513 7517
2698 11 7517 7513 7518
2699 12 7515 7514 7519
2700 13 7515 7514 7520
2701 14 7516 7513 7518
2702 15 7519 7514 7520
2703 2 7523 7524 7525
2704 3 7524 7523 7526
2705 4 7524 7523 7527
2706 5 7524 7523 7528
2707 6 7523 7524 7529
2708 7 7523 7524 7530
2709 8 7524 7525 7531
2710 9 7523 7526 7532
2711 10 7526 7523 7527
2712 11 7527 7523 7528
2713 12 7525 7524 7529
2714 13 7525 7524 7530
2715 14 7526 7523 7528
2716 15 7529 7524 7530
2717 2 7533 7534 7535
2718 3 7534 7533 7536
2719 4 7534 7533 7537
2720 5 7534 7533 7538
2721 6 7533 7534 7539
2722 7 7533 7534 7540
2723 8 7534 7535 7541
2724 9 7533 7536 7542
2725 10 7536 7533 7537
2726 11 7537 7533 7538
2727 12 7535 7534 7539
2728 13 7535 7534 7540
2729 14 7536 7533 7538
2730 15 7539 7534 7540
2731 2 7543 7544 7545
2732 3 7544 7543 7546
2733 4 7544 7543 7547
2734 5 7544 7543 7548
2735 6 7543 7544 7549
2736 7 7543 7544 7550
2737 8 7544 7545 7551
2738 9 7543 7546 7552
2739 10 7546 7543 7547
2740 11 7547 7543 7548
2741 12 7545 7544 7549
2742 13 7545 7544 7550
2743 14 7546 7543 7548
2744 15 7549 7544 7550
2745 2 7553 7554 7555
2746 3 7554 7553 7556
2747 4 7554 7553 7557
2748 5 7554 7553 7558
2749 6 7553 7554 7559
2750 7 7553 7554 7560
2751 8 7554 7555 7561
2752 9 7553 7556 7562
2753 10 7556 7553 7557
2754 11 7557 7553 7558
2755 12 7555 7554 7559
2756 13 7555 7554 7560
2757 14 7556 7553 7558
2758 15 7559 7554 7560
2759 2 7563 7564 7565
2760 3 7564 7563 7566
2761 4 7564 7563 7567
2762 5 7564 7563 7568
2763 6 7563 7564 7569
2764 7 7563 7564 7570
2765 8 7564 7565 7571
2766 9 7563 7566 7572
2767 10 7566 7563 7567
2768 11 7567 7563 7568
2769 12 7565 7564 7569
2770 13 7565 7564 7570
2771 14 7566 7563 7568
2772 15 7569 7564 7570
2773 2 7573 7574 7575
2774 3 7574 7573 7576
2775 4 7574 7573 7577
2776 5 7574 7573 7578
2777 6 7573 7574 7579
2778 7 7573 7574 7580
2779 8 7574 7575 7581
2780 9 7573 7576 7582
2781 10 7576 7573 7577
2782 11 7577 7573 7578
2783 12 7575 7574 7579
2784 13 7575 7574 7580
2785 14 7576 7573 7578
2786 15 7579 7574 7580
2787 2 7583 7584 7585
2788 3 7584 7583 7586
2789 4 7584 7583 7587
2790 5 7584 7583 7588
2791 6 7583 7584 7589
2792 7 7583 7584 7590
2793 8 7584 7585 7591
2794 9 7583 7586 7592
2795 10 7586 7583 7587
2796 11 7587 7583 7588
2797 12 7585 7584 7589
2798 13 7585 7584 7590
2799 14 7586 7583 7588
2800 15 7589 7584 7590
2801 2 7593 7594 7595
2802 3 7594 7593 7596
2803 4 7594 7593 7597
2804 5 7594 7593 7598
2805 6 7593 7594 7599
2806 7 7593 7594 7600
2807 8 7594 7595 7601
2808 9 7593 7596 7602
2809 10 7596 7593 7597
2810 11 7597 7593 7598
2811 12 7595 7594 7599
2812 13 7595 7594 7600
2813 14 7596 7593 7598
2814 15 7599 7594 7600
2815 2 7603 7604 7605
2816 3 7604 7603 7606
2817 4 7604 7603 7607
2818 5 7604 7603 7608
2819 6 7603 7604 7609
2820 7 7603 7604 7610
2821 8 7604 7605 7611
2822 9 7603 7606 7612
2823 10 7606 7603 7607
2824 11 7607 7603 7608
2825 12 7605 7604 7609
2826 13 7605 7604 7610
2827 14 7606 7603 7608
2828 15 7609 7604 7610
2829 2 7613 7614 7615
2830 3 7614 7613 7616
2831 4 7614 7613 7617
2832 5 7614 7613 7618
2833 6 7613 7614 7619
2834 7 7613 7614 7620
2835 8 7614 7615 7621
2836 9 7613 7616 7622
2837 10 7616 7613 7617
2838 11 7617 7613 7618
2839 12 7615 7614 7619
2840 13 7615 7614 7620
2841 14 7616 7613 7618
2842 15 7619 7614 7620
2843 2 7623 7624 7625
2844 3 7624 7623 7626
2845 4 7624 7623 7627
2846 5 7624 7623 7628
2847 6 7623 7624 7629
2848 7 7623 7624 7630
2849 8 7624 7625 7631
2850 9 7623 7626 7632
2851 10 7626 7623 7627
2852 11 7627 7623 7628
2853 12 7625 7624 7629
2854 13 7625 7624 7630
2855 14 7626 7623 7628
2856 15 7629 7624 7630
2857 2 7633 7634 7635
2858 3 7634 7633 7636
2859 4 7634 7633 7637
2860 5 7634 7633 7638
2861 6 7633 7634 7639
2862 7 7633 7634 7640
2863 8 7634 7635 7641
2864 9 7633 7636 7642
2865 10 7636 7633 7637
2866 11 7637 7633 7638
2867 12 7635 7634 7639
2868 13 7635 7634 7640
2869 14 7636 7633 7638
2870 15 7639 7634 7640
2871 2 7643 7644 7645
2872 3 7644 7643 7646
2873 4 7644 7643 7647
2874 5 7644 7643 7648
2875 6 7643 7644 7649
2876 7 7643 7644 7650
2877 8 7644 7645 7651
2878 9 7643 7646 7652
2879 10 7646 7643 7647
2880 11 7647 7643 7648
2881 12 7645 7644 7649
2882 13 7645 7644 7650
2883 14 7646 7643 7648
2884 15 7649 7644 7650
2885 2 7653 7654 7655
2886 3 7654 7653 7656
2887 4 7654 7653 7657
2888 5 7654 7653 7658
2889 6 7653 7654 7659
2890 7 7653 7654 7660
2891 8 7654 7655 7661
2892 9 7653 7656 7662
2893 10 7656 7653 7657
2894 11 7657 7653 7658
2895 12 7655 7654 7659
2896 13 7655 7654 7660
2897 14 7656 7653 7658
2898 15 7659 7654 7660
2899 2 7663 7664 7665
2900 3 7664 7663 7666
2901 4 7664 7663 7667
2902 5 7664 7663 7668
2903 6 7663 7664 7669
2904 7 7663 7664 7670
2905 8 7664 7665 7671
2906 9 7663 7666 7672
2907 10 7666 7663 7667
2908 11 7667 7663 7668
2909 12 7665 7664 7669
2910 13 7665 7664 7670
2911 14 7666 7663 7668
2912 15 7669 7664 7670
2913 2 7673 7674 7675
2914 3 7674 7673 7676
2915 4 7674 7673 7677
2916 5 7674 7673 7678
2917 6 7673 7674 7679
2918 7 7673 7674 7680
2919 8 7674 7675 7681
2920 9 7673 7676 7682
2921 10 7676 7673 7677
2922 11 7677 7673 7678
2923 12 7675 7674 7679
2924 13 7675 7674 7680
2925 14 7676 7673 7678
2926 15 7679 7674 7680
2927 16 7683 7684 7685
2928 17 7684 7685 7686
2929 18 7685 7686 7687
2930 19 7686 7687 7688
2931 20 7684 7685 7689
2932 21 7687 7688 7690
2933 22 7684 7683 7691
2934 23 7684 7683 7692
2935 24 7684 7683 7693
2936 25 7683 7684 7694
2937 26 7683 7684 7695
2938 27 7685 7686 7696
2939 28 7686 7687 7697
2940 29 7685 7689 7698
2941 30 7688 7690 7699
2942 31 7688 7690 7700
2943 32 7688 7690 7701
2944 33 7687 7686 7696
2945 34 7694 7684 7695
2946 35 7699 7690 7701
2947 36 7687 7688 7689
2948 37 7699 7690 7700
2949 38 7686 7685 7689
2950 39 7685 7689 7688
2951 40 7688 7687 7697
2952 41 7689 7688 7690
2953 42 7685 7684 7694
2954 43 7700 7690 7701
2955 44 7692 7683 7693
2956 45 7685 7684 7695
2957 46 7691 7683 7692
2958 47 7691 7683 7693
2959 48 7688 7689 7698
2960 49 7703 7704 7705
2961 50 7704 7705 7706
2962 51 7704 7703 7707
2963 52 7704 7705 7708
2964 53 7705 7708 7709
2965 54 7705 7708 7710
2966 55 7704 7703 7711
2967 56 7704 7703 7712
2968 57 7703 7704 7713
2969 58 7703 7704 7714
2970 59 7704 7705 7715
2971 60 7705 7706 7716
2972 61 7703 7707 7717
2973 62 7703 7707 7718
2974 63 7708 7710 7719
2975 64 7717 7707 7718
2976 65 7707 7706 7716
2977 66 7713 7704 7714
2978 67 7708 7705 7715
2979 68 7706 7707 7717
2980 69 7703 7707 7706
2981 70 7707 7703 7712
2982 71 7705 7704 7713
2983 72 7709 7708 7710
2984 73 7705 7704 7714
2985 74 7706 7707 7718
2986 75 7711 7703 7712
2987 76 7706 7705 7708
2988 77 7706 7705 7715
2989 78 7707 7703 7711
2990 79 7705 7706 7707
2991 49 7720 7721 7722
2992 50 7721 7722 7723
2993 51 7721 7720 7724
2994 52 7721 7722 7725
2995 53 7722 7725 7726
2996 54 7722 7725 7727
2997 55 7721 7720 7728
2998 56 7721 7720 7729
2999 57 7720 7721 7730
3000 58 7720 7721 7731
3001 59 7721 7722 7732
3002 60 7722 7723 7733
3003 61 7720 7724 7734
3004 62 7720 7724 7735
3005 63 7725 7727 7736
3006 64 7734 7724 7735
3007 65 7724 7723 7733
3008 66 7730 7721 7731
3009 67 7725 7722 7732
3010 68 7723 7724 7734
3011 69 7720 7724 7723
3012 70 7724 7720 7729
3013 71 7722 7721 7730
3014 72 7726 7725 7727
3015 73 7722 7721 7731
3016 74 7723 7724 7735
3017 75 7728 7720 7729
3018 76 7723 7722 7725
3019 77 7723 7722 7732
3020 78 7724 7720 7728
3021 79 7722 7723 7724
3022 49 7737 7738 7739
3023 50 7738 7739 7740
3024 51 7738 7737 7741
3025 52 7738 7739 7742
3026 53 7739 7742 7743
3027 54 7739 7742 7744
3028 55 7738 7737 7745
3029 56 7738 7737 7746
3030 57 7737 7738 7747
3031 58 7737 7738 7748
3032 59 7738 7739 7749
3033 60 7739 7740 7750
3034 61 7737 7741 7751
3035 62 7737 7741 7752
3036 63 7742 7744 7753
3037 64 7751 7741 7752
3038 65 7741 7740 7750
3039 66 7747 7738 7748
3040 67 7742 7739 7749
3041 68 7740 7741 7751
3042 69 7737 7741 7740
3043 70 7741 7737 7746
3044 71 7739 7738 7747
3045 72 7743 7742 7744
3046 73 7739 7738 7748
3047 74 7740 7741 7752
3048 75 7745 7737 7746
3049 76 7740 7739 7742
3050 77 7740 7739 7749
3051 78 7741 7737 7745
3052 79 7739 7740 7741
3053 49 7754 7755 7756
3054 50 7755 7756 7757
3055 51 7755 7754 7758
3056 52 7755 7756 7759
3057 53 7756 7759 7760
3058 54 7756 7759 7761
3059 55 7755 7754 7762
3060 56 7755 7754 7763
3061 57 7754 7755 7764
3062 58 7754 7755 7765
3063 59 7755 7756 7766
3064 60 7756 7757 7767
3065 61 7754 7758 7768
3066 62 7754 7758 7769
3067 63 7759 7761 7770
3068 64 7768 7758 7769
3069 65 7758 7757 7767
3070 66 7764 7755 7765
3071 67 7759 7756 7766
3072 68 7757 7758 7768
3073 69 7754 7758 7757
3074 70 7758 7754 7763
3075 71 7756 7755 7764
3076 72 7760 7759 7761
3077 73 7756 7755 7765
3078 74 7757 7758 7769
3079 75 7762 7754 7763
3080 76 7757 7756 7759
3081 77 7757 7756 7766
3082 78 7758 7754 7762
3083 79 7756 7757 7758
3084 49 7771 7772 7773
3085 50 7772 7773 7774
3086 51 7772 7771 7775
3087 52 7772 7773 7776
3088 53 7773 7776 7777
3089 54 7773 7776 7778
3090 55 7772 7771 7779
3091 56 7772 7771 7780
3092 57 7771 7772 7781
3093 58 7771 7772 7782
3094 59 7772 7773 7783
3095 60 7773 7774 7784
3096 61 7771 7775 7785
3097 62 7771 7775 7786
3098 63 7776 7778 7787
3099 64 7785 7775 7786
3100 65 7775 7774 7784
3101 66 7781 7772 7782
3102 67 7776 7773 7783
3103 68 7774 7775 7785
3104 69 7771 7775 7774
3105 70 7775 7771 7780
3106 71 7773 7772 7781
3107 72 7777 7776 7778
3108 73 7773 7772 7782
3109 74 7774 7775 7786
3110 75 7779 7771 7780
3111 76 7774 7773 7776
3112 77 7774 7773 7783
3113 78 7775 7771 7779
3114 79 7773 7774 7775
3115 49 7788 7789 7790
3116 50 7789 7790 7791
3117 51 7789 7788 7792
3118 52 7789 7790 7793
3119 53 7790 7793 7794
3120 54 7790 7793 7795
3121 55 7789 7788 7796
3122 56 7789 7788 7797
3123 57 7788 7789 7798
3124 58 7788 7789 7799
3125 59 7789 7790 7800
3126 60 7790 7791 7801
3127 61 7788 7792 7802
3128 62 7788 7792 7803
3129 63 7793 7795 7804
3130 64 7802 7792 7803
3131 65 7792 7791 7801
3132 66 7798 7789 7799
3133 67 7793 7790 7800
3134 68 7791 7792 7802
3135 69 7788 7792 7791
3136 70 7792 7788 7797
3137 71 7790 7789 7798
3138 72 7794 7793 7795
3139 73 7790 7789 7799
3140 74 7791 7792 7803
3141 75 7796 7788 7797
3142 76 7791 7790 7793
3143 77 7791 7790 7800
3144 78 7792 7788 7796
3145 79 7790 7791 7792
3146 49 7805 7806 7807
3147 50 7806 7807 7808
3148 51 7806 7805 7809
3149 52 7806 7807 7810
3150 53 7807 7810 7811
3151 54 7807 7810 7812
3152 55 7806 7805 7813
3153 56 7806 7805 7814
3154 57 7805 7806 7815
3155 58 7805 7806 7816
3156 59 7806 7807 7817
3157 60 7807 7808 7818
3158 61 7805 7809 7819
3159 62 7805 7809 7820
3160 63 7810 7812 7821
3161 64 7819 7809 7820
3162 65 7809 7808 7818
3163 66 7815 7806 7816
3164 67 7810 7807 7817
3165 68 7808 7809 7819
3166 69 7805 7809 7808
3167 70 7809 7805 7814
3168 71 7807 7806 7815
3169 72 7811 7810 7812
3170 73 7807 7806 7816
3171 74 7808 7809 7820
3172 75 7813 7805 7814
3173 76 7808 7807 7810
3174 77 7808 7807 7817
3175 78 7809 7805 7813
3176 79 7807 7808 7809
3177 49 7822 7823 7824
3178 50 7823 7824 7825
3179 51 7823 7822 7826
3180 52 7823 7824 7827
3181 53 7824 7827 7828
3182 54 7824 7827 7829
3183 55 7823 7822 7830
3184 56 7823 7822 7831
3185 57 7822 7823 7832
3186 58 7822 7823 7833
3187 59 7823 7824 7834
3188 60 7824 7825 7835
3189 61 7822 7826 7836
3190 62 7822 7826 7837
3191 63 7827 7829 7838
3192 64 7836 7826 7837
3193 65 7826 7825 7835
3194 66 7832 7823 7833
3195 67 7827 7824 7834
3196 68 7825 7826 7836
3197 69 7822 7826 7825
3198 70 7826 7822 7831
3199 71 7824 7823 7832
3200 72 7828 7827 7829
3201 73 7824 7823 7833
3202 74 7825 7826 7837
3203 75 7830 7822 7831
3204 76 7825 7824 7827
3205 77 7825 7824 7834
3206 78 7826 7822 7830
3207 79 7824 7825 7826
3208 49 7839 7840 7841
3209 50 7840 7841 7842
3210 51 7840 7839 7843
3211 52 7840 7841 7844
3212 53 7841 7844 7845
3213 54 7841 7844 7846
3214 55 7840 7839 7847
3215 56 7840 7839 7848
3216 57 7839 7840 7849
3217 58 7839 7840 7850
3218 59 7840 7841 7851
3219 60 7841 7842 7852
3220 61 7839 7843 7853
3221 62 7839 7843 7854
3222 63 7844 7846 7855
3223 64 7853 7843 7854
3224 65 7843 7842 7852
3225 66 7849 7840 7850
3226 67 7844 7841 7851
3227 68 7842 7843 7853
3228 69 7839 7843 7842
3229 70 7843 7839 7848
3230 71 7841 7840 7849
3231 72 7845 7844 7846
3232 73 7841 7840 7850
3233 74 7842 7843 7854
3234 75 7847 7839 7848
3235 76 7842 7841 7844
3236 77 7842 7841 7851
3237 78 7843 7839 7847
3238 79 7841 7842 7843
3239 49 7856 7857 7858
3240 50 7857 7858 7859
3241 51 7857 7856 7860
3242 52 7857 7858 7861
3243 53 7858 7861 7862
3244 54 7858 7861 7863
3245 55 7857 7856 7864
3246 56 7857 7856 7865
3247 57 7856 7857 7866
3248 58 7856 7857 7867
3249 59 7857 7858 7868
3250 60 7858 7859 7869
3251 61 7856 7860 7870
3252 62 7856 7860 7871
3253 63 7861 7863 7872
3254 64 7870 7860 7871
3255 65 7860 7859 7869
3256 66 7866 7857 7867
3257 67 7861 7858 7868
3258 68 7859 7860 7870
3259 69 7856 7860 7859
3260 70 7860 7856 7865
3261 71 7858 7857 7866
3262 72 7862 7861 7863
3263 73 7858 7857 7867
3264 74 7859 7860 7871
3265 75 7864 7856 7865
3266 76 7859 7858 7861
3267 77 7859 7858 7868
3268 78 7860 7856 7864
3269 79 7858 7859 7860
3270 49 7873 7874 7875
3271 50 7874 7875 7876
3272 51 7874 7873 7877
3273 52 7874 7875 7878
3274 53 7875 7878 7879
3275 54 7875 7878 7880
3276 55 7874 7873 7881
3277 56 7874 7873 7882
3278 57 7873 7874 7883
3279 58 7873 7874 7884
3280 59 7874 7875 7885
3281 60 7875 7876 7886
3282 61 7873 7877 7887
3283 62 7873 7877 7888
3284 63 7878 7880 7889
3285 64 7887 7877 7888
3286 65 7877 7876 7886
3287 66 7883 7874 7884
3288 67 7878 7875 7885
3289 68 7876 7877 7887
3290 69 7873 7877 7876
3291 70 7877 7873 7882
3292 71 7875 7874 7883
3293 72 7879 7878 7880
3294 73 7875 7874 7884
3295 74 7876 7877 7888
3296 75 7881 7873 7882
3297 76 7876 7875 7878
3298 77 7876 7875 7885
3299 78 7877 7873 7881
3300 79 7875 7876 7877
3301 49 7890 7891 7892
3302 50 7891 7892 7893
3303 51 7891 7890 7894
3304 52 7891 7892 7895
3305 53 7892 7895 7896
3306 54 7892 7895 7897
3307 55 7891 7890 7898
3308 56 7891 7890 7899
3309 57 7890 7891 7900
3310 58 7890 7891 7901
3311 59 7891 7892 7902
3312 60 7892 7893 7903
3313 61 7890 7894 7904
3314 62 7890 7894 7905
3315 63 7895 7897 7906
3316 64 7904 7894 7905
3317 65 7894 7893 7903
3318 66 7900 7891 7901
3319 67 7895 7892 7902
3320 68 7893 7894 7904
3321 69 7890 7894 7893
3322 70 7894 7890 7899
3323 71 7892 7891 7900
3324 72 7896 7895 7897
3325 73 7892 7891 7901
3326 74 7893 7894 7905
3327 75 7898 7890 7899
3328 76 7893 7892 7895
3329 77 7893 7892 7902
3330 78 7894 7890 7898
3331 79 7892 7893 7894
3332 49 7907 7908 7909
3333 50 7908 7909 7910
3334 51 7908 7907 7911
3335 52 7908 7909 7912
3336 53 7909 7912 7913
3337 54 7909 7912 7914
3338 55 7908 7907 7915
3339 56 7908 7907 7916
3340 57 7907 7908 7917
3341 58 7907 7908 7918
3342 59 7908 7909 7919
3343 60 7909 7910 7920
3344 61 7907 7911 7921
3345 62 7907 7911 7922
3346 63 7912 7914 7923
3347 64 7921 7911 7922
3348 65 7911 7910 7920
3349 66 7917 7908 7918
3350 67 7912 7909 7919
3351 68 7910 7911 7921
3352 69 7907 7911 7910
3353 70 7911 7907 7916
3354 71 7909 7908 7917
3355 72 7913 7912 7914
3356 73 7909 7908 7918
3357 74 7910 7911 7922
3358 75 7915 7907 7916
3359 76 7910 7909 7912
3360 77 7910 7909 7919
3361 78 7911 7907 7915
3362 79 7909 7910 7911
3363 49 7924 7925 7926
3364 50 7925 7926 7927
3365 51 7925 7924 7928
3366 52 7925 7926 7929
3367 53 7926 7929 7930
3368 54 7926 7929 7931
3369 55 7925 7924 7932
3370 56 7925 7924 7933
3371 57 7924 7925 7934
3372 58 7924 7925 7935
3373 59 7925 7926 7936
3374 60 7926 7927 7937
3375 61 7924 7928 7938
3376 62 7924 7928 7939
3377 63 7929 7931 7940
3378 64 7938 7928 7939
3379 65 7928 7927 7937
3380 66 7934 7925 7935
3381 67 7929 7926 7936
3382 68 7927 7928 7938
3383 69 7924 7928 7927
3384 70 7928 7924 7933
3385 71 7926 7925 7934
3386 72 7930 7929 7931
3387 73 7926 7925 7935
3388 74 7927 7928 7939
3389 75 7932 7924 7933
3390 76 7927 7926 7929
3391 77 7927 7926 7936
3392 78 7928 7924 7932
3393 79 7926 7927 7928
3394 49 7941 7942 7943
3395 50 7942 7943 7944
3396 51 7942 7941 7945
3397 52 7942 7943 7946
3398 53 7943 7946 7947
3399 54 7943 7946 7948
3400 55 7942 7941 7949
3401 56 7942 7941 7950
3402 57 7941 7942 7951
3403 58 7941 7942 7952
3404 59 7942 7943 7953
3405 60 7943 7944 7954
3406 61 7941 7945 7955
3407 62 7941 7945 7956
3408 63 7946 7948 7957
3409 64 7955 7945 7956
3410 65 7945 7944 7954
3411 66 7951 7942 7952
3412 67 7946 7943 7953
3413 68 7944 7945 7955
3414 69 7941 7945 7944
3415 70 7945 7941 7950
3416 71 7943 7942 7951
3417 72 7947 7946 7948
3418 73 7943 7942 7952
3419 74 7944 7945 7956
3420 75 7949 7941 7950
3421 76 7944 7943 7946
3422 77 7944 7943 7953
3423 78 7945 7941 7949
3424 79 7943 7944 7945
3425 49 7958 7959 7960
3426 50 7959 7960 7961
3427 51 7959 7958 7962
3428 52 7959 7960 7963
3429 53 7960 7963 7964
3430 54 7960 7963 7965
3431 55 7959 7958 7966
3432 56 7959 7958 7967
3433 57 7958 7959 7968
3434 58 7958 7959 7969
3435 59 7959 7960 7970
3436 60 7960 7961 7971
3437 61 7958 7962 7972
3438 62 7958 7962 7973
3439 63 7963 7965 7974
3440 64 7972 7962 7973
3441 65 7962 7961 7971
3442 66 7968 7959 7969
3443 67 7963 7960 7970
3444 68 7961 7962 7972
3445 69 7958 7962 7961
3446 70 7962 7958 7967
3447 71 7960 7959 7968
3448 72 7964 7963 7965
3449 73 7960 7959 7969
3450 74 7961 7962 7973
3451 75 7966 7958 7967
3452 76 7961 7960 7963
3453 77 7961 7960 7970
3454 78 7962 7958 7966
3455 79 7960 7961 7962
3456 49 7975 7976 7977
3457 50 7976 7977 7978
3458 51 7976 7975 7979
3459 52 7976 7977 7980
3460 53 7977 7980 7981
3461 54 7977 7980 7982
3462 55 7976 7975 7983
3463 56 7976 7975 7984
3464 57 7975 7976 7985
3465 58 7975 7976 7986
3466 59 7976 7977 7987
3467 60 7977 7978 7988
3468 61 7975 7979 7989
3469 62 7975 7979 7990
3470 63 7980 7982 7991
3471 64 7989 7979 7990
3472 65 7979 7978 7988
3473 66 7985 7976 7986
3474 67 7980 7977 7987
3475 68 7978 7979 7989
3476 69 7975 7979 7978
3477 70 7979 7975 7984
3478 71 7977 7976 7985
3479 72 7981 7980 7982
3480 73 7977 7976 7986
3481 74 7978 7979 7990
3482 75 7983 7975 7984
3483 76 7978 7977 7980
3484 77 7978 7977 7987
3485 78 7979 7975 7983
3486 79 7977 7978 7979
3487 49 7992 7993 7994
3488 50 7993 7994 7995
3489 51 7993 7992 7996
3490 52 7993 7994 7997
3491 53 7994 7997 7998
3492 54 7994 7997 7999
3493 55 7993 7992 8000
3494 56 7993 7992 8001
3495 57 7992 7993 8002
3496 58 7992 7993 8003
3497 59 7993 7994 8004
3498 60 7994 7995 8005
3499 61 7992 7996 8006
3500 62 7992 7996 8007
3501 63 7997 7999 8008
3502 64 8006 7996 8007
3503 65 7996 7995 8005
3504 66 8002 7993 8003
3505 67 7997 7994 8004
3506 68 7995 7996 8006
3507 69 7992 7996 7995
3508 70 7996 7992 8001
3509 71 7994 7993 8002
3510 72 7998 7997 7999
3511 73 7994 7993 8003
3512 74 7995 7996 8007
3513 75 8000 7992 8001
3514 76 7995 7994 7997
3515 77 7995 7994 8004
3516 78 7996 7992 8000
3517 79 7994 7995 7996

Dihedrals

1 1 7205 7204 7203 7206
2 2 7203 7204 7205 7211
3 3 7204 7203 7206 7212
4 4 7205 7204 7203 7207
5 5 7208 7203 7204 7210
6 6 7207 7203 7206 7212
7 7 7210 7204 7205 7211
8 8 7209 7204 7205 7211
9 9 7207 7203 7204 7209
10 10 7208 7203 7204 7209
11 11 7206 7203 7204 7210
12 12 7208 7203 7206 7212
13 13 7207 7203 7204 7210
14 14 7205 7204 7203 7208
15 15 7206 7203 7204 7209
16 1 7215 7214 7213 7216
17 2 7213 7214 7215 7221
18 3 7214 7213 7216 7222
19 4 7215 7214 7213 7217
20 5 7218 7213 7214 7220
21 6 7217 7213 7216 7222
22 7 7220 7214 7215 7221
23 8 7219 7214 7215 7221
24 9 7217 7213 7214 7219
25 10 7218 7213 7214 7219
26 11 7216 7213 7214 7220
27 12 7218 7213 7216 7222
28 13 7217 7213 7214 7220
29 14 7215 7214 7213 7218
30 15 7216 7213 7214 7219
31 1 7225 7224 7223 7226
32 2 7223 7224 7225 7231
33 3 7224 7223 7226 7232
34 4 7225 7224 7223 7227
35 5 7228 7223 7224 7230
36 6 7227 7223 7226 7232
37 7 7230 7224 7225 7231
38 8 7229 7224 7225 7231
39 9 7227 7223 7224 7229
40 10 7228 7223 7224 7229
41 11 7226 7223 7224 7230
42 12 7228 7223 7226 7232
43 13 7227 7223 7224 7230
44 14 7225 7224 7223 7228
45 15 7226 7223 7224 7229
46 1 7235 7234 7233 7236
47 2 7233 7234 7235 7241
48 3 7234 7233 7236 7242
49 4 7235 7234 7233 7237
50 5 7238 7233 7234 7240
51 6 7237 7233 7236 7242
52 7 7240 7234 7235 7241
53 8 7239 7234 7235 7241
54 9 7237 7233 7234 7239
55 10 7238 7233 7234 7239
56 11 7236 7233 7234 7240
57 12 7238 7233 7236 7242
58 13 7237 7233 7234 7240
59 14 7235 7234 7233 7238
60 15 7236 7233 7234 7239
61 1 7245 7244 7243 7246
62 2 7243 7244 7245 7251
63 3 7244 7243 7246 7252
64 4 7245 7244 7243 7247
65 5 7248 7243 7244 7250
66 6 7247 7243 7246 7252
67 7 7250 7244 7245 7251
68 8 7249 7244 7245 7251
69 9 7247 7243 7244 7249
70 10 7248 7243 7244 7249
71 11 7246 7243 7244 7250
72 12 7248 7243 7246 7252
73 13 7247 7243 7244 7250
74 14 7245 7244 7243 7248
75 15 7246 7243 7244 7249
76 1 7255 7254 7253 7256
77 2 7253 7254 7255 7261
78 3 7254 7253 7256 7262
79 4 7255 7254 7253 7257
80 5 7258 7253 7254 7260
81 6 7257 7253 7256 7262
82 7 7260 7254 7255 7261
83 8 7259 7254 7255 7261
84 9 7257 7253 7254 7259
85 10 7258 7253 7254 7259
86 11 7256 7253 7254 7260
87 12 7258 7253 7256 7262
88 13 7257 7253 7254 7260
89 14 7255 7254 7253 7258
90 15 7256 7253 7254 7259
91 1 7265 7264 7263 7266
92 2 7263 7264 7265 7271
93 3 7264 7263 7266 7272
94 4 7265 7264 7263 7267
95 5 7268 7263 7264 7270
96 6 7267 7263 7266 7272
97 7 7270 7264 7265 7271
98 8 7269 7264 7265 7271
99 9 7267 7263 7264 7269
100 10 7268 7263 7264 7269
101 11 7266 7263 7264 7270
102 12 7268 7263 7266 7272
103 13 7267 7263 7264 7270
104 14 7265 7264 7263 7268
105 15 7266 7263 7264 7269
106 1 7275 7274 7273 7276
107 2 7273 7274 7275 7281
108 3 7274 7273 7276 7282
109 4 7275 7274 7273 7277
110 5 7278 7273 7274 7280
111 6 7277 7273 7276 7282
112 7 7280 7274 7275 7281
113 8 7279 7274 7275 7281
114 9 7277 7273 7274 7279
115 10 7278 7273 7274 7279
116 11 7276 7273 7274 7280
117 12 7278 7273 7276 7282
118 13 7277 7273 7274 7280
119 14 7275 7274 7273 7278
120 15 7276 7273 7274 7279
121 1 7285 7284 7283 7286
122 2 7283 7284 7285 7291
123 3 7284 7283 7286 7292
124 4 7285 7284 7283 7287
125 5 7288 7283 7284 7290
126 6 7287 7283 7286 7292
127 7 7290 7284 7285 7291
128 8 7289 7284 7285 7291
129 9 7287 7283 7284 7289
130 10 7288 7283 7284 7289
131 11 7286 7283 7284 7290
132 12 7288 7283 7286 7292
133 13 7287 7283 7284 7290
134 14 7285 7284 7283 7288
135 15 7286 7283 7284 7289
136 1 7295 7294 7293 7296
137 2 7293 7294 7295 7301
138 3 7294 7293 7296 7302
139 4 7295 7294 7293 7297
140 5 7298 7293 7294 7300
141 6 7297 7293 7296 7302
142 7 7300 7294 7295 7301
143 8 7299 7294 7295 7301
144 9 7297 7293 7294 7299
145 10 7298 7293 7294 7299
146 11 7296 7293 7294 7300
147 12 7298 7293 7296 7302
148 13 7297 7293 7294 7300
149 14 7295 7294 7293 7298
150 15 7296 7293 7294 7299
151 1 7305 7304 7303 7306
152 2 7303 7304 7305 7311
153 3 7304 7303 7306 7312
154 4 7305 7304 7303 7307
155 5 7308 7303 7304 7310
156 6 7307 7303 7306 7312
157 7 7310 7304 7305 7311
158 8 7309 7304 7305 7311
159 9 7307 7303 7304 7309
160 10 7308 7303 7304 7309
161 11 7306 7303 7304 7310
162 12 7308 7303 7306 7312
163 13 7307 7303 7304 7310
164 14 7305 7304 7303 7308
165 15 7306 7303 7304 7309
166 1 7315 7314 7313 7316
167 2 7313 7314 7315 7321
168 3 7314 7313 7316 7322
169 4 7315 7314 7313 7317
170 5 7318 7313 7314 7320
171 6 7317 7313 7316 7322
172 7 7320 7314 7315 7321
173 8 7319 7314 7315 7321
174 9 7317 7313 7314 7319
175 10 7318 7313 7314 7319
176 11 7316 7313 7314 7320
177 12 7318 7313 7316 7322
178 13 7317 7313 7314 7320
179 14 7315 7314 7313 7318
180 15 7316 7313 7314 7319
181 1 7325 7324 7323 7326
182 2 7323 7324 7325 7331
183 3 7324 7323 7326 7332
184 4 7325 7324 7323 7327
185 5 7328 7323 7324 7330
186 6 7327 7323 7326 7332
187 7 7330 7324 7325 7331
188 8 7329 7324 7325 7331
189 9 7327 7323 7324 7329
190 10 7328 7323 7324 7329
191 11 7326 7323 7324 7330
192 12 7328 7323 7326 7332
193 13 7327 7323 7324 7330
194 14 7325 7324 7323 7328
195 15 7326 7323 7324 7329
196 1 7335 7334 7333 7336
197 2 7333 7334 7335 7341
198 3 7334 7333 7336 7342
199 4 7335 7334 7333 7337
200 5 7338 7333 7334 7340
201 6 7337 7333 7336 7342
202 7 7340 7334 7335 7341
203 8 7339 7334 7335 7341
204 9 7337 7333 7334 7339
205 10 7338 7333 7334 7339
206 11 7336 7333 7334 7340
207 12 7338 7333 7336 7342
208 13 7337 7333 7334 7340
209 14 7335 7334 7333 7338
210 15 7336 7333 7334 7339
211 1 7345 7344 7343 7346
212 2 7343 7344 7345 7351
213 3 7344 7343 7346 7352
214 4 7345 7344 7343 7347
215 5 7348 7343 7344 7350
216 6 7347 7343 7346 7352
217 7 7350 7344 7345 7351
218 8 7349 7344 7345 7351
219 9 7347 7343 7344 7349
220 10 7348 7343 7344 7349
221 11 7346 7343 7344 7350
222 12 7348 7343 7346 7352
223 13 7347 7343 7344 7350
224 14 7345 7344 7343 7348
225 15 7346 7343 7344 7349
226 1 7355 7354 7353 7356
227 2 7353 7354 7355 7361
228 3 7354 7353 7356 7362
229 4 7355 7354 7353 7357
230 5 7358 7353 7354 7360
231 6 7357 7353 7356 7362
232 7 7360 7354 7355 7361
233 8 7359 7354 7355 7361
234 9 7357 7353 7354 7359
235 10 7358 7353 7354 7359
236 11 7356 7353 7354 7360
237 12 7358 7353 7356 7362
238 13 7357 7353 7354 7360
239 14 7355 7354 7353 7358
240 15 7356 7353 7354 7359
241 1 7365 7364 7363 7366
242 2 7363 7364 7365 7371
243 3 7364 7363 7366 7372
244 4 7365 7364 7363 7367
245 5 7368 7363 7364 7370
246 6 7367 7363 7366 7372
247 7 7370 7364 7365 7371
248 8 7369 7364 7365 7371
249 9 7367 7363 7364 7369
250 10 7368 7363 7364 7369
251 11 7366 7363 7364 7370
252 12 7368 7363 7366 7372
253 13 7367 7363 7364 7370
254 14 7365 7364 7363 7368
255 15 7366 7363 7364 7369
256 1 7375 7374 7373 7376
257 2 7373 7374 7375 7381
258 3 7374 7373 7376 7382
259 4 7375 7374 7373 7377
260 5 7378 7373 7374 7380
261 6 7377 7373 7376 7382
262 7 7380 7374 7375 7381
263 8 7379 7374 7375 7381
264 9 7377 7373 7374 7379
265 10 7378 7373 7374 7379
266 11 7376 7373 7374 7380
267 12 7378 7373 7376 7382
268 13 7377 7373 7374 7380
269 14 7375 7374 7373 7378
270 15 7376 7373 7374 7379
271 1 7385 7384 7383 7386
272 2 7383 7384 7385 7391
273 3 7384 7383 7386 7392
274 4 7385 7384 7383 7387
275 5 7388 7383 7384 7390
276 6 7387 7383 7386 7392
277 7 7390 7384 7385 7391
278 8 7389 7384 7385 7391
279 9 7387 7383 7384 7389
280 10 7388 7383 7384 7389
281 11 7386 7383 7384 7390
282 12 7388 7383 7386 7392
283 13 7387 7383 7384 7390
284 14 7385 7384 7383 7388
285 15 7386 7383 7384 7389
286 1 7395 7394 7393 7396
287 2 7393 7394 7395 7401
288 3 7394 7393 7396 7402
289 4 7395 7394 7393 7397
290 5 7398 7393 7394 7400
291 6 7397 7393 7396 7402
292 7 7400 7394 7395 7401
293 8 7399 7394 7395 7401
294 9 7397 7393 7394 7399
295 10 7398 7393 7394 7399
296 11 7396 7393 7394 7400
297 12 7398 7393 7396 7402
298 13 7397 7393 7394 7400
299 14 7395 7394 7393 7398
300 15 7396 7393 7394 7399
301 1 7405 7404 7403 7406
302 2 7403 7404 7405 7411
303 3 7404 7403 7406 7412
304 4 7405 7404 7403 7407
305 5 7408 7403 7404 7410
306 6 7407 7403 7406 7412
307 7 7410 7404 7405 7411
308 8 7409 7404 7405 7411
309 9 7407 7403 7404 7409
310 10 7408 7403 7404 7409
311 11 7406 7403 7404 7410
312 12 7408 7403 7406 7412
313 13 7407 7403 7404 7410
314 14 7405 7404 7403 7408
315 15 7406 7403 7404 7409
316 1 7415 7414 7413 7416
317 2 7413 7414 7415 7421
318 3 7414 7413 7416 7422
319 4 7415 7414 7413 7417
320 5 7418 7413 7414 7420
321 6 7417 7413 7416 7422
322 7 7420 7414 7415 7421
323 8 7419 7414 7415 7421
324 9 7417 7413 7414 7419
325 10 7418 7413 7414 7419
326 11 7416 7413 7414 7420
327 12 7418 7413 7416 7422
328 13 7417 7413 7414 7420
329 14 7415 7414 7413 7418
330 15 7416 7413 7414 7419
331 1 7425 7424 7423 7426
332 2 7423 7424 7425 7431
333 3 7424 7423 7426 7432
334 4 7425 7424 7423 7427
335 5 7428 7423 7424 7430
336 6 7427 7423 7426 7432
337 7 7430 7424 7425 7431
338 8 7429 7424 7425 7431
339 9 7427 7423 7424 7429
340 10 7428 7423 7424 7429
341 11 7426 7423 7424 7430
342 12 7428 7423 7426 7432
343 13 7427 7423 7424 7430
344 14 7425 7424 7423 7428
345 15 7426 7423 7424 7429
346 1 7435 7434 7433 7436
347 2 7433 7434 7435 7441
348 3 7434 7433 7436 7442
349 4 7435 7434 7433 7437
350 5 7438 7433 7434 7440
351 6 7437 7433 7436 7442
352 7 7440 7434 7435 7441
353 8 7439 7434 7435 7441
354 9 7437 7433 7434 7439
355 10 7438 7433 7434 7439
356 11 7436 7433 7434 7440
357 12 7438 7433 7436 7442
358 13 7437 7433 7434 7440
359 14 7435 7434 7433 7438
360 15 7436 7433 7434 7439
361 1 7445 7444 7443 7446
362 2 7443 7444 7445 7451
363 3 7444 7443 7446 7452
364 4 7445 7444 7443 7447
365 5 7448 7443 7444 7450
366 6 7447 7443 7446 7452
367 7 7450 7444 7445 7451
368 8 7449 7444 7445 7451
369 9 7447 7443 7444 7449
370 10 7448 7443 7444 7449
371 11 7446 7443 7444 7450
372 12 7448 7443 7446 7452
373 13 7447 7443 7444 7450
374 14 7445 7444 7443 7448
375 15 7446 7443 7444 7449
376 1 7455 7454 7453 7456
377 2 7453 7454 7455 7461
378 3 7454 7453 7456 7462
379 4 7455 7454 7453 7457
380 5 7458 7453 7454 7460
381 6 7457 7453 7456 7462
382 7 7460 7454 7455 7461
383 8 7459 7454 7455 7461
384 9 7457 7453 7454 7459
385 10 7458 7453 7454 7459
386 11 7456 7453 7454 7460
387 12 7458 7453 7456 7462
388 13 7457 7453 7454 7460
389 14 7455 7454 7453 7458
390 15 7456 7453 7454 7459
391 1 7465 7464 7463 7466
392 2 7463 7464 7465 7471
393 3 7464 7463 7466 7472
394 4 7465 7464 7463 7467
395 5 7468 7463 7464 7470
396 6 7467 7463 7466 7472
397 7 7470 7464 7465 7471
398 8 7469 7464 7465 7471
399 9 7467 7463 7464 7469
400 10 7468 7463 7464 7469
401 11 7466 7463 7464 7470
402 12 7468 7463 7466 7472
403 13 7467 7463 7464 7470
404 14 7465 7464 7463 7468
405 15 7466 7463 7464 7469
406 1 7475 7474 7473 7476
407 2 7473 7474 7475 7481
408 3 7474 7473 7476 7482
409 4 7475 7474 7473 7477
410 5 7478 7473 7474 7480
411 6 7477 7473 7476 7482
412 7 7480 7474 7475 7481
413 8 7479 7474 7475 7481
414 9 7477 7473 7474 7479
415 10 7478 7473 7474 7479
416 11 7476 7473 7474 7480
417 12 7478 7473 7476 7482
418 13 7477 7473 7474 7480
419 14 7475 7474 7473 7478
420 15 7476 7473 7474 7479
421 1 7485 7484 7483 7486
422 2 7483 7484 7485 7491
423 3 7484 7483 7486 7492
424 4 7485 7484 7483 7487
425 5 7488 7483 7484 7490
426 6 7487 7483 7486 7492
427 7 7490 7484 7485 7491
428 8 7489 7484 7485 7491
429 9 7487 7483 7484 7489
430 10 7488 7483 7484 7489
431 11 7486 7483 7484 7490
432 12 7488 7483 7486 7492
433 13 7487 7483 7484 7490
434 14 7485 7484 7483 7488
435 15 7486 7483 7484 7489
436 1 7495 7494 7493 7496
437 2 7493 7494 7495 7501
438 3 7494 7493 7496 7502
439 4 7495 7494 7493 7497
440 5 7498 7493 7494 7500
441 6 7497 7493 7496 7502
442 7 7500 7494 7495 7501
443 8 7499 7494 7495 7501
444 9 7497 7493 7494 7499
445 10 7498 7493 7494 7499
446 11 7496 7493 7494 7500
447 12 7498 7493 7496 7502
448 13 7497 7493 7494 7500
449 14 7495 7494 7493 7498
450 15 7496 7493 7494 7499
451 1 7505 7504 7503 7506
452 2 7503 7504 7505 7511
453 3 7504 7503 7506 7512
454 4 7505 7504 7503 7507
455 5 7508 7503 7504 7510
456 6 7507 7503 7506 7512
457 7 7510 7504 7505 7511
458 8 7509 7504 7505 7511
459 9 7507 7503 7504 7509
460 10 7508 7503 7504 7509
461 11 7506 7503 7504 7510
462 12 7508 7503 7506 7512
463 13 7507 7503 7504 7510
464 14 7505 7504 7503 7508
465 15 7506 7503 7504 7509
466 1 7515 7514 7513 7516
467 2 7513 7514 7515 7521
468 3 7514 7513 7516 7522
469 4 7515 7514 7513 7517
470 5 7518 7513 7514 7520
471 6 7517 7513 7516 7522
472 7 7520 7514 7515 7521
473 8 7519 7514 7515 7521
474 9 7517 7513 7514 7519
475 10 7518 7513 7514 7519
476 11 7516 7513 7514 7520
477 12 7518 7513 7516 7522
478 13 7517 7513 7514 7520
479 14 7515 7514 7513 7518
480 15 7516 7513 7514 7519
481 1 7525 7524 7523 7526
482 2 7523 7524 7525 7531
483 3 7524 7523 7526 7532
484 4 7525 7524 7523 7527
485 5 7528 7523 7524 7530
486 6 7527 7523 7526 7532
487 7 7530 7524 7525 7531
488 8 7529 7524 7525 7531
489 9 7527 7523 7524 7529
490 10 7528 7523 7524 7529
491 11 7526 7523 7524 7530
492 12 7528 7523 7526 7532
493 13 7527 7523 7524 7530
494 14 7525 7524 7523 7528
495 15 7526 7523 7524 7529
496 1 7535 7534 7533 7536
497 2 7533 7534 7535 7541
498 3 7534 7533 7536 7542
499 4 7535 7534 7533 7537
500 5 7538 7533 7534 7540
501 6 7537 7533 7536 7542
502 7 7540 7534 7535 7541
503 8 7539 7534 7535 7541
504 9 7537 7533 7534 7539
505 10 7538 7533 7534 7539
506 11 7536 7533 7534 7540
507 12 7538 7533 7536 7542
508 13 7537 7533 7534 7540
509 14 7535 7534 7533 7538
510 15 7536 7533 7534 7539
511 1 7545 7544 7543 7546
512 2 7543 7544 7545 7551
513 3 7544 7543 7546 7552
514 4 7545 7544 7543 7547
515 5 7548 7543 7544 7550
516 6 7547 7543 7546 7552
517 7 7550 7544 7545 7551
518 8 7549 7544 7545 7551
519 9 7547 7543 7544 7549
520 10 7548 7543 7544 7549
521 11 7546 7543 7544 7550
522 12 7548 7543 7546 7552
523 13 7547 7543 7544 7550
524 14 7545 7544 7543 7548
525 15 7546 7543 7544 7549
526 1 7555 7554 7553 7556
527 2 7553 7554 7555 7561
528 3 7554 7553 7556 7562
529 4 7555 7554 7553 7557
530 5 7558 7553 7554 7560
531 6 7557 7553 7556 7562
532 7 7560 7554 7555 7561
533 8 7559 7554 7555 7561
534 9 7557 7553 7554 7559
535 10 7558 7553 7554 7559
536 11 7556 7553 7554 7560
537 12 7558 7553 7556 7562
538 13 7557 7553 7554 7560
539 14 7555 7554 7553 7558
540 15 7556 7553 7554 7559
541 1 7565 7564 7563 7566
542 2 7563 7564 7565 7571
543 3 7564 7563 7566 7572
544 4 7565 7564 7563 7567
545 5 7568 7563 7564 7570
546 6 7567 7563 7566 7572
547 7 7570 7564 7565 7571
548 8 7569 7564 7565 7571
549 9 7567 7563 7564 7569
550 10 7568 7563 7564 7569
551 11 7566 7563 7564 7570
552 12 7568 7563 7566 7572
553 13 7567 7563 7564 7570
554 14 7565 7564 7563 7568
555 15 7566 7563 7564 7569
556 1 7575 7574 7573 7576
557 2 7573 7574 7575 7581
558 3 7574 7573 7576 7582
559 4 7575 7574 7573 7577
560 5 7578 7573 7574 7580
561 6 7577 7573 7576 7582
562 7 7580 7574 7575 7581
563 8 7579 7574 7575 7581
564 9 7577 7573 7574 7579
565 10 7578 7573 7574 7579
566 11 7576 7573 7574 7580
567 12 7578 7573 7576 7582
568 13 7577 7573 7574 7580
569 14 7575 7574 7573 7578
570 15 7576 7573 7574 7579
571 1 7585 7584 7583 7586
572 2 7583 7584 7585 7591
573 3 7584 7583 7586 7592
574 4 7585 7584 7583 7587
575 5 7588 7583 7584 7590
576 6 7587 7583 7586 7592
577 7 7590 7584 7585 7591
578 8 7589 7584 7585 7591
579 9 7587 7583 7584 7589
580 10 7588 7583 7584 7589
581 11 7586 7583 7584 7590
582 12 7588 7583 7586 7592
583 13 7587 7583 7584 7590
584 14 7585 7584 7583 7588
585 15 7586 7583 7584 7589
586 1 7595 7594 7593 7596
587 2 7593 7594 7595 7601
588 3 7594 7593 7596 7602
589 4 7595 7594 7593 7597
590 5 7598 7593 7594 7600
591 6 7597 7593 7596 7602
592 7 7600 7594 7595 7601
593 8 7599 7594 7595 7601
594 9 7597 7593 7594 7599
595 10 7598 7593 7594 7599
596 11 7596 7593 7594 7600
597 12 7598 7593 7596 7602
598 13 7597 7593 7594 7600
599 14 7595 7594 7593 7598
600 15 7596 7593 7594 7599
601 1 7605 7604 7603 7606
602 2 7603 7604 7605 7611
603 3 7604 7603 7606 7612
604 4 7605 7604 7603 7607
605 5 7608 7603 7604 7610
606 6 7607 7603 7606 7612
607 7 7610 7604 7605 7611
608 8 7609 7604 7605 7611
609 9 7607 7603 7604 7609
610 10 7608 7603 7604 7609
611 11 7606 7603 7604 7610
612 12 7608 7603 7606 7612
613 13 7607 7603 7604 7610
614 14 7605 7604 7603 7608
615 15 7606 7603 7604 7609
616 1 7615 7614 7613 7616
617 2 7613 7614 7615 7621
618 3 7614 7613 7616 7622
619 4 7615 7614 7613 7617
620 5 7618 7613 7614 7620
621 6 7617 7613 7616 7622
622 7 7620 7614 7615 7621
623 8 7619 7614 7615 7621
624 9 7617 7613 7614 7619
625 10 7618 7613 7614 7619
626 11 7616 7613 7614 7620
627 12 7618 7613 7616 7622
628 13 7617 7613 7614 7620
629 14 7615 7614 7613 7618
630 15 7616 7613 7614 7619
631 1 7625 7624 7623 7626
632 2 7623 7624 7625 7631
633 3 7624 7623 7626 7632
634 4 7625 7624 7623 7627
635 5 7628 7623 7624 7630
636 6 7627 7623 7626 7632
637 7 7630 7624 7625 7631
638 8 7629 7624 7625 7631
639 9 7627 7623 7624 7629
640 10 7628 7623 7624 7629
641 11 7626 7623 7624 7630
642 12 7628 7623 7626 7632
643 13 7627 7623 7624 7630
644 14 7625 7624 7623 7628
645 15 7626 7623 7624 7629
646 1 7635 7634 7633 7636
647 2 7633 7634 7635 7641
648 3 7634 7633 7636 7642
649 4 7635 7634 7633 7637
650 5 7638 7633 7634 7640
651 6 7637 7633 7636 7642
652 7 7640 7634 7635 7641
653 8 7639 7634 7635 7641
654 9 7637 7633 7634 7639
655 10 7638 7633 7634 7639
656 11 7636 7633 7634 7640
657 12 7638 7633 7636 7642
658 13 7637 7633 7634 7640
659 14 7635 7634 7633 7638
660 15 7636 7633 7634 7639
661 1 7645 7644 7643 7646
662 2 7643 7644 7645 7651
663 3 7644 7643 7646 7652
664 4 7645 7644 7643 7647
665 5 7648 7643 7644 7650
666 6 7647 7643 7646 7652
667 7 7650 7644 7645 7651
668 8 7649 7644 7645 7651
669 9 7647 7643 7644 7649
670 10 7648 7643 7644 7649
671 11 7646 7643 7644 7650
672 12 7648 7643 7646 7652
673 13 7647 7643 7644 7650
674 14 7645 7644 7643 7648
675 15 7646 7643 7644 7649
676 1 7655 7654 7653 7656
677 2 7653 7654 7655 7661
678 3 7654 7653 7656 7662
679 4 7655 7654 7653 7657
680 5 7658 7653 7654 7660
681 6 7657 7653 7656 7662
682 7 7660 7654 7655 7661
683 8 7659 7654 7655 7661
684 9 7657 7653 7654 7659
685 10 7658 7653 7654 7659
686 11 7656 7653 7654 7660
687 12 7658 7653 7656 7662
688 13 7657 7653 7654 7660
689 14 7655 7654 7653 7658
690 15 7656 7653 7654 7659
691 1 7665 7664 7663 7666
692 2 7663 7664 7665 7671
693 3 7664 7663 7666 7672
694 4 7665 7664 7663 7667
695 5 7668 7663 7664 7670
696 6 7667 7663 7666 7672
697 7 7670 7664 7665 7671
698 8 7669 7664 7665 7671
699 9 7667 7663 7664 7669
700 10 7668 7663 7664 7669
701 11 7666 7663 7664 7670
702 12 7668 7663 7666 7672
703 13 7667 7663 7664 7670
704 14 7665 7664 7663 7668
705 15 7666 7663 7664 7669
706 1 7675 7674 7673 7676
707 2 7673 7674 7675 7681
708 3 7674 7673 7676 7682
709 4 7675 7674 7673 7677
710 5 7678 7673 7674 7680
711 6 7677 7673 7676 7682
712 7 7680 7674 7675 7681
713 8 7679 7674 7675 7681
714 9 7677 7673 7674 7679
715 10 7678 7673 7674 7679
716 11 7676 7673 7674 7680
717 12 7678 7673 7676 7682
718 13 7677 7673 7674 7680
719 14 7675 7674 7673 7678
720 15 7676 7673 7674 7679
721 16 7683 7684 7685 7686
722 17 7684 7685 7686 7687
723 18 7685 7686 7687 7688
724 19 7685 7684 7683 7691
725 20 7687 7688 7690 7699
726 21 7689 7685 7684 7694
727 22 7687 7686 7685 7689
728 23 7689 7685 7684 7695
729 24 7684 7685 7686 7696
730 25 7687 7688 7690 7700
731 26 7689 7688 7690 7699
732 27 7690 7688 7687 7697
733 28 7685 7684 7683 7693
734 29 7686 7685 7689 7688
735 30 7687 7688 7690 7701
736 31 7684 7685 7689 7688
737 32 7689 7688 7690 7701
738 33 7690 7688 7689 7698
739 34 7683 7684 7685 7689
740 35 7686 7685 7689 7698
741 36 7685 7689 7688 7687
742 37 7696 7686 7687 7697
743 38 7686 7687 7688 7690
744 39 7693 7683 7684 7695
745 40 7686 7685 7684 7694
746 41 7689 7688 7690 7700
747 42 7689 7688 7687 7697
748 43 7686 7685 7684 7695
749 44 7685 7689 7688 7690
750 45 7685 7686 7687 7697
751 46 7686 7687 7688 7689
752 47 7693 7683 7684 7694
753 48 7692 7683 7684 7695
754 49 7685 7684 7683 7692
755 50 7687 7688 7689 7698
756 51 7684 7685 7689 7698
757 52 7691 7683 7684 7695
758 53 7689 7685 7686 7696
759 54 7692 7683 7684 7694
760 55 7688 7687 7686 7696
761 56 7691 7683 7684 7694
762 57 7703 7704 7705 7706
763 58 7705 7704 7703 7707
764 59 7704 7705 7708 7709
765 60 7705 7708 7710 7719
766 61 7709 7708 7705 7715
767 62 7708 7705 7706 7716
768 63 7703 7707 7706 7705
769 64 7704 7705 7706 7716
770 65 7709 7708 7710 7719
771 66 7710 7708 7705 7715
772 67 7706 7705 7708 7710
773 68 7705 7704 7703 7711
774 69 7712 7703 7707 7718
775 70 7715 7705 7706 7716
776 71 7716 7706 7707 7718
777 72 7706 7707 7703 7712
778 73 7716 7706 7707 7717
779 74 7712 7703 7707 7717
780 75 7711 7703 7707 7718
781 76 7703 7707 7706 7716
782 77 7712 7703 7704 7714
783 78 7713 7704 7705 7715
784 79 7711 7703 7704 7713
785 80 7714 7704 7705 7715
786 81 7704 7705 7708 7710
787 82 7708 7705 7704 7714
788 83 7707 7706 7705 7715
789 84 7708 7705 7704 7713
790 85 7705 7706 7707 7718
791 86 7704 7703 7707 7706
792 87 7705 7706 7707 7717
793 88 7704 7705 7706 7707
794 89 7703 7704 7705 7708
795 90 7707 7703 7704 7713
796 91 7704 7703 7707 7718
797 92 7706 7707 7703 7711
798 93 7704 7703 7707 7717
799 94 7705 7704 7703 7712
800 95 7707 7706 7705 7708
801 96 7711 7703 7707 7717
802 97 7706 7705 7708 7709
803 98 7706 7705 7704 7713
804 99 7703 7704 7705 7715
805 100 7707 7703 7704 7714
806 101 7706 7705 7704 7714
807 102 7712 7703 7704 7713
808 103 7711 7703 7704 7714
809 57 7720 7721 7722 7723
810 58 7722 7721 7720 7724
811 59 7721 7722 7725 7726
812 60 7722 7725 7727 7736
813 61 7726 7725 7722 7732
814 62 7725 7722 7723 7733
815 63 7720 7724 7723 7722
816 64 7721 7722 7723 7733
817 65 7726 7725 7727 7736
818 66 7727 7725 7722 7732
819 67 7723 7722 7725 7727
820 68 7722 7721 7720 7728
821 69 7729 7720 7724 7735
822 70 7732 7722 7723 7733
823 71 7733 7723 7724 7735
824 72 7723 7724 7720 7729
825 73 7733 7723 7724 7734
826 74 7729 7720 7724 7734
827 75 7728 7720 7724 7735
828 76 7720 7724 7723 7733
829 77 7729 7720 7721 7731
830 78 7730 7721 7722 7732
831 79 7728 7720 7721 7730
832 80 7731 7721 7722 7732
833 81 7721 7722 7725 7727
834 82 7725 7722 7721 7731
835 83 7724 7723 7722 7732
836 84 7725 7722 7721 7730
837 85 7722 7723 7724 7735
838 86 7721 7720 7724 7723
839 87 7722 7723 7724 7734
840 88 7721 7722 7723 7724
841 89 7720 7721 7722 7725
842 90 7724 7720 7721 7730
843 91 7721 7720 7724 7735
844 92 7723 7724 7720 7728
845 93 7721 7720 7724 7734
846 94 7722 7721 7720 7729
847 95 7724 7723 7722 7725
848 96 7728 7720 7724 7734
849 97 7723 7722 7725 7726
850 98 7723 7722 7721 7730
851 99 7720 7721 7722 7732
852 100 7724 7720 7721 7731
853 101 7723 7722 7721 7731
854 102 7729 7720 7721 7730
855 103 7728 7720 7721 7731
856 57 7737 7738 7739 7740
857 58 7739 7738 7737 7741
858 59 7738 7739 7742 7743
859 60 7739 7742 7744 7753
860 61 7743 7742 7739 7749
861 62 7742 7739 7740 7750
862 63 7737 7741 7740 7739
863 64 7738 7739 7740 7750
864 65 7743 7742 7744 7753
865 66 7744 7742 7739 7749
866 67 7740 7739 7742 7744
867 68 7739 7738 7737 7745
868 69 7746 7737 7741 7752
869 70 7749 7739 7740 7750
870 71 7750 7740 7741 7752
871 72 7740 7741 7737 7746
872 73 7750 7740 7741 7751
873 74 7746 7737 7741 7751
874 75 7745 7737 7741 7752
875 76 7737 7741 7740 7750
876 77 7746 7737 7738 7748
877 78 7747 7738 7739 7749
878 79 7745 7737 7738 7747
879 80 7748 7738 7739 7749
880 81 7738 7739 7742 7744
881 82 7742 7739 7738 7748
882 83 7741 7740 7739 7749
883 84 7742 7739 7738 7747
884 85 7739 7740 7741 7752
885 86 7738 7737 7741 7740
886 87 7739 7740 7741 7751
887 88 7738 7739 7740 7741
888 89 7737 7738 7739 7742
889 90 7741 7737 7738 7747
890 91 7738 7737 7741 7752
891 92 7740 7741 7737 7745
892 93 7738 7737 7741 7751
893 94 7739 7738 7737 7746
894 95 7741 7740 7739 7742
895 96 7745 7737 7741 7751
896 97 7740 7739 7742 7743
897 98 7740 7739 7738 7747
898 99 7737 7738 7739 7749
899 100 7741 7737 7738 7748
900 101 7740 7739 7738 7748
901 102 7746 7737 7738 7747
902 103 7745 7737 7738 7748
903 57 7754 7755 7756 7757
904 58 7756 7755 7754 7758
905 59 7755 7756 7759 7760
906 60 7756 7759 7761 7770
907 61 7760 7759 7756 7766
908 62 7759 7756 7757 7767
909 63 7754 7758 7757 7756
910 64 7755 7756 7757 7767
911 65 7760 7759 7761 7770
912 66 7761 7759 7756 7766
913 67 7757 7756 7759 7761
914 68 7756 7755 7754 7762
915 69 7763 7754 7758 7769
916 70 7766 7756 7757 7767
917 71 7767 7757 7758 7769
918 72 7757 7758 7754 7763
919 73 7767 7757 7758 7768
920 74 7763 7754 7758 7768
921 75 7762 7754 7758 7769
922 76 7754 7758 7757 7767
923 77 7763 7754 7755 7765
924 78 7764 7755 7756 7766
925 79 7762 7754 7755 7764
926 80 7765 7755 7756 7766
927 81 7755 7756 7759 7761
928 82 7759 7756 7755 7765
929 83 7758 7757 7756 7766
930 84 7759 7756 7755 7764
931 85 7756 7757 7758 7769
932 86 7755 7754 7758 7757
933 87 7756 7757 7758 7768
934 88 7755 7756 7757 7758
935 89 7754 7755 7756 7759
936 90 7758 7754 7755 7764
937 91 7755 7754 7758 7769
938 92 7757 7758 7754 7762
939 93 7755 7754 7758 7768
940 94 7756 7755 7754 7763
941 95 7758 7757 7756 7759
942 96 7762 7754 7758 7768
943 97 7757 7756 7759 7760
944 98 7757 7756 7755 7764
945 99 7754 7755 7756 7766
946 100 7758 7754 7755 7765
947 101 7757 7756 7755 7765
948 102 7763 7754 7755 7764
949 103 7762 7754 7755 7765
950 57 7771 7772 7773 7774
951 58 7773 7772 7771 7775
952 59 7772 7773 7776 7777
953 60 7773 7776 7778 7787
954 61 7777 7776 7773 7783
955 62 7776 7773 7774 7784
956 63 7771 7775 7774 7773
957 64 7772 7773 7774 7784
958 65 7777 7776 7778 7787
959 66 7778 7776 7773 7783
960 67 7774 7773 7776 7778
961 68 7773 7772 7771 7779
962 69 7780 7771 7775 7786
963 70 7783 7773 7774 7784
964 71 7784 7774 7775 7786
965 72 7774 7775 7771 7780
966 73 7784 7774 7775 7785
967 74 7780 7771 7775 7785
968 75 7779 7771 7775 7786
969 76 7771 7775 7774 7784
970 77 7780 7771 7772 7782
971 78 7781 7772 7773 7783
972 79 7779 7771 7772 7781
973 80 7782 7772 7773 7783
974 81 7772 7773 7776 7778
975 82 7776 7773 7772 7782
976 83 7775 7774 7773 7783
977 84 7776 7773 7772 7781
978 85 7773 7774 7775 7786
979 86 7772 7771 7775 7774
980 87 7773 7774 7775 7785
981 88 7772 7773 7774 7775
982 89 7771 7772 7773 7776
983 90 7775 7771 7772 7781
984 91 7772 7771 7775 7786
985 92 7774 7775 7771 7779
986 93 7772 7771 7775 7785
987 94 7773 7772 7771 7780
988 95 7775 7774 7773 7776
989 96 7779 7771 7775 7785
990 97 7774 7773 7776 7777
991 98 7774 7773 7772 7781
992 99 7771 7772 7773 7783
993 100 7775 7771 7772 7782
994 101 7774 7773 7772 7782
995 102 7780 7771 7772 7781
996 103 7779 7771 7772 7782
997 57 7788 7789 7790 7791
998 58 7790 7789 7788 7792
999 59 7789 7790 7793 7794
1000 60 7790 7793 7795 7804
1001 61 7794 7793 7790 7800
1002 62 7793 7790 7791 7801
1003 63 7788 7792 7791 7790
1004 64 7789 7790 7791 7801
1005 65 7794 7793 7795 7804
1006 66 7795 7793 7790 7800
1007 67 7791 7790 7793 7795
1008 68 7790 7789 7788 7796
1009 69 7797 7788 7792 7803
1010 70 7800 7790 7791 7801
1011 71 7801 7791 7792 7803
1012 72 7791 7792 7788 7797
1013 73 7801 7791 7792 7802
1014 74 7797 7788 7792 7802
1015 75 7796 7788 7792 7803
1016 76 7788 7792 7791 7801
1017 77 7797 7788 7789 7799
1018 78 7798 7789 7790 7800
1019 79 7796 7788 7789 7798
1020 80 7799 7789 7790 7800
1021 81 7789 7790 7793 7795
1022 82 7793 7790 7789 7799
1023 83 7792 7791 7790 7800
1024 84 7793 7790 7789 7798
1025 85 7790 7791 7792 7803
1026 86 7789 7788 7792 7791
1027 87 7790 7791 7792 7802
1028 88 7789 7790 7791 7792
1029 89 7788 7789 7790 7793
1030 90 7792 7788 7789 7798
1031 91 7789 7788 7792 7803
1032 92 7791 7792 7788 7796
1033 93 7789 7788 7792 7802
1034 94 7790 7789 7788 7797
1035 95 7792 7791 7790 7793
1036 96 7796 7788 7792 7802
1037 97 7791 7790 7793 7794
1038 98 7791 7790 7789 7798
1039 99 7788 7789 7790 7800
1040 100 7792 7788 7789 7799
1041 101 7791 7790 7789 7799
1042 102 7797 7788 7789 7798
1043 103 7796 7788 7789 7799
1044 57 7805 7806 7807 7808
1045 58 7807 7806 7805 7809
1046 59 7806 7807 7810 7811
1047 60 7807 7810 7812 7821
1048 61 7811 7810 7807 7817
1049 62 7810 7807 7808 7818
1050 63 7805 7809 7808 7807
1051 64 7806 7807 7808 7818
1052 65 7811 7810 7812 7821
1053 66 7812 7810 7807 7817
1054 67 7808 7807 7810 7812
1055 68 7807 7806 7805 7813
1056 69 7814 7805 7809 7820
1057 70 7817 7807 7808 7818
1058 71 7818 7808 7809 7820
1059 72 7808 7809 7805 7814
1060 73 7818 7808 7809 7819
1061 74 7814 7805 7809 7819
1062 75 7813 7805 7809 7820
1063 76 7805 7809 7808 7818
1064 77 7814 7805 7806 7816
1065 78 7815 7806 7807 7817
1066 79 7813 7805 7806 7815
1067 80 7816 7806 7807 7817
1068 81 7806 7807 7810 7812
1069 82 7810 7807 7806 7816
1070 83 7809 7808 7807 7817
1071 84 7810 7807 7806 7815
1072 85 7807 7808 7809 7820
1073 86 7806 7805 7809 7808
1074 87 7807 7808 7809 7819
1075 88 7806 7807 7808 7809
1076 89 7805 7806 7807 7810
1077 90 7809 7805 7806 7815
1078 91 7806 7805 7809 7820
1079 92 7808 7809 7805 7813
1080 93 7806 7805 7809 7819
1081 94 7807 7806 7805 7814
1082 95 7809 7808 7807 7810
1083 96 7813 7805 7809 7819
1084 97 7808 7807 7810 7811
1085 98 7808 7807 7806 7815
1086 99 7805 7806 7807 7817
1087 100 7809 7805 7806 7816
1088 101 7808 7807 7806 7816
1089 102 7814 7805 7806 7815
1090 103 7813 7805 7806 7816
1091 57 7822 7823 7824 7825
1092 58 7824 7823 7822 7826
1093 59 7823 7824 7827 7828
1094 60 7824 7827 7829 7838
1095 61 7828 7827 7824 7834
1096 62 7827 7824 7825 7835
1097 63 7822 7826 7825 7824
1098 64 7823 7824 7825 7835
1099 65 7828 7827 7829 7838
1100 66 7829 7827 7824 7834
1101 67 7825 7824 7827 7829
1102 68 7824 7823 7822 7830
1103 69 7831 7822 7826 7837
1104 70 7834 7824 7825 7835
1105 71 7835 7825 7826 7837
1106 72 7825 7826 7822 7831
1107 73 7835 7825 7826 7836
1108 74 7831 7822 7826 7836
1109 75 7830 7822 7826 7837
1110 76 7822 7826 7825 7835
1111 77 7831 7822 7823 7833
1112 78 7832 7823 7824 7834
1113 79 7830 7822 7823 7832
1114 80 7833 7823 7824 7834
1115 81 7823 7824 7827 7829
1116 82 7827 7824 7823 7833
1117 83 7826 7825 7824 7834
1118 84 7827 7824 7823 7832
1119 85 7824 7825 7826 7837
1120 86 7823 7822 7826 7825
1121 87 7824 7825 7826 7836
1122 88 7823 7824 7825 7826
1123 89 7822 7823 7824 7827
1124 90 7826 7822 7823 7832
1125 91 7823 7822 7826 7837
1126 92 7825 7826 7822 7830
1127 93 7823 7822 7826 7836
1128 94 7824 7823 7822 7831
1129 95 7826 7825 7824 7827
1130 96 7830 7822 7826 7836
1131 97 7825 7824 7827 7828
1132 98 7825 7824 7823 7832
1133 99 7822 7823 7824 7834
1134 100 7826 7822 7823 7833
1135 101 7825 7824 7823 7833
1136 102 7831 7822 7823 7832
1137 103 7830 7822 7823 7833
1138 57 7839 7840 7841 7842
1139 58 7841 7840 7839 7843
1140 59 7840 7841 7844 7845
1141 60 7841 7844 7846 7855
1142 61 7845 7844 7841 7851
1143 62 7844 7841 7842 7852
1144 63 7839 7843 7842 7841
1145 64 7840 7841 7842 7852
1146 65 7845 7844 7846 7855
1147 66 7846 7844 7841 7851
1148 67 7842 7841 7844 7846
1149 68 7841 7840 7839 7847
1150 69 7848 7839 7843 7854
1151 70 7851 7841 7842 7852
1152 71 7852 7842 7843 7854
1153 72 7842 7843 7839 7848
1154 73 7852 7842 7843 7853
1155 74 7848 7839 7843 7853
1156 75 7847 7839 7843 7854
1157 76 7839 7843 7842 7852
1158 77 7848 7839 7840 7850
1159 78 7849 7840 7841 7851
1160 79 7847 7839 7840 7849
1161 80 7850 7840 7841 7851
1162 81 7840 7841 7844 7846
1163 82 7844 7841 7840 7850
1164 83 7843 7842 7841 7851
1165 84 7844 7841 7840 7849
1166 85 7841 7842 7843 7854
1167 86 7840 7839 7843 7842
1168 87 7841 7842 7843 7853
1169 88 7840 7841 7842 7843
1170 89 7839 7840 7841 7844
1171 90 7843 7839 7840 7849
1172 91 7840 7839 7843 7854
1173 92 7842 7843 7839 7847
1174 93 7840 7839 7843 7853
1175 94 7841 7840 7839 7848
1176 95 7843 7842 7841 7844
1177 96 7847 7839 7843 7853
1178 97 7842 7841 7844 7845
1179 98 7842 7841 7840 7849
1180 99 7839 7840 7841 7851
1181 100 7843 7839 7840 7850
1182 101 7842 7841 7840 7850
1183 102 7848 7839 7840 7849
1184 103 7847 7839 7840 7850
1185 57 7856 7857 7858 7859
1186 58 7858 7857 7856 7860
1187 59 7857 7858 7861 7862
1188 60 7858 7861 7863 7872
1189 61 7862 7861 7858 7868
1190 62 7861 7858 7859 7869
1191 63 7856 7860 7859 7858
1192 64 7857 7858 7859 7869
1193 65 7862 7861 7863 7872
1194 66 7863 7861 7858 7868
1195 67 7859 7858 7861 7863
1196 68 7858 7857 7856 7864
1197 69 7865 7856 7860 7871
1198 70 7868 7858 7859 7869
1199 71 7869 7859 7860 7871
1200 72 7859 7860 7856 7865
1201 73 7869 7859 7860 7870
1202 74 7865 7856 7860 7870
1203 75 7864 7856 7860 7871
1204 76 7856 7860 7859 7869
1205 77 7865 7856 7857 7867
1206 78 7866 7857 7858 7868
1207 79 7864 7856 7857 7866
1208 80 7867 7857 7858 7868
1209 81 7857 7858 7861 7863
1210 82 7861 7858 7857 7867
1211 83 7860 7859 7858 7868
1212 84 7861 7858 7857 7866
1213 85 7858 7859 7860 7871
1214 86 7857 7856 7860 7859
1215 87 7858 7859 7860 7870
1216 88 7857 7858 7859 7860
1217 89 7856 7857 7858 7861
1218 90 7860 7856 7857 7866
1219 91 7857 7856 7860 7871
1220 92 7859 7860 7856 7864
1221 93 7857 7856 7860 7870
1222 94 7858 7857 7856 7865
1223 95 7860 7859 7858 7861
1224 96 7864 7856 7860 7870
1225 97 7859 7858 7861 7862
1226 98 7859 7858 7857 7866
1227 99 7856 7857 7858 7868
1228 100 7860 7856 7857 7867
1229 101 7859 7858 7857 7867
1230 102 7865 7856 7857 7866
1231 103 7864 7856 7857 7867
1232 57 7873 7874 7875 7876
1233 58 7875 7874 7873 7877
1234 59 7874 7875 7878 7879
1235 60 7875 7878 7880 7889
1236 61 7879 7878 7875 7885
1237 62 7878 7875 7876 7886
1238 63 7873 7877 7876 7875
1239 64 7874 7875 7876 7886
1240 65 7879 7878 7880 7889
1241 66 7880 7878 7875 7885
1242 67 7876 7875 7878 7880
1243 68 7875 7874 7873 7881
1244 69 7882 7873 7877 7888
1245 70 7885 7875 7876 7886
1246 71 7886 7876 7877 7888
1247 72 7876 7877 7873 7882
1248 73 7886 7876 7877 7887
1249 74 7882 7873 7877 7887
1250 75 7881 7873 7877 7888
1251 76 7873 7877 7876 7886
1252 77 7882 7873 7874 7884
1253 78 7883 7874 7875 7885
1254 79 7881 7873 7874 7883
1255 80 7884 7874 7875 7885
1256 81 7874 7875 7878 7880
1257 82 7878 7875 7874 7884
1258 83 7877 7876 7875 7885
1259 84 7878 7875 7874 7883
1260 85 7875 7876 7877 7888
1261 86 7874 7873 7877 7876
1262 87 7875 7876 7877 7887
1263 88 7874 7875 7876 7877
1264 89 7873 7874 7875 7878
1265 90 7877 7873 7874 7883
1266 91 7874 7873 7877 7888
1267 92 7876 7877 7873 7881
1268 93 7874 7873 7877 7887
1269 94 7875 7874 7873 7882
1270 95 7877 7876 7875 7878
1271 96 7881 7873 7877 7887
1272 97 7876 7875 7878 7879
1273 98 7876 7875 7874 7883
1274 99 7873 7874 7875 7885
1275 100 7877 7873 7874 7884
1276 101 7876 7875 7874 7884
1277 102 7882 7873 7874 7883
1278 103 7881 7873 7874 7884
1279 57 7890 7891 7892 7893
1280 58 7892 7891 7890 7894
1281 59 7891 7892 7895 7896
1282 60 7892 7895 7897 7906
1283 61 7896 7895 7892 7902
1284 62 7895 7892 7893 7903
1285 63 7890 7894 7893 7892
1286 64 7891 7892 7893 7903
1287 65 7896 7895 7897 7906
1288 66 7897 7895 7892 7902
1289 67 7893 7892 7895 7897
1290 68 7892 7891 7890 7898
1291 69 7899 7890 7894 7905
1292 70 7902 7892 7893 7903
1293 71 7903 7893 7894 7905
1294 72 7893 7894 7890 7899
1295 73 7903 7893 7894 7904
1296 74 7899 7890 7894 7904
1297 75 7898 7890 7894 7905
1298 76 7890 7894 7893 7903
1299 77 7899 7890 7891 7901
1300 78 7900 7891 7892 7902
1301 79 7898 7890 7891 7900
1302 80 7901 7891 7892 7902
1303 81 7891 7892 7895 7897
1304 82 7895 7892 7891 7901
1305 83 7894 7893 7892 7902
1306 84 7895 7892 7891 7900
1307 85 7892 7893 7894 7905
1308 86 7891 7890 7894 7893
1309 87 7892 7893 7894 7904
1310 88 7891 7892 7893 7894
1311 89 7890 7891 7892 7895
1312 90 7894 7890 7891 7900
1313 91 7891 7890 7894 7905
1314 92 7893 7894 7890 7898
1315 93 7891 7890 7894 7904
1316 94 7892 7891 7890 7899
1317 95 7894 7893 7892 7895
1318 96 7898 7890 7894 7904
1319 97 7893 7892 7895 7896
1320 98 7893 7892 7891 7900
1321 99 7890 7891 7892 7902
1322 100 7894 7890 7891 7901
1323 101 7893 7892 7891 7901
1324 102 7899 7890 7891 7900
1325 103 7898 7890 7891 7901
1326 57 7907 7908 7909 7910
1327 58 7909 7908 7907 7911
1328 59 7908 7909 7912 7913
1329 60 7909 7912 7914 7923
1330 61 7913 7912 7909 7919
1331 62 7912 7909 7910 7920
1332 63 7907 7911 7910 7909
1333 64 7908 7909 7910 7920
1334 65 7913 7912 7914 7923
1335 66 7914 7912 7909 7919
1336 67 7910 7909 7912 7914
1337 68 7909 7908 7907 7915
1338 69 7916 7907 7911 7922
1339 70 7919 7909 7910 7920
1340 71 7920 7910 7911 7922
1341 72 7910 7911 7907 7916
1342 73 7920 7910 7911 7921
1343 74 7916 7907 7911 7921
1344 75 7915 7907 7911 7922
1345 76 7907 7911 7910 7920
1346 77 7916 7907 7908 7918
1347 78 7917 7908 7909 7919
1348 79 7915 7907 7908 7917
1349 80 7918 7908 7909 7919
1350 81 7908 7909 7912 7914
1351 82 7912 7909 7908 7918
1352 83 7911 7910 7909 7919
1353 84 7912 7909 7908 7917
1354 85 7909 7910 7911 7922
1355 86 7908 7907 7911 7910
1356 87 7909 7910 7911 7921
1357 88 7908 7909 7910 7911
1358 89 7907 7908 7909 7912
1359 90 7911 7907 7908 7917
1360 91 7908 7907 7911 7922
1361 92 7910 7911 7907 7915
1362 93 7908 7907 7911 7921
1363 94 7909 7908 7907 7916
1364 95 7911 7910 7909 7912
1365 96 7915 7907 7911 7921
1366 97 7910 7909 7912 7913
1367 98 7910 7909 7908 7917
1368 99 7907 7908 7909 7919
1369 100 7911 7907 7908 7918
1370 101 7910 7909 7908 7918
1371 102 7916 7907 7908 7917
1372 103 7915 7907 7908 7918
1373 57 7924 7925 7926 7927
1374 58 7926 7925 7924 7928
1375 59 7925 7926 7929 7930
1376 60 7926 7929 7931 7940
1377 61 7930 7929 7926 7936
1378 62 7929 7926 7927 7937
1379 63 7924 7928 7927 7926
1380 64 7925 7926 7927 7937
1381 65 7930 7929 7931 7940
1382 66 7931 7929 7926 7936
1383 67 7927 7926 7929 7931
1384 68 7926 7925 7924 7932
1385 69 7933 7924 7928 7939
1386 70 7936 7926 7927 7937
1387 71 7937 7927 7928 7939
1388 72 7927 7928 7924 7933
1389 73 7937 7927 7928 7938
1390 74 7933 7924 7928 7938
1391 75 7932 7924 7928 7939
1392 76 7924 7928 7927 7937
1393 77 7933 7924 7925 7935
1394 78 7934 7925 7926 7936
1395 79 7932 7924 7925 7934
1396 80 7935 7925 7926 7936
1397 81 7925 7926 7929 7931
1398 82 7929 7926 7925 7935
1399 83 7928 7927 7926 7936
1400 84 7929 7926 7925 7934
1401 85 7926 7927 7928 7939
1402 86 7925 7924 7928 7927
1403 87 7926 7927 7928 7938
1404 88 7925 7926 7927 7928
1405 89 7924 7925 7926 7929
1406 90 7928 7924 7925 7934
1407 91 7925 7924 7928 7939
1408 92 7927 7928 7924 7932
1409 93 7925 7924 7928 7938
1410 94 7926 7925 7924 7933
1411 95 7928 7927 7926 7929
1412 96 7932 7924 7928 7938
1413 97 7927 7926 7929 7930
1414 98 7927 7926 7925 7934
1415 99 7924 7925 7926 7936
1416 100 7928 7924 7925 7935
1417 101 7927 7926 7925 7935
1418 102 7933 7924 7925 7934
1419 103 7932 7924 7925 7935
1420 57 7941 7942 7943 7944
1421 58 7943 7942 7941 7945
1422 59 7942 7943 7946 7947
1423 60 7943 7946 7948 7957
1424 61 7947 7946 7943 7953
1425 62 7946 7943 7944 7954
1426 63 7941 7945 7944 7943
1427 64 7942 7943 7944 7954
1428 65 7947 7946 7948 7957
1429 66 7948 7946 7943 7953
1430 67 7944 7943 7946 7948
1431 68 7943 7942 7941 7949
1432 69 7950 7941 7945 7956
1433 70 7953 7943 7944 7954
1434 71 7954 7944 7945 7956
1435 72 7944 7945 7941 7950
1436 73 7954 7944 7945 7955
1437 74 7950 7941 7945 7955
1438 75 7949 7941 7945 7956
1439 76 7941 7945 7944 7954
1440 77 7950 7941 7942 7952
1441 78 7951 7942 7943 7953
1442 79 7949 7941 7942 7951
1443 80 7952 7942 7943 7953
1444 81 7942 7943 7946 7948
1445 82 7946 7943 7942 7952
1446 83 7945 7944 7943 7953
1447 84 7946 7943 7942 7951
1448 85 7943 7944 7945 7956
1449 86 7942 7941 7945 7944
1450 87 7943 7944 7945 7955
1451 88 7942 7943 7944 7945
1452 89 7941 7942 7943 7946
1453 90 7945 7941 7942 7951
1454 91 7942 7941 7945 7956
1455 92 7944 7945 7941 7949
1456 93 7942 7941 7945 7955
1457 94 7943 7942 7941 7950
1458 95 7945 7944 7943 7946
1459 96 7949 7941 7945 7955
1460 97 7944 7943 7946 7947
1461 98 7944 7943 7942 7951
1462 99 7941 7942 7943 7953
1463 100 7945 7941 7942 7952
1464 101 7944 7943 7942 7952
1465 102 7950 7941 7942 7951
1466 103 7949 7941 7942 7952
1467 57 7958 7959 7960 7961
1468 58 7960 7959 7958 7962
1469 59 7959 7960 7963 7964
1470 60 7960 7963 7965 7974
1471 61 7964 7963 7960 7970
1472 62 7963 7960 7961 7971
1473 63 7958 7962 7961 7960
1474 64 7959 7960 7961 7971
1475 65 7964 7963 7965 7974
1476 66 7965 7963 7960 7970
1477 67 7961 7960 7963 7965
1478 68 7960 7959 7958 7966
1479 69 7967 7958 7962 7973
1480 70 7970 7960 7961 7971
1481 71 7971 7961 7962 7973
1482 72 7961 7962 7958 7967
1483 73 7971 7961 7962 7972
1484 74 7967 7958 7962 7972
1485 75 7966 7958 7962 7973
1486 76 7958 7962 7961 7971
1487 77 7967 7958 7959 7969
1488 78 7968 7959 7960 7970
1489 79 7966 7958 7959 7968
1490 80 7969 7959 7960 7970
1491 81 7959 7960 7963 7965
1492 82 7963 7960 7959 7969
1493 83 7962 7961 7960 7970
1494 84 7963 7960 7959 7968
1495 85 7960 7961 7962 7973
1496 86 7959 7958 7962 7961
1497 87 7960 7961 7962 7972
1498 88 7959 7960 7961 7962
1499 89 7958 7959 7960 7963
1500 90 7962 7958 7959 7968
1501 91 7959 7958 7962 7973
1502 92 7961 7962 7958 7966
1503 93 7959 7958 7962 7972
1504 94 7960 7959 7958 7967
1505 95 7962 7961 7960 7963
1506 96 7966 7958 7962 7972
1507 97 7961 7960 7963 7964
1508 98 7961 7960 7959 7968
1509 99 7958 7959 7960 7970
1510 100 7962 7958 7959 7969
1511 101 7961 7960 7959 7969
1512 102 7967 7958 7959 7968
1513 103 7966 7958 7959 7969
1514 57 7975 7976 7977 7978
1515 58 7977 7976 7975 7979
1516 59 7976 7977 7980 7981
1517 60 7977 7980 7982 7991
1518 61 7981 7980 7977 7987
1519 62 7980 7977 7978 7988
1520 63 7975 7979 7978 7977
1521 64 7976 7977 7978 7988
1522 65 7981 7980 7982 7991
1523 66 7982 7980 7977 7987
1524 67 7978 7977 7980 7982
1525 68 7977 7976 7975 7983
1526 69 7984 7975 7979 7990
1527 70 7987 7977 7978 7988
1528 71 7988 7978 7979 7990
1529 72 7978 7979 7975 7984
1530 73 7988 7978 7979 7989
1531 74 7984 7975 7979 7989
1532 75 7983 7975 7979 7990
1533 76 7975 7979 7978 7988
1534 77 7984 7975 7976 7986
1535 78 7985 7976 7977 7987
1536 79 7983 7975 7976 7985
1537 80 7986 7976 7977 7987
1538 81 7976 7977 7980 7982
1539 82 7980 7977 7976 7986
1540 83 7979 7978 7977 7987
1541 84 7980 7977 7976 7985
1542 85 7977 7978 7979 7990
1543 86 7976 7975 7979 7978
1544 87 7977 7978 7979 7989
1545 88 7976 7977 7978 7979
1546 89 7975 7976 7977 7980
1547 90 7979 7975 7976 7985
1548 91 7976 7975 7979 7990
1549 92 7978 7979 7975 7983
1550 93 7976 7975 7979 7989
1551 94 7977 7976 7975 7984
1552 95 7979 7978 7977 7980
1553 96 7983 7975 7979 7989
1554 97 7978 7977 7980 7981
1555 98 7978 7977 7976 7985
1556 99 7975 7976 7977 7987
1557 100 7979 7975 7976 7986
1558 101 7978 7977 7976 7986
1559 102 7984 7975 7976 7985
1560 103 7983 7975 7976 7986
1561 57 7992 7993 7994 7995
1562 58 7994 7993 7992 7996
1563 59 7993 7994 7997 7998
1564 60 7994 7997 7999 8008
1565 61 7998 7997 7994 8004
1566 62 7997 7994 7995 8005
1567 63 7992 7996 7995 7994
1568 64 7993 7994 7995 8005
1569 65 7998 7997 7999 8008
1570 66 7999 7997 7994 8004
1571 67 7995 7994 7997 7999
1572 68 7994 7993 7992 8000
1573 69 8001 7992 7996 8007
1574 70 8004 7994 7995 8005
1575 71 8005 7995 7996 8007
1576 72 7995 7996 7992 8001
1577 73 8005 7995 7996 8006
1578 74 8001 7992 7996 8006
1579 75 8000 7992 7996 8007
1580 76 7992 7996 7995 8005
1581 77 8001 7992 7993 8003
1582 78 8002 7993 7994 8004
1583 79 8000 7992 7993 8002
1584 80 8003 7993 7994 8004
1585 81 7993 7994 7997 7999
1586 82 7997 7994 7993 8003
1587 83 7996 7995 7994 8004
1588 84 7997 7994 7993 8002
1589 85 7994 7995 7996 8007
1590 86 7993 7992 7996 7995
1591 87 7994 7995 7996 8006
1592 88 7993 7994 7995 7996
1593 89 7992 7993 7994 7997
1594 90 7996 7992 7993 8002
1595 91 7993 7992 7996 8007
1596 92 7995 7996 7992 8000
1597 93 7993 7992 7996 8006
1598 94 7994 7993 7992 8001
1599 95 7996 7995 7994 7997
1600 96 8000 7992 7996 8006
1601 97 7995 7994 7997 7998
1602 98 7995 7994 7993 8002
1603 99 7992 7993 7994 8004
1604 100 7996 7992 7993 8003
1605 101 7995 7994 7993 8003
1606 102 8001 7992 7993 8002
1607 103 8000 7992 7993 8003

Impropers

1 1 7203 7204 7206 7207
2 2 7203 7204 7206 7208
3 3 7204 7203 7205 7209
4 4 7204 7203 7205 7210
5 1 7213 7214 7216 7217
6 2 7213 7214 7216 7218
7 3 7214 7213 7215 7219
8 4 7214 7213 7215 7220
9 1 7223 7224 7226 7227
10 2 7223 7224 7226 7228
11 3 7224 7223 7225 7229
12 4 7224 7223 7225 7230
13 1 7233 7234 7236 7237
14 2 7233 7234 7236 7238
15 3 7234 7233 7235 7239
16 4 7234 7233 7235 7240
17 1 7243 7244 7246 7247
18 2 7243 7244 7246 7248
19 3 7244 7243 7245 7249
20 4 7244 7243 7245 7250
21 1 7253 7254 7256 7257
22 2 7253 7254 7256 7258
23 3 7254 7253 7255 7259
24 4 7254 7253 7255 7260
25 1 7263 7264 7266 7267
26 2 7263 7264 7266 7268
27 3 7264 7263 7265 7269
28 4 7264 7263 7265 7270
29 1 7273 7274 7276 7277
30 2 7273 7274 7276 7278
31 3 7274 7273 7275 7279
32 4 7274 7273 7275 7280
33 1 7283 7284 7286 7287
34 2 7283 7284 7286 7288
35 3 7284 7283 7285 7289
36 4 7284 7283 7285 7290
37 1 7293 7294 7296 7297
38 2 7293 7294 7296 7298
39 3 7294 7293 7295 7299
40 4 7294 7293 7295 7300
41 1 7303 7304 7306 7307
42 2 7303 7304 7306 7308
43 3 7304 7303 7305 7309
44 4 7304 7303 7305 7310
45 1 7313 7314 7316 7317
46 2 7313 7314 7316 7318
47 3 7314 7313 7315 7319
48 4 7314 7313 7315 7320
49 1 7323 7324 7326 7327
50 2 7323 7324 7326 7328
51 3 7324 7323 7325 7329
52 4 7324 7323 7325 7330
53 1 7333 7334 7336 7337
54 2 7333 7334 7336 7338
55 3 7334 7333 7335 7339
56 4 7334 7333 7335 7340
57 1 7343 7344 7346 7347
58 2 7343 7344 7346 7348
59 3 7344 7343 7345 7349
60 4 7344 7343 7345 7350
61 1 7353 7354 7356 7357
62 2 7353 7354 7356 7358
63 3 7354 7353 7355 7359
64 4 7354 7353 7355 7360
65 1 7363 7364 7366 7367
66 2 7363 7364 7366 7368
67 3 7364 7363 7365 7369
68 4 7364 7363 7365 7370
69 1 7373 7374 7376 7377
70 2 7373 7374 7376 7378
71 3 7374 7373 7375 7379
72 4 7374 7373 7375 7380
73 1 7383 7384 7386 7387
74 2 7383 7384 7386 7388
75 3 7384 7383 7385 7389
76 4 7384 7383 7385 7390
77 1 7393 7394 7396 7397
78 2 7393 7394 7396 7398
79 3 7394 7393 7395 7399
80 4 7394 7393 7395 7400
81 1 7403 7404 7406 7407
82 2 7403 7404 7406 7408
83 3 7404 7403 7405 7409
84 4 7404 7403 7405 7410
85 1 7413 7414 7416 7417
86 2 7413 7414 7416 7418
87 3 7414 7413 7415 7419
88 4 7414 7413 7415 7420
89 1 7423 7424 7426 7427
90 2 7423 7424 7426 7428
91 3 7424 7423 7425 7429
92 4 7424 7423 7425 7430
93 1 7433 7434 7436 7437
94 2 7433 7434 7436 7438
95 3 7434 7433 7435 7439
96 4 7434 7433 7435 7440
97 1 7443 7444 7446 7447
98 2 7443 7444 7446 7448
99 3 7444 7443 7445 7449
100 4 7444 7443 7445 7450
101 1 7453 7454 7456 7457
102 2 7453 7454 7456 7458
103 3 7454 7453 7455 7459
104 4 7454 7453 7455 7460
105 1 7463 7464 7466 7467
106 2 7463 7464 7466 7468
107 3 7464 7463 7465 7469
108 4 7464 7463 7465 7470
109 1 7473 7474 7476 7477
110 2 7473 7474 7476 7478
111 3 7474 7473 7475 7479
112 4 7474 7473 7475 7480
113 1 7483 7484 7486 7487
114 2 7483 7484 7486 7488
115 3 7484 7483 7485 7489
116 4 7484 7483 7485 7490
117 1 7493 7494 7496 7497
118 2 7493 7494 7496 7498
119 3 7494 7493 7495 7499
120 4 7494 7493 7495 7500
121 1 7503 7504 7506 7507
122 2 7503 7504 7506 7508
123 3 7504 7503 7505 7509
124 4 7504 7503 7505 7510
125 1 7513 7514 7516 7517
126 2 7513 7514 7516 7518
127 3 7514 7513 7515 7519
128 4 7514 7513 7515 7520
129 1 7523 7524 7526 7527
130 2 7523 7524 7526 7528
131 3 7524 7523 7525 7529
132 4 7524 7523 7525 7530
133 1 7533 7534 7536 7537
134 2 7533 7534 7536 7538
135 3 7534 7533 7535 7539
136 4 7534 7533 7535 7540
137 1 7543 7544 7546 7547
138 2 7543 7544 7546 7548
139 3 7544 7543 7545 7549
140 4 7544 7543 7545 7550
141 1 7553 7554 7556 7557
142 2 7553 7554 7556 7558
143 3 7554 7553 7555 7559
144 4 7554 7553 7555 7560
145 1 7563 7564 7566 7567
146 2 7563 7564 7566 7568
147 3 7564 7563 7565 7569
148 4 7564 7563 7565 7570
149 1 7573 7574 7576 7577
150 2 7573 7574 7576 7578
151 3 7574 7573 7575 7579
152 4 7574 7573 7575 7580
153 1 7583 7584 7586 7587
154 2 7583 7584 7586 7588
155 3 7584 7583 7585 7589
156 4 7584 7583 7585 7590
157 1 7593 7594 7596 7597
158 2 7593 7594 7596 7598
159 3 7594 7593 7595 7599
160 4 7594 7593 7595 7600
161 1 7603 7604 7606 7607
162 2 7603 7604 7606 7608
163 3 7604 7603 7605 7609
164 4 7604 7603 7605 7610
165 1 7613 7614 7616 7617
166 2 7613 7614 7616 7618
167 3 7614 7613 7615 7619
168 4 7614 7613 7615 7620
169 1 7623 7624 7626 7627
170 2 7623 7624 7626 7628
171 3 7624 7623 7625 7629
172 4 7624 7623 7625 7630
173 1 7633 7634 7636 7637
174 2 7633 7634 7636 7638
175 3 7634 7633 7635 7639
176 4 7634 7633 7635 7640
177 1 7643 7644 7646 7647
178 2 7643 7644 7646 7648
179 3 7644 7643 7645 7649
180 4 7644 7643 7645 7650
181 1 7653 7654 7656 7657
182 2 7653 7654 7656 7658
183 3 7654 7653 7655 7659
184 4 7654 7653 7655 7660
185 1 7663 7664 7666 7667
186 2 7663 7664 7666 7668
187 3 7664 7663 7665 7669
188 4 7664 7663 7665 7670
189 1 7673 7674 7676 7677
190 2 7673 7674 7676 7678
191 3 7674 7673 7675 7679
192 4 7674 7673 7675 7680
193 5 7685 7684 7686 7689
194 6 7688 7687 7689 7690
195 7 7683 7691 7692 7684
196 8 7683 7684 7693 7691
197 9 7684 7683 7685 7694
198 10 7684 7683 7685 7695
199 11 7686 7685 7687 7696
200 12 7687 7686 7688 7697
201 13 7689 7685 7688 7698
202 14 7690 7699 7700 7688
203 15 7690 7699 7701 7688
204 16 7705 7704 7706 7708
205 17 7708 7705 7709 7710
206 18 7703 7707 7711 7704
207 19 7703 7707 7712 7704
208 20 7704 7703 7713 7705
209 21 7704 7703 7705 7714
210 22 7705 7704 7706 7715
211 23 7706 7705 7707 7716
212 24 7707 7703 7706 7717
213 25 7707 7703 7706 7718
214 16 7722 7721 7723 7725
215 17 7725 7722 7726 7727
216 18 7720 7724 7728 7721
217 19 7720 7724 7729 7721
218 20 7721 7720 7730 7722
219 21 7721 7720 7722 7731
220 22 7722 7721 7723 7732
221 23 7723 7722 7724 7733
222 24 7724 7720 7723 7734
223 25 7724 7720 7723 7735
224 16 7739 7738 7740 7742
225 17 7742 7739 7743 7744
226 18 7737 7741 7745 7738
227 19 7737 7741 7746 7738
228 20 7738 7737 7747 7739
229 21 7738 7737 7739 7748
230 22 7739 7738 7740 7749
231 23 7740 7739 7741 7750
232 24 7741 7737 7740 7751
233 25 7741 7737 7740 7752
234 16 7756 7755 7757 7759
235 17 7759 7756 7760 7761
236 18 7754 7758 7762 7755
237 19 7754 7758 7763 7755
238 20 7755 7754 7764 7756
239 21 7755 7754 7756 7765
240 22 7756 7755 7757 7766
241 23 7757 7756 7758 7767
242 24 7758 7754 7757 7768
243 25 7758 7754 7757 7769
244 16 7773 7772 7774 7776
245 17 7776 7773 7777 7778
246 18 7771 7775 7779 7772
247 19 7771 7775 7780 7772
248 20 7772 7771 7781 7773
249 21 7772 7771 7773 7782
250 22 7773 7772 7774 7783
251 23 7774 7773 7775 7784
252 24 7775 7771 7774 7785
253 25 7775 7771 7774 7786
254 16 7790 7789 7791 7793
255 17 7793 7790 7794 7795
256 18 7788 7792 7796 7789
257 19 7788 7792 7797 7789
258 20 7789 7788 7798 7790
259 21 7789 7788 7790 7799
260 22 7790 7789 7791 7800
261 23 7791 7790 7792 7801
262 24 7792 7788 7791 7802
263 25 7792 7788 7791 7803
264 16 7807 7806 7808 7810
265 17 7810 7807 7811 7812
266 18 7805 7809 7813 7806
267 19 7805 7809 7814 7806
268 20 7806 7805 7815 7807
269 21 7806 7805 7807 7816
270 22 7807 7806 7808 7817
271 23 7808 7807 7809 7818
272 24 7809 7805 7808 7819
273 25 7809 7805 7808 7820
274 16 7824 7823 7825 7827
275 17 7827 7824 7828 7829
276 18 7822 7826 7830 7823
277 19 7822 7826 7831 7823
278 20 7823 7822 7832 7824
279 21 7823 7822 7824 7833
280 22 7824 7823 7825 7834
281 23 7825 7824 7826 7835
282 24 7826 7822 7825 7836
283 25 7826 7822 7825 7837
284 16 7841 7840 7842 7844
285 17 7844 7841 7845 7846
286 18 7839 7843 7847 7840
287 19 7839 7843 7848 7840
288 20 7840 7839 7849 7841
289 21 7840 7839 7841 7850
290 22 7841 7840 7842 7851
291 23 7842 7841 7843 7852
292 24 7843 7839 7842 7853
293 25 7843 7839 7842 7854
294 16 7858 7857 7859 7861
295 17 7861 7858 7862 7863
296 18 7856 7860 7864 7857
297 19 7856 7860 7865 7857
298 20 7857 7856 7866 7858
299 21 7857 7856 7858 7867
300 22 7858 7857 7859 7868
301 23 7859 7858 7860 7869
302 24 7860 7856 7859 7870
303 25 7860 7856 7859 7871
304 16 7875 7874 7876 7878
305 17 7878 7875 7879 7880
306 18 7873 7877 7881 7874
307 19 7873 7877 7882 7874
308 20 7874 7873 7883 7875
309 21 7874 7873 7875 7884
310 22 7875 7874 7876 7885
311 23 7876 7875 7877 7886
312 24 7877 7873 7876 7887
313 25 7877 7873 7876 7888
314 16 7892 7891 7893 7895
315 17 7895 7892 7896 7897
316 18 7890 7894 7898 7891
317 19 7890 7894 7899 7891
318 20 7891 7890 7900 7892
319 21 7891 7890 7892 7901
320 22 7892 7891 7893 7902
321 23 7893 7892 7894 7903
322 24 7894 7890 7893 7904
323 25 7894 7890 7893 7905
324 16 7909 7908 7910 7912
325 17 7912 7909 7913 7914
326 18 7907 7911 7915 7908
327 19 7907 7911 7916 7908
328 20 7908 7907 7917 7909
329 21 7908 7907 7909 7918
330 22 7909 7908 7910 7919
331 23 7910 7909 7911 7920
332 24 7911 7907 7910 7921
333 25 7911 7907 7910 7922
334 16 7926 7925 7927 7929
335 17 7929 7926 7930 7931
336 18 7924 7928 7932 7925
337 19 7924 7928 7933 7925
338 20 7925 7924 7934 7926
339 21 7925 7924 7926 7935
340 22 7926 7925 7927 7936
341 23 7927 7926 7928 7937
342 24 7928 7924 7927 7938
343 25 7928 7924 7927 7939
344 16 7943 7942 7944 7946
345 17 7946 7943 7947 7948
346 18 7941 7945 7949 7942
347 19 7941 7945 7950 7942
348 20 7942 7941 7951 7943
349 21 7942 7941 7943 7952
350 22 7943 7942 7944 7953
351 23 7944 7943 7945 7954
352 24 7945 7941 7944 7955
353 25 7945 7941 7944 7956
354 16 7960 7959 7961 7963
355 17 7963 7960 7964 7965
356 18 7958 7962 7966 7959
357 19 7958 7962 7967 7959
358 20 7959 7958 7968 7960
359 21 7959 7958 7960 7969
360 22 7960 7959 7961 7970
361 23 7961 7960 7962 7971
362 24 7962 7958 7961 7972
363 25 7962 7958 7961 7973
364 16 7977 7976 7978 7980
365 17 7980 7977 7981 7982
366 18 7975 7979 7983 7976
367 19 7975 7979 7984 7976
368 20 7976 7975 7985 7977
369 21 7976 7975 7977 7986
370 22 7977 7976 7978 7987
371 23 7978 7977 7979 7988
372 24 7979 7975 7978 7989
373 25 7979 7975 7978 7990
374 16 7994 7993 7995 7997
375 17 7997 7994 7998 7999
376 18 7992 7996 8000 7993
377 19 7992 7996 8001 7993
378 20 7993 7992 8002 7994
379 21 7993 7992 7994 8003
380 22 7994 7993 7995 8004
381 23 7995 7994 7996 8005
382 24 7996 7992 7995 8006
383 25 7996 7992 7995 8007

