LAMMPS Description

7304  atoms
4608  bonds
2304  angles
0  dihedrals
0  impropers

3  atom types
1  bond types
1  angle types
0  dihedral types
0  improper types

0.0 23.7750 xlo xhi
0.0 100 ylo yhi
0.0 35.6625 zlo zhi

Masses

1 15.999400  # O
2 1.007970  # H
3 16.043030  # CT

Atoms

1 1 1 -1.1794 0.000000 5.943750 2.971875
2 1 2 0.5897 0.009656 6.746382 2.401692
3 1 2 0.5897 0.819206 6.078805 3.500477
4 1 1 -1.1794 0.000000 5.943750 8.915625
5 1 2 0.5897 0.281067 6.808436 9.277971
6 1 2 0.5897 0.723234 5.812773 8.254920
7 1 1 -1.1794 2.971875 0.000000 5.943750
8 1 2 0.5897 2.409366 0.112795 6.741859
9 1 2 0.5897 3.506404 0.826096 5.955505
10 1 1 -1.1794 8.915625 0.000000 5.943750
11 1 2 0.5897 8.353117 0.798110 6.056546
12 1 2 0.5897 9.450153 0.011753 6.769848
13 1 1 -1.1794 5.943750 2.971875 0.000000
14 1 2 0.5897 6.224823 3.334227 0.864683
15 1 2 0.5897 6.666985 2.311172 -0.130979
16 1 1 -1.1794 5.943750 8.915625 0.000000
17 1 2 0.5897 5.953409 8.345441 0.802632
18 1 2 0.5897 6.762955 9.444227 0.135054
19 1 1 -1.1794 2.195740 2.195740 2.195740
20 1 2 0.5897 1.930743 1.402781 2.721735
21 1 2 0.5897 2.708046 2.708072 2.862811
22 1 1 -1.1794 9.691760 9.691760 2.195740
23 1 2 0.5897 9.978388 10.516781 2.648501
24 1 2 0.5897 9.116718 10.043814 1.480933
25 1 1 -1.1794 9.691760 2.195740 9.691760
26 1 2 0.5897 9.154281 2.782308 9.104938
27 1 2 0.5897 10.452871 2.782332 9.905926
28 1 1 -1.1794 2.195740 9.691760 9.691760
29 1 2 0.5897 1.433515 9.188865 10.050449
30 1 2 0.5897 2.654073 9.949780 10.533970
31 1 1 -1.1794 8.139490 8.139490 3.748010
32 1 2 0.5897 8.055452 8.606915 4.601005
33 1 2 0.5897 8.845452 8.644310 3.294149
34 1 1 -1.1794 3.748010 3.748010 3.748010
35 1 2 0.5897 4.002365 3.184788 4.519697
36 1 2 0.5897 4.639981 3.970836 3.410372
37 1 1 -1.1794 8.139490 3.748010 8.139490
38 1 2 0.5897 7.353136 4.110945 8.609681
39 1 2 0.5897 8.567214 4.572992 7.810198
40 1 1 -1.1794 3.748010 8.139490 8.139490
41 1 2 0.5897 3.235613 8.731546 8.742287
42 1 2 0.5897 4.491456 7.869471 8.725499
43 1 1 -1.1794 9.691760 9.691760 9.691760
44 1 2 0.5897 9.946137 10.463442 9.128541
45 1 2 0.5897 10.583721 9.354096 9.914592
46 1 1 -1.1794 2.195740 2.195740 9.691760
47 1 2 0.5897 1.409385 2.665929 10.054694
48 1 2 0.5897 2.623464 1.866447 10.516742
49 1 1 -1.1794 2.195740 9.691760 2.195740
50 1 2 0.5897 2.111703 10.544755 2.663166
51 1 2 0.5897 2.901702 9.237898 2.700560
52 1 1 -1.1794 9.691760 2.195740 2.195740
53 1 2 0.5897 9.179361 2.798535 2.787796
54 1 2 0.5897 10.435205 2.781750 1.925722
55 1 1 -1.1794 3.748010 3.748010 8.139490
56 1 2 0.5897 3.210531 3.161188 8.726058
57 1 2 0.5897 4.509120 3.962177 8.726082
58 1 1 -1.1794 8.139490 8.139490 8.139490
59 1 2 0.5897 7.874494 8.665484 7.346530
60 1 2 0.5897 8.651795 8.806563 8.651821
61 1 1 -1.1794 3.748010 8.139490 3.748010
62 1 2 0.5897 4.034637 8.592251 4.573031
63 1 2 0.5897 3.172969 7.424681 4.100063
64 1 1 -1.1794 8.139490 3.748010 3.748010
65 1 2 0.5897 7.377269 4.106705 3.245111
66 1 2 0.5897 8.597826 4.590218 4.006031
67 1 1 -1.1794 0.000000 3.679775 1.385607
68 1 2 0.5897 0.035498 4.459067 1.989457
69 1 2 0.5897 0.798485 3.179090 1.671756
70 1 1 -1.1794 0.000000 8.207725 1.385607
71 1 2 0.5897 -0.758631 8.731842 1.737352
72 1 2 0.5897 0.759372 8.779826 1.670376
73 1 1 -1.1794 0.000000 3.679775 10.501893
74 1 2 0.5897 -0.044368 3.851890 11.469464
75 1 2 0.5897 -0.018559 4.578141 10.109946
76 1 1 -1.1794 0.000000 8.207725 10.501893
77 1 2 0.5897 0.205529 8.274438 11.469986
78 1 2 0.5897 -0.779451 7.629397 10.587942
79 1 1 -1.1794 1.385607 0.000000 3.679775
80 1 2 0.5897 0.417726 -0.094659 3.821134
81 1 2 0.5897 1.754570 -0.099428 4.581968
82 1 1 -1.1794 1.385607 0.000000 8.207725
83 1 2 0.5897 1.716836 0.746754 8.758036
84 1 2 0.5897 1.714706 -0.771043 8.726950
85 1 1 -1.1794 10.501893 0.000000 3.679775
86 1 2 0.5897 9.916808 0.006667 4.472479
87 1 2 0.5897 10.184338 0.799264 3.201735
88 1 1 -1.1794 10.501893 0.000000 8.207725
89 1 2 0.5897 10.305638 0.798873 8.749125
90 1 2 0.5897 11.480928 0.066494 8.116678
91 1 1 -1.1794 3.679775 1.385607 0.000000
92 1 2 0.5897 3.181486 1.660080 0.803227
93 1 2 0.5897 4.465410 1.972311 0.037997
94 1 1 -1.1794 8.207725 1.385607 0.000000
95 1 2 0.5897 8.780854 1.614855 0.769515
96 1 2 0.5897 8.792041 1.653488 -0.747865
97 1 1 -1.1794 3.679775 10.501893 0.000000
98 1 2 0.5897 3.869586 11.452377 0.104347
99 1 2 0.5897 4.546334 10.068458 0.112136
100 1 1 -1.1794 8.207725 10.501893 0.000000
101 1 2 0.5897 8.122284 11.478258 -0.083426
102 1 2 0.5897 8.687717 10.276857 -0.827363
103 1 1 -1.1794 9.623525 5.943750 4.558143
104 1 2 0.5897 9.813335 6.048098 5.508627
105 1 2 0.5897 10.490084 6.055885 4.124708
106 1 1 -1.1794 2.263975 5.943750 4.558143
107 1 2 0.5897 2.178531 5.860324 5.534508
108 1 2 0.5897 2.743967 5.116387 4.333108
109 1 1 -1.1794 9.623525 5.943750 7.329357
110 1 2 0.5897 9.125238 6.746978 7.603833
111 1 2 0.5897 10.409160 5.981743 7.916061
112 1 1 -1.1794 2.263975 5.943750 7.329357
113 1 2 0.5897 2.837102 6.713267 7.558605
114 1 2 0.5897 2.848293 5.195886 7.597239
115 1 1 -1.1794 5.943750 7.329357 2.263975
116 1 2 0.5897 5.185122 7.681106 2.788093
117 1 2 0.5897 6.703124 7.614122 2.836075
118 1 1 -1.1794 5.943750 7.329357 9.623525
119 1 2 0.5897 5.979250 7.933206 10.402818
120 1 2 0.5897 6.742237 7.615502 9.122842
121 1 1 -1.1794 5.943750 4.558143 2.263975
122 1 2 0.5897 6.149264 5.526242 2.330661
123 1 2 0.5897 5.164278 4.644161 1.685681
124 1 1 -1.1794 5.943750 4.558143 9.623525
125 1 2 0.5897 5.899383 5.525713 9.795644
126 1 2 0.5897 5.925192 4.166192 10.521889
127 1 1 -1.1794 7.329357 9.623525 5.943750
128 1 2 0.5897 6.361476 9.764884 5.849090
129 1 2 0.5897 7.698320 10.525718 5.844322
130 1 1 -1.1794 7.329357 2.263975 5.943750
131 1 2 0.5897 7.660588 2.814285 6.690503
132 1 2 0.5897 7.658458 2.783199 5.172706
133 1 1 -1.1794 4.558143 9.623525 5.943750
134 1 2 0.5897 3.973056 10.416229 5.950416
135 1 2 0.5897 4.240588 9.145485 6.743014
136 1 1 -1.1794 4.558143 2.263975 5.943750
137 1 2 0.5897 4.361890 2.805372 6.742625
138 1 2 0.5897 5.537178 2.172928 6.010242
139 1 3 0.0 0.000000 0.000000 0.000000
140 1 3 0.0 5.943750 5.943750 5.943750
141 1 3 0.0 0.000000 2.971875 5.943750
142 1 3 0.0 0.000000 8.915625 5.943750
143 1 3 0.0 5.943750 0.000000 2.971875
144 1 3 0.0 5.943750 0.000000 8.915625
145 1 3 0.0 2.971875 5.943750 0.000000
146 1 3 0.0 8.915625 5.943750 0.000000
147 2 1 -1.1794 0.000000 5.943750 14.859375
148 2 2 0.5897 0.009656 6.746382 14.289192
149 2 2 0.5897 0.819206 6.078805 15.387977
150 2 1 -1.1794 0.000000 5.943750 20.803125
151 2 2 0.5897 0.281067 6.808436 21.165471
152 2 2 0.5897 0.723234 5.812773 20.142420
153 2 1 -1.1794 2.971875 0.000000 17.831250
154 2 2 0.5897 2.409366 0.112795 18.629359
155 2 2 0.5897 3.506404 0.826096 17.843005
156 2 1 -1.1794 8.915625 0.000000 17.831250
157 2 2 0.5897 8.353117 0.798110 17.944046
158 2 2 0.5897 9.450153 0.011753 18.657348
159 2 1 -1.1794 5.943750 2.971875 11.887500
160 2 2 0.5897 6.224823 3.334227 12.752183
161 2 2 0.5897 6.666985 2.311172 11.756521
162 2 1 -1.1794 5.943750 8.915625 11.887500
163 2 2 0.5897 5.953409 8.345441 12.690132
164 2 2 0.5897 6.762955 9.444227 12.022554
165 2 1 -1.1794 2.195740 2.195740 14.083240
166 2 2 0.5897 1.930743 1.402781 14.609235
167 2 2 0.5897 2.708046 2.708072 14.750311
168 2 1 -1.1794 9.691760 9.691760 14.083240
169 2 2 0.5897 9.978388 10.516781 14.536001
170 2 2 0.5897 9.116718 10.043814 13.368433
171 2 1 -1.1794 9.691760 2.195740 21.579260
172 2 2 0.5897 9.154281 2.782308 20.992438
173 2 2 0.5897 10.452871 2.782332 21.793426
174 2 1 -1.1794 2.195740 9.691760 21.579260
175 2 2 0.5897 1.433515 9.188865 21.937949
176 2 2 0.5897 2.654073 9.949780 22.421470
177 2 1 -1.1794 8.139490 8.139490 15.635510
178 2 2 0.5897 8.055452 8.606915 16.488505
179 2 2 0.5897 8.845452 8.644310 15.181649
180 2 1 -1.1794 3.748010 3.748010 15.635510
181 2 2 0.5897 4.002365 3.184788 16.407197
182 2 2 0.5897 4.639981 3.970836 15.297872
183 2 1 -1.1794 8.139490 3.748010 20.026990
184 2 2 0.5897 7.353136 4.110945 20.497181
185 2 2 0.5897 8.567214 4.572992 19.697698
186 2 1 -1.1794 3.748010 8.139490 20.026990
187 2 2 0.5897 3.235613 8.731546 20.629787
188 2 2 0.5897 4.491456 7.869471 20.612999
189 2 1 -1.1794 9.691760 9.691760 21.579260
190 2 2 0.5897 9.946137 10.463442 21.016041
191 2 2 0.5897 10.583721 9.354096 21.802092
192 2 1 -1.1794 2.195740 2.195740 21.579260
193 2 2 0.5897 1.409385 2.665929 21.942194
194 2 2 0.5897 2.623464 1.866447 22.404242
195 2 1 -1.1794 2.195740 9.691760 14.083240
196 2 2 0.5897 2.111703 10.544755 14.550666
197 2 2 0.5897 2.901702 9.237898 14.588060
198 2 1 -1.1794 9.691760 2.195740 14.083240
199 2 2 0.5897 9.179361 2.798535 14.675296
200 2 2 0.5897 10.435205 2.781750 13.813222
201 2 1 -1.1794 3.748010 3.748010 20.026990
202 2 2 0.5897 3.210531 3.161188 20.613558
203 2 2 0.5897 4.509120 3.962177 20.613582
204 2 1 -1.1794 8.139490 8.139490 20.026990
205 2 2 0.5897 7.874494 8.665484 19.234030
206 2 2 0.5897 8.651795 8.806563 20.539321
207 2 1 -1.1794 3.748010 8.139490 15.635510
208 2 2 0.5897 4.034637 8.592251 16.460531
209 2 2 0.5897 3.172969 7.424681 15.987563
210 2 1 -1.1794 8.139490 3.748010 15.635510
211 2 2 0.5897 7.377269 4.106705 15.132611
212 2 2 0.5897 8.597826 4.590218 15.893531
213 2 1 -1.1794 0.000000 3.679775 13.273107
214 2 2 0.5897 0.035498 4.459067 13.876957
215 2 2 0.5897 0.798485 3.179090 13.559256
216 2 1 -1.1794 0.000000 8.207725 13.273107
217 2 2 0.5897 -0.758631 8.731842 13.624852
218 2 2 0.5897 0.759372 8.779826 13.557876
219 2 1 -1.1794 0.000000 3.679775 22.389393
220 2 2 0.5897 -0.044368 3.851890 23.356964
221 2 2 0.5897 -0.018559 4.578141 21.997446
222 2 1 -1.1794 0.000000 8.207725 22.389393
223 2 2 0.5897 0.205529 8.274438 23.357486
224 2 2 0.5897 -0.779451 7.629397 22.475442
225 2 1 -1.1794 1.385607 0.000000 15.567275
226 2 2 0.5897 0.417726 -0.094659 15.708634
227 2 2 0.5897 1.754570 -0.099428 16.469468
228 2 1 -1.1794 1.385607 0.000000 20.095225
229 2 2 0.5897 1.716836 0.746754 20.645536
230 2 2 0.5897 1.714706 -0.771043 20.614450
231 2 1 -1.1794 10.501893 0.000000 15.567275
232 2 2 0.5897 9.916808 0.006667 16.359979
233 2 2 0.5897 10.184338 0.799264 15.089235
234 2 1 -1.1794 10.501893 0.000000 20.095225
235 2 2 0.5897 10.305638 0.798873 20.636625
236 2 2 0.5897 11.480928 0.066494 20.004178
237 2 1 -1.1794 3.679775 1.385607 11.887500
238 2 2 0.5897 3.181486 1.660080 12.690727
239 2 2 0.5897 4.465410 1.972311 11.925497
240 2 1 -1.1794 8.207725 1.385607 11.887500
241 2 2 0.5897 8.780854 1.614855 12.657015
242 2 2 0.5897 8.792041 1.653488 11.139635
243 2 1 -1.1794 3.679775 10.501893 11.887500
244 2 2 0.5897 3.869586 11.452377 11.991847
245 2 2 0.5897 4.546334 10.068458 11.999636
246 2 1 -1.1794 8.207725 10.501893 11.887500
247 2 2 0.5897 8.122284 11.478258 11.804074
248 2 2 0.5897 8.687717 10.276857 11.060137
249 2 1 -1.1794 9.623525 5.943750 16.445643
250 2 2 0.5897 9.813335 6.048098 17.396127
251 2 2 0.5897 10.490084 6.055885 16.012208
252 2 1 -1.1794 2.263975 5.943750 16.445643
253 2 2 0.5897 2.178531 5.860324 17.422008
254 2 2 0.5897 2.743967 5.116387 16.220608
255 2 1 -1.1794 9.623525 5.943750 19.216857
256 2 2 0.5897 9.125238 6.746978 19.491333
257 2 2 0.5897 10.409160 5.981743 19.803561
258 2 1 -1.1794 2.263975 5.943750 19.216857
259 2 2 0.5897 2.837102 6.713267 19.446105
260 2 2 0.5897 2.848293 5.195886 19.484739
261 2 1 -1.1794 5.943750 7.329357 14.151475
262 2 2 0.5897 5.185122 7.681106 14.675593
263 2 2 0.5897 6.703124 7.614122 14.723575
264 2 1 -1.1794 5.943750 7.329357 21.511025
265 2 2 0.5897 5.979250 7.933206 22.290318
266 2 2 0.5897 6.742237 7.615502 21.010342
267 2 1 -1.1794 5.943750 4.558143 14.151475
268 2 2 0.5897 6.149264 5.526242 14.218161
269 2 2 0.5897 5.164278 4.644161 13.573181
270 2 1 -1.1794 5.943750 4.558143 21.511025
271 2 2 0.5897 5.899383 5.525713 21.683144
272 2 2 0.5897 5.925192 4.166192 22.409389
273 2 1 -1.1794 7.329357 9.623525 17.831250
274 2 2 0.5897 6.361476 9.764884 17.736590
275 2 2 0.5897 7.698320 10.525718 17.731822
276 2 1 -1.1794 7.329357 2.263975 17.831250
277 2 2 0.5897 7.660588 2.814285 18.578003
278 2 2 0.5897 7.658458 2.783199 17.060206
279 2 1 -1.1794 4.558143 9.623525 17.831250
280 2 2 0.5897 3.973056 10.416229 17.837916
281 2 2 0.5897 4.240588 9.145485 18.630514
282 2 1 -1.1794 4.558143 2.263975 17.831250
283 2 2 0.5897 4.361890 2.805372 18.630125
284 2 2 0.5897 5.537178 2.172928 17.897742
285 2 3 0.0 0.000000 0.000000 11.887500
286 2 3 0.0 5.943750 5.943750 17.831250
287 2 3 0.0 0.000000 2.971875 17.831250
288 2 3 0.0 0.000000 8.915625 17.831250
289 2 3 0.0 5.943750 0.000000 14.859375
290 2 3 0.0 5.943750 0.000000 20.803125
291 2 3 0.0 2.971875 5.943750 11.887500
292 2 3 0.0 8.915625 5.943750 11.887500
293 3 1 -1.1794 0.000000 5.943750 26.746875
294 3 2 0.5897 0.009656 6.746382 26.176692
295 3 2 0.5897 0.819206 6.078805 27.275477
296 3 1 -1.1794 0.000000 5.943750 32.690625
297 3 2 0.5897 0.281067 6.808436 33.052971
298 3 2 0.5897 0.723234 5.812773 32.029920
299 3 1 -1.1794 2.971875 0.000000 29.718750
300 3 2 0.5897 2.409366 0.112795 30.516859
301 3 2 0.5897 3.506404 0.826096 29.730505
302 3 1 -1.1794 8.915625 0.000000 29.718750
303 3 2 0.5897 8.353117 0.798110 29.831546
304 3 2 0.5897 9.450153 0.011753 30.544848
305 3 1 -1.1794 5.943750 2.971875 23.775000
306 3 2 0.5897 6.224823 3.334227 24.639683
307 3 2 0.5897 6.666985 2.311172 23.644021
308 3 1 -1.1794 5.943750 8.915625 23.775000
309 3 2 0.5897 5.953409 8.345441 24.577632
310 3 2 0.5897 6.762955 9.444227 23.910054
311 3 1 -1.1794 2.195740 2.195740 25.970740
312 3 2 0.5897 1.930743 1.402781 26.496735
313 3 2 0.5897 2.708046 2.708072 26.637811
314 3 1 -1.1794 9.691760 9.691760 25.970740
315 3 2 0.5897 9.978388 10.516781 26.423501
316 3 2 0.5897 9.116718 10.043814 25.255933
317 3 1 -1.1794 9.691760 2.195740 33.466760
318 3 2 0.5897 9.154281 2.782308 32.879938
319 3 2 0.5897 10.452871 2.782332 33.680926
320 3 1 -1.1794 2.195740 9.691760 33.466760
321 3 2 0.5897 1.433515 9.188865 33.825449
322 3 2 0.5897 2.654073 9.949780 34.308970
323 3 1 -1.1794 8.139490 8.139490 27.523010
324 3 2 0.5897 8.055452 8.606915 28.376005
325 3 2 0.5897 8.845452 8.644310 27.069149
326 3 1 -1.1794 3.748010 3.748010 27.523010
327 3 2 0.5897 4.002365 3.184788 28.294697
328 3 2 0.5897 4.639981 3.970836 27.185372
329 3 1 -1.1794 8.139490 3.748010 31.914490
330 3 2 0.5897 7.353136 4.110945 32.384681
331 3 2 0.5897 8.567214 4.572992 31.585198
332 3 1 -1.1794 3.748010 8.139490 31.914490
333 3 2 0.5897 3.235613 8.731546 32.517287
334 3 2 0.5897 4.491456 7.869471 32.500499
335 3 1 -1.1794 9.691760 9.691760 33.466760
336 3 2 0.5897 9.946137 10.463442 32.903541
337 3 2 0.5897 10.583721 9.354096 33.689592
338 3 1 -1.1794 2.195740 2.195740 33.466760
339 3 2 0.5897 1.409385 2.665929 33.829694
340 3 2 0.5897 2.623464 1.866447 34.291742
341 3 1 -1.1794 2.195740 9.691760 25.970740
342 3 2 0.5897 2.111703 10.544755 26.438166
343 3 2 0.5897 2.901702 9.237898 26.475560
344 3 1 -1.1794 9.691760 2.195740 25.970740
345 3 2 0.5897 9.179361 2.798535 26.562796
346 3 2 0.5897 10.435205 2.781750 25.700722
347 3 1 -1.1794 3.748010 3.748010 31.914490
348 3 2 0.5897 3.210531 3.161188 32.501058
349 3 2 0.5897 4.509120 3.962177 32.501082
350 3 1 -1.1794 8.139490 8.139490 31.914490
351 3 2 0.5897 7.874494 8.665484 31.121530
352 3 2 0.5897 8.651795 8.806563 32.426821
353 3 1 -1.1794 3.748010 8.139490 27.523010
354 3 2 0.5897 4.034637 8.592251 28.348031
355 3 2 0.5897 3.172969 7.424681 27.875063
356 3 1 -1.1794 8.139490 3.748010 27.523010
357 3 2 0.5897 7.377269 4.106705 27.020111
358 3 2 0.5897 8.597826 4.590218 27.781031
359 3 1 -1.1794 0.000000 3.679775 25.160607
360 3 2 0.5897 0.035498 4.459067 25.764457
361 3 2 0.5897 0.798485 3.179090 25.446756
362 3 1 -1.1794 0.000000 8.207725 25.160607
363 3 2 0.5897 -0.758631 8.731842 25.512352
364 3 2 0.5897 0.759372 8.779826 25.445376
365 3 1 -1.1794 0.000000 3.679775 34.276893
366 3 2 0.5897 -0.044368 3.851890 35.244464
367 3 2 0.5897 -0.018559 4.578141 33.884946
368 3 1 -1.1794 0.000000 8.207725 34.276893
369 3 2 0.5897 0.205529 8.274438 35.244986
370 3 2 0.5897 -0.779451 7.629397 34.362942
371 3 1 -1.1794 1.385607 0.000000 27.454775
372 3 2 0.5897 0.417726 -0.094659 27.596134
373 3 2 0.5897 1.754570 -0.099428 28.356968
374 3 1 -1.1794 1.385607 0.000000 31.982725
375 3 2 0.5897 1.716836 0.746754 32.533036
376 3 2 0.5897 1.714706 -0.771043 32.501950
377 3 1 -1.1794 10.501893 0.000000 27.454775
378 3 2 0.5897 9.916808 0.006667 28.247479
379 3 2 0.5897 10.184338 0.799264 26.976735
380 3 1 -1.1794 10.501893 0.000000 31.982725
381 3 2 0.5897 10.305638 0.798873 32.524125
382 3 2 0.5897 11.480928 0.066494 31.891678
383 3 1 -1.1794 3.679775 1.385607 23.775000
384 3 2 0.5897 3.181486 1.660080 24.578227
385 3 2 0.5897 4.465410 1.972311 23.812997
386 3 1 -1.1794 8.207725 1.385607 23.775000
387 3 2 0.5897 8.780854 1.614855 24.544515
388 3 2 0.5897 8.792041 1.653488 23.027135
389 3 1 -1.1794 3.679775 10.501893 23.775000
390 3 2 0.5897 3.869586 11.452377 23.879347
391 3 2 0.5897 4.546334 10.068458 23.887136
392 3 1 -1.1794 8.207725 10.501893 23.775000
393 3 2 0.5897 8.122284 11.478258 23.691574
394 3 2 0.5897 8.687717 10.276857 22.947637
395 3 1 -1.1794 9.623525 5.943750 28.333143
396 3 2 0.5897 9.813335 6.048098 29.283627
397 3 2 0.5897 10.490084 6.055885 27.899708
398 3 1 -1.1794 2.263975 5.943750 28.333143
399 3 2 0.5897 2.178531 5.860324 29.309508
400 3 2 0.5897 2.743967 5.116387 28.108108
401 3 1 -1.1794 9.623525 5.943750 31.104357
402 3 2 0.5897 9.125238 6.746978 31.378833
403 3 2 0.5897 10.409160 5.981743 31.691061
404 3 1 -1.1794 2.263975 5.943750 31.104357
405 3 2 0.5897 2.837102 6.713267 31.333605
406 3 2 0.5897 2.848293 5.195886 31.372239
407 3 1 -1.1794 5.943750 7.329357 26.038975
408 3 2 0.5897 5.185122 7.681106 26.563093
409 3 2 0.5897 6.703124 7.614122 26.611075
410 3 1 -1.1794 5.943750 7.329357 33.398525
411 3 2 0.5897 5.979250 7.933206 34.177818
412 3 2 0.5897 6.742237 7.615502 32.897842
413 3 1 -1.1794 5.943750 4.558143 26.038975
414 3 2 0.5897 6.149264 5.526242 26.105661
415 3 2 0.5897 5.164278 4.644161 25.460681
416 3 1 -1.1794 5.943750 4.558143 33.398525
417 3 2 0.5897 5.899383 5.525713 33.570644
418 3 2 0.5897 5.925192 4.166192 34.296889
419 3 1 -1.1794 7.329357 9.623525 29.718750
420 3 2 0.5897 6.361476 9.764884 29.624090
421 3 2 0.5897 7.698320 10.525718 29.619322
422 3 1 -1.1794 7.329357 2.263975 29.718750
423 3 2 0.5897 7.660588 2.814285 30.465503
424 3 2 0.5897 7.658458 2.783199 28.947706
425 3 1 -1.1794 4.558143 9.623525 29.718750
426 3 2 0.5897 3.973056 10.416229 29.725416
427 3 2 0.5897 4.240588 9.145485 30.518014
428 3 1 -1.1794 4.558143 2.263975 29.718750
429 3 2 0.5897 4.361890 2.805372 30.517625
430 3 2 0.5897 5.537178 2.172928 29.785242
431 3 3 0.0 0.000000 0.000000 23.775000
432 3 3 0.0 5.943750 5.943750 29.718750
433 3 3 0.0 0.000000 2.971875 29.718750
434 3 3 0.0 0.000000 8.915625 29.718750
435 3 3 0.0 5.943750 0.000000 26.746875
436 3 3 0.0 5.943750 0.000000 32.690625
437 3 3 0.0 2.971875 5.943750 23.775000
438 3 3 0.0 8.915625 5.943750 23.775000
439 4 1 -1.1794 0.000000 17.831250 2.971875
440 4 2 0.5897 0.009656 18.633882 2.401692
441 4 2 0.5897 0.819206 17.966305 3.500477
442 4 1 -1.1794 0.000000 17.831250 8.915625
443 4 2 0.5897 0.281067 18.695936 9.277971
444 4 2 0.5897 0.723234 17.700273 8.254920
445 4 1 -1.1794 2.971875 11.887500 5.943750
446 4 2 0.5897 2.409366 12.000295 6.741859
447 4 2 0.5897 3.506404 12.713596 5.955505
448 4 1 -1.1794 8.915625 11.887500 5.943750
449 4 2 0.5897 8.353117 12.685610 6.056546
450 4 2 0.5897 9.450153 11.899253 6.769848
451 4 1 -1.1794 5.943750 14.859375 0.000000
452 4 2 0.5897 6.224823 15.221727 0.864683
453 4 2 0.5897 6.666985 14.198672 -0.130979
454 4 1 -1.1794 5.943750 20.803125 0.000000
455 4 2 0.5897 5.953409 20.232941 0.802632
456 4 2 0.5897 6.762955 21.331727 0.135054
457 4 1 -1.1794 2.195740 14.083240 2.195740
458 4 2 0.5897 1.930743 13.290281 2.721735
459 4 2 0.5897 2.708046 14.595572 2.862811
460 4 1 -1.1794 9.691760 21.579260 2.195740
461 4 2 0.5897 9.978388 22.404281 2.648501
462 4 2 0.5897 9.116718 21.931314 1.480933
463 4 1 -1.1794 9.691760 14.083240 9.691760
464 4 2 0.5897 9.154281 14.669808 9.104938
465 4 2 0.5897 10.452871 14.669832 9.905926
466 4 1 -1.1794 2.195740 21.579260 9.691760
467 4 2 0.5897 1.433515 21.076365 10.050449
468 4 2 0.5897 2.654073 21.837280 10.533970
469 4 1 -1.1794 8.139490 20.026990 3.748010
470 4 2 0.5897 8.055452 20.494415 4.601005
471 4 2 0.5897 8.845452 20.531810 3.294149
472 4 1 -1.1794 3.748010 15.635510 3.748010
473 4 2 0.5897 4.002365 15.072288 4.519697
474 4 2 0.5897 4.639981 15.858336 3.410372
475 4 1 -1.1794 8.139490 15.635510 8.139490
476 4 2 0.5897 7.353136 15.998445 8.609681
477 4 2 0.5897 8.567214 16.460492 7.810198
478 4 1 -1.1794 3.748010 20.026990 8.139490
479 4 2 0.5897 3.235613 20.619046 8.742287
480 4 2 0.5897 4.491456 19.756971 8.725499
481 4 1 -1.1794 9.691760 21.579260 9.691760
482 4 2 0.5897 9.946137 22.350942 9.128541
483 4 2 0.5897 10.583721 21.241596 9.914592
484 4 1 -1.1794 2.195740 14.083240 9.691760
485 4 2 0.5897 1.409385 14.553429 10.054694
486 4 2 0.5897 2.623464 13.753947 10.516742
487 4 1 -1.1794 2.195740 21.579260 2.195740
488 4 2 0.5897 2.111703 22.432255 2.663166
489 4 2 0.5897 2.901702 21.125398 2.700560
490 4 1 -1.1794 9.691760 14.083240 2.195740
491 4 2 0.5897 9.179361 14.686035 2.787796
492 4 2 0.5897 10.435205 14.669250 1.925722
493 4 1 -1.1794 3.748010 15.635510 8.139490
494 4 2 0.5897 3.210531 15.048688 8.726058
495 4 2 0.5897 4.509120 15.849677 8.726082
496 4 1 -1.1794 8.139490 20.026990 8.139490
497 4 2 0.5897 7.874494 20.552984 7.346530
498 4 2 0.5897 8.651795 20.694063 8.651821
499 4 1 -1.1794 3.748010 20.026990 3.748010
500 4 2 0.5897 4.034637 20.479751 4.573031
501 4 2 0.5897 3.172969 19.312181 4.100063
502 4 1 -1.1794 8.139490 15.635510 3.748010
503 4 2 0.5897 7.377269 15.994205 3.245111
504 4 2 0.5897 8.597826 16.477718 4.006031
505 4 1 -1.1794 0.000000 15.567275 1.385607
506 4 2 0.5897 0.035498 16.346567 1.989457
507 4 2 0.5897 0.798485 15.066590 1.671756
508 4 1 -1.1794 0.000000 20.095225 1.385607
509 4 2 0.5897 -0.758631 20.619342 1.737352
510 4 2 0.5897 0.759372 20.667326 1.670376
511 4 1 -1.1794 0.000000 15.567275 10.501893
512 4 2 0.5897 -0.044368 15.739390 11.469464
513 4 2 0.5897 -0.018559 16.465641 10.109946
514 4 1 -1.1794 0.000000 20.095225 10.501893
515 4 2 0.5897 0.205529 20.161938 11.469986
516 4 2 0.5897 -0.779451 19.516897 10.587942
517 4 1 -1.1794 1.385607 11.887500 3.679775
518 4 2 0.5897 0.417726 11.792841 3.821134
519 4 2 0.5897 1.754570 11.788072 4.581968
520 4 1 -1.1794 1.385607 11.887500 8.207725
521 4 2 0.5897 1.716836 12.634254 8.758036
522 4 2 0.5897 1.714706 11.116457 8.726950
523 4 1 -1.1794 10.501893 11.887500 3.679775
524 4 2 0.5897 9.916808 11.894167 4.472479
525 4 2 0.5897 10.184338 12.686764 3.201735
526 4 1 -1.1794 10.501893 11.887500 8.207725
527 4 2 0.5897 10.305638 12.686373 8.749125
528 4 2 0.5897 11.480928 11.953994 8.116678
529 4 1 -1.1794 3.679775 13.273107 0.000000
530 4 2 0.5897 3.181486 13.547580 0.803227
531 4 2 0.5897 4.465410 13.859811 0.037997
532 4 1 -1.1794 8.207725 13.273107 0.000000
533 4 2 0.5897 8.780854 13.502355 0.769515
534 4 2 0.5897 8.792041 13.540988 -0.747865
535 4 1 -1.1794 3.679775 22.389393 0.000000
536 4 2 0.5897 3.869586 23.339877 0.104347
537 4 2 0.5897 4.546334 21.955958 0.112136
538 4 1 -1.1794 8.207725 22.389393 0.000000
539 4 2 0.5897 8.122284 23.365758 -0.083426
540 4 2 0.5897 8.687717 22.164357 -0.827363
541 4 1 -1.1794 9.623525 17.831250 4.558143
542 4 2 0.5897 9.813335 17.935598 5.508627
543 4 2 0.5897 10.490084 17.943385 4.124708
544 4 1 -1.1794 2.263975 17.831250 4.558143
545 4 2 0.5897 2.178531 17.747824 5.534508
546 4 2 0.5897 2.743967 17.003887 4.333108
547 4 1 -1.1794 9.623525 17.831250 7.329357
548 4 2 0.5897 9.125238 18.634478 7.603833
549 4 2 0.5897 10.409160 17.869243 7.916061
550 4 1 -1.1794 2.263975 17.831250 7.329357
551 4 2 0.5897 2.837102 18.600767 7.558605
552 4 2 0.5897 2.848293 17.083386 7.597239
553 4 1 -1.1794 5.943750 19.216857 2.263975
554 4 2 0.5897 5.185122 19.568606 2.788093
555 4 2 0.5897 6.703124 19.501622 2.836075
556 4 1 -1.1794 5.943750 19.216857 9.623525
557 4 2 0.5897 5.979250 19.820706 10.402818
558 4 2 0.5897 6.742237 19.503002 9.122842
559 4 1 -1.1794 5.943750 16.445643 2.263975
560 4 2 0.5897 6.149264 17.413742 2.330661
561 4 2 0.5897 5.164278 16.531661 1.685681
562 4 1 -1.1794 5.943750 16.445643 9.623525
563 4 2 0.5897 5.899383 17.413213 9.795644
564 4 2 0.5897 5.925192 16.053692 10.521889
565 4 1 -1.1794 7.329357 21.511025 5.943750
566 4 2 0.5897 6.361476 21.652384 5.849090
567 4 2 0.5897 7.698320 22.413218 5.844322
568 4 1 -1.1794 7.329357 14.151475 5.943750
569 4 2 0.5897 7.660588 14.701785 6.690503
570 4 2 0.5897 7.658458 14.670699 5.172706
571 4 1 -1.1794 4.558143 21.511025 5.943750
572 4 2 0.5897 3.973056 22.303729 5.950416
573 4 2 0.5897 4.240588 21.032985 6.743014
574 4 1 -1.1794 4.558143 14.151475 5.943750
575 4 2 0.5897 4.361890 14.692872 6.742625
576 4 2 0.5897 5.537178 14.060428 6.010242
577 4 3 0.0 0.000000 11.887500 0.000000
578 4 3 0.0 5.943750 17.831250 5.943750
579 4 3 0.0 0.000000 14.859375 5.943750
580 4 3 0.0 0.000000 20.803125 5.943750
581 4 3 0.0 5.943750 11.887500 2.971875
582 4 3 0.0 5.943750 11.887500 8.915625
583 4 3 0.0 2.971875 17.831250 0.000000
584 4 3 0.0 8.915625 17.831250 0.000000
585 5 1 -1.1794 0.000000 17.831250 14.859375
586 5 2 0.5897 0.009656 18.633882 14.289192
587 5 2 0.5897 0.819206 17.966305 15.387977
588 5 1 -1.1794 0.000000 17.831250 20.803125
589 5 2 0.5897 0.281067 18.695936 21.165471
590 5 2 0.5897 0.723234 17.700273 20.142420
591 5 1 -1.1794 2.971875 11.887500 17.831250
592 5 2 0.5897 2.409366 12.000295 18.629359
593 5 2 0.5897 3.506404 12.713596 17.843005
594 5 1 -1.1794 8.915625 11.887500 17.831250
595 5 2 0.5897 8.353117 12.685610 17.944046
596 5 2 0.5897 9.450153 11.899253 18.657348
597 5 1 -1.1794 5.943750 14.859375 11.887500
598 5 2 0.5897 6.224823 15.221727 12.752183
599 5 2 0.5897 6.666985 14.198672 11.756521
600 5 1 -1.1794 5.943750 20.803125 11.887500
601 5 2 0.5897 5.953409 20.232941 12.690132
602 5 2 0.5897 6.762955 21.331727 12.022554
603 5 1 -1.1794 2.195740 14.083240 14.083240
604 5 2 0.5897 1.930743 13.290281 14.609235
605 5 2 0.5897 2.708046 14.595572 14.750311
606 5 1 -1.1794 9.691760 21.579260 14.083240
607 5 2 0.5897 9.978388 22.404281 14.536001
608 5 2 0.5897 9.116718 21.931314 13.368433
609 5 1 -1.1794 9.691760 14.083240 21.579260
610 5 2 0.5897 9.154281 14.669808 20.992438
611 5 2 0.5897 10.452871 14.669832 21.793426
612 5 1 -1.1794 2.195740 21.579260 21.579260
613 5 2 0.5897 1.433515 21.076365 21.937949
614 5 2 0.5897 2.654073 21.837280 22.421470
615 5 1 -1.1794 8.139490 20.026990 15.635510
616 5 2 0.5897 8.055452 20.494415 16.488505
617 5 2 0.5897 8.845452 20.531810 15.181649
618 5 1 -1.1794 3.748010 15.635510 15.635510
619 5 2 0.5897 4.002365 15.072288 16.407197
620 5 2 0.5897 4.639981 15.858336 15.297872
621 5 1 -1.1794 8.139490 15.635510 20.026990
622 5 2 0.5897 7.353136 15.998445 20.497181
623 5 2 0.5897 8.567214 16.460492 19.697698
624 5 1 -1.1794 3.748010 20.026990 20.026990
625 5 2 0.5897 3.235613 20.619046 20.629787
626 5 2 0.5897 4.491456 19.756971 20.612999
627 5 1 -1.1794 9.691760 21.579260 21.579260
628 5 2 0.5897 9.946137 22.350942 21.016041
629 5 2 0.5897 10.583721 21.241596 21.802092
630 5 1 -1.1794 2.195740 14.083240 21.579260
631 5 2 0.5897 1.409385 14.553429 21.942194
632 5 2 0.5897 2.623464 13.753947 22.404242
633 5 1 -1.1794 2.195740 21.579260 14.083240
634 5 2 0.5897 2.111703 22.432255 14.550666
635 5 2 0.5897 2.901702 21.125398 14.588060
636 5 1 -1.1794 9.691760 14.083240 14.083240
637 5 2 0.5897 9.179361 14.686035 14.675296
638 5 2 0.5897 10.435205 14.669250 13.813222
639 5 1 -1.1794 3.748010 15.635510 20.026990
640 5 2 0.5897 3.210531 15.048688 20.613558
641 5 2 0.5897 4.509120 15.849677 20.613582
642 5 1 -1.1794 8.139490 20.026990 20.026990
643 5 2 0.5897 7.874494 20.552984 19.234030
644 5 2 0.5897 8.651795 20.694063 20.539321
645 5 1 -1.1794 3.748010 20.026990 15.635510
646 5 2 0.5897 4.034637 20.479751 16.460531
647 5 2 0.5897 3.172969 19.312181 15.987563
648 5 1 -1.1794 8.139490 15.635510 15.635510
649 5 2 0.5897 7.377269 15.994205 15.132611
650 5 2 0.5897 8.597826 16.477718 15.893531
651 5 1 -1.1794 0.000000 15.567275 13.273107
652 5 2 0.5897 0.035498 16.346567 13.876957
653 5 2 0.5897 0.798485 15.066590 13.559256
654 5 1 -1.1794 0.000000 20.095225 13.273107
655 5 2 0.5897 -0.758631 20.619342 13.624852
656 5 2 0.5897 0.759372 20.667326 13.557876
657 5 1 -1.1794 0.000000 15.567275 22.389393
658 5 2 0.5897 -0.044368 15.739390 23.356964
659 5 2 0.5897 -0.018559 16.465641 21.997446
660 5 1 -1.1794 0.000000 20.095225 22.389393
661 5 2 0.5897 0.205529 20.161938 23.357486
662 5 2 0.5897 -0.779451 19.516897 22.475442
663 5 1 -1.1794 1.385607 11.887500 15.567275
664 5 2 0.5897 0.417726 11.792841 15.708634
665 5 2 0.5897 1.754570 11.788072 16.469468
666 5 1 -1.1794 1.385607 11.887500 20.095225
667 5 2 0.5897 1.716836 12.634254 20.645536
668 5 2 0.5897 1.714706 11.116457 20.614450
669 5 1 -1.1794 10.501893 11.887500 15.567275
670 5 2 0.5897 9.916808 11.894167 16.359979
671 5 2 0.5897 10.184338 12.686764 15.089235
672 5 1 -1.1794 10.501893 11.887500 20.095225
673 5 2 0.5897 10.305638 12.686373 20.636625
674 5 2 0.5897 11.480928 11.953994 20.004178
675 5 1 -1.1794 3.679775 13.273107 11.887500
676 5 2 0.5897 3.181486 13.547580 12.690727
677 5 2 0.5897 4.465410 13.859811 11.925497
678 5 1 -1.1794 8.207725 13.273107 11.887500
679 5 2 0.5897 8.780854 13.502355 12.657015
680 5 2 0.5897 8.792041 13.540988 11.139635
681 5 1 -1.1794 3.679775 22.389393 11.887500
682 5 2 0.5897 3.869586 23.339877 11.991847
683 5 2 0.5897 4.546334 21.955958 11.999636
684 5 1 -1.1794 8.207725 22.389393 11.887500
685 5 2 0.5897 8.122284 23.365758 11.804074
686 5 2 0.5897 8.687717 22.164357 11.060137
687 5 1 -1.1794 9.623525 17.831250 16.445643
688 5 2 0.5897 9.813335 17.935598 17.396127
689 5 2 0.5897 10.490084 17.943385 16.012208
690 5 1 -1.1794 2.263975 17.831250 16.445643
691 5 2 0.5897 2.178531 17.747824 17.422008
692 5 2 0.5897 2.743967 17.003887 16.220608
693 5 1 -1.1794 9.623525 17.831250 19.216857
694 5 2 0.5897 9.125238 18.634478 19.491333
695 5 2 0.5897 10.409160 17.869243 19.803561
696 5 1 -1.1794 2.263975 17.831250 19.216857
697 5 2 0.5897 2.837102 18.600767 19.446105
698 5 2 0.5897 2.848293 17.083386 19.484739
699 5 1 -1.1794 5.943750 19.216857 14.151475
700 5 2 0.5897 5.185122 19.568606 14.675593
701 5 2 0.5897 6.703124 19.501622 14.723575
702 5 1 -1.1794 5.943750 19.216857 21.511025
703 5 2 0.5897 5.979250 19.820706 22.290318
704 5 2 0.5897 6.742237 19.503002 21.010342
705 5 1 -1.1794 5.943750 16.445643 14.151475
706 5 2 0.5897 6.149264 17.413742 14.218161
707 5 2 0.5897 5.164278 16.531661 13.573181
708 5 1 -1.1794 5.943750 16.445643 21.511025
709 5 2 0.5897 5.899383 17.413213 21.683144
710 5 2 0.5897 5.925192 16.053692 22.409389
711 5 1 -1.1794 7.329357 21.511025 17.831250
712 5 2 0.5897 6.361476 21.652384 17.736590
713 5 2 0.5897 7.698320 22.413218 17.731822
714 5 1 -1.1794 7.329357 14.151475 17.831250
715 5 2 0.5897 7.660588 14.701785 18.578003
716 5 2 0.5897 7.658458 14.670699 17.060206
717 5 1 -1.1794 4.558143 21.511025 17.831250
718 5 2 0.5897 3.973056 22.303729 17.837916
719 5 2 0.5897 4.240588 21.032985 18.630514
720 5 1 -1.1794 4.558143 14.151475 17.831250
721 5 2 0.5897 4.361890 14.692872 18.630125
722 5 2 0.5897 5.537178 14.060428 17.897742
723 5 3 0.0 0.000000 11.887500 11.887500
724 5 3 0.0 5.943750 17.831250 17.831250
725 5 3 0.0 0.000000 14.859375 17.831250
726 5 3 0.0 0.000000 20.803125 17.831250
727 5 3 0.0 5.943750 11.887500 14.859375
728 5 3 0.0 5.943750 11.887500 20.803125
729 5 3 0.0 2.971875 17.831250 11.887500
730 5 3 0.0 8.915625 17.831250 11.887500
731 6 1 -1.1794 0.000000 17.831250 26.746875
732 6 2 0.5897 0.009656 18.633882 26.176692
733 6 2 0.5897 0.819206 17.966305 27.275477
734 6 1 -1.1794 0.000000 17.831250 32.690625
735 6 2 0.5897 0.281067 18.695936 33.052971
736 6 2 0.5897 0.723234 17.700273 32.029920
737 6 1 -1.1794 2.971875 11.887500 29.718750
738 6 2 0.5897 2.409366 12.000295 30.516859
739 6 2 0.5897 3.506404 12.713596 29.730505
740 6 1 -1.1794 8.915625 11.887500 29.718750
741 6 2 0.5897 8.353117 12.685610 29.831546
742 6 2 0.5897 9.450153 11.899253 30.544848
743 6 1 -1.1794 5.943750 14.859375 23.775000
744 6 2 0.5897 6.224823 15.221727 24.639683
745 6 2 0.5897 6.666985 14.198672 23.644021
746 6 1 -1.1794 5.943750 20.803125 23.775000
747 6 2 0.5897 5.953409 20.232941 24.577632
748 6 2 0.5897 6.762955 21.331727 23.910054
749 6 1 -1.1794 2.195740 14.083240 25.970740
750 6 2 0.5897 1.930743 13.290281 26.496735
751 6 2 0.5897 2.708046 14.595572 26.637811
752 6 1 -1.1794 9.691760 21.579260 25.970740
753 6 2 0.5897 9.978388 22.404281 26.423501
754 6 2 0.5897 9.116718 21.931314 25.255933
755 6 1 -1.1794 9.691760 14.083240 33.466760
756 6 2 0.5897 9.154281 14.669808 32.879938
757 6 2 0.5897 10.452871 14.669832 33.680926
758 6 1 -1.1794 2.195740 21.579260 33.466760
759 6 2 0.5897 1.433515 21.076365 33.825449
760 6 2 0.5897 2.654073 21.837280 34.308970
761 6 1 -1.1794 8.139490 20.026990 27.523010
762 6 2 0.5897 8.055452 20.494415 28.376005
763 6 2 0.5897 8.845452 20.531810 27.069149
764 6 1 -1.1794 3.748010 15.635510 27.523010
765 6 2 0.5897 4.002365 15.072288 28.294697
766 6 2 0.5897 4.639981 15.858336 27.185372
767 6 1 -1.1794 8.139490 15.635510 31.914490
768 6 2 0.5897 7.353136 15.998445 32.384681
769 6 2 0.5897 8.567214 16.460492 31.585198
770 6 1 -1.1794 3.748010 20.026990 31.914490
771 6 2 0.5897 3.235613 20.619046 32.517287
772 6 2 0.5897 4.491456 19.756971 32.500499
773 6 1 -1.1794 9.691760 21.579260 33.466760
774 6 2 0.5897 9.946137 22.350942 32.903541
775 6 2 0.5897 10.583721 21.241596 33.689592
776 6 1 -1.1794 2.195740 14.083240 33.466760
777 6 2 0.5897 1.409385 14.553429 33.829694
778 6 2 0.5897 2.623464 13.753947 34.291742
779 6 1 -1.1794 2.195740 21.579260 25.970740
780 6 2 0.5897 2.111703 22.432255 26.438166
781 6 2 0.5897 2.901702 21.125398 26.475560
782 6 1 -1.1794 9.691760 14.083240 25.970740
783 6 2 0.5897 9.179361 14.686035 26.562796
784 6 2 0.5897 10.435205 14.669250 25.700722
785 6 1 -1.1794 3.748010 15.635510 31.914490
786 6 2 0.5897 3.210531 15.048688 32.501058
787 6 2 0.5897 4.509120 15.849677 32.501082
788 6 1 -1.1794 8.139490 20.026990 31.914490
789 6 2 0.5897 7.874494 20.552984 31.121530
790 6 2 0.5897 8.651795 20.694063 32.426821
791 6 1 -1.1794 3.748010 20.026990 27.523010
792 6 2 0.5897 4.034637 20.479751 28.348031
793 6 2 0.5897 3.172969 19.312181 27.875063
794 6 1 -1.1794 8.139490 15.635510 27.523010
795 6 2 0.5897 7.377269 15.994205 27.020111
796 6 2 0.5897 8.597826 16.477718 27.781031
797 6 1 -1.1794 0.000000 15.567275 25.160607
798 6 2 0.5897 0.035498 16.346567 25.764457
799 6 2 0.5897 0.798485 15.066590 25.446756
800 6 1 -1.1794 0.000000 20.095225 25.160607
801 6 2 0.5897 -0.758631 20.619342 25.512352
802 6 2 0.5897 0.759372 20.667326 25.445376
803 6 1 -1.1794 0.000000 15.567275 34.276893
804 6 2 0.5897 -0.044368 15.739390 35.244464
805 6 2 0.5897 -0.018559 16.465641 33.884946
806 6 1 -1.1794 0.000000 20.095225 34.276893
807 6 2 0.5897 0.205529 20.161938 35.244986
808 6 2 0.5897 -0.779451 19.516897 34.362942
809 6 1 -1.1794 1.385607 11.887500 27.454775
810 6 2 0.5897 0.417726 11.792841 27.596134
811 6 2 0.5897 1.754570 11.788072 28.356968
812 6 1 -1.1794 1.385607 11.887500 31.982725
813 6 2 0.5897 1.716836 12.634254 32.533036
814 6 2 0.5897 1.714706 11.116457 32.501950
815 6 1 -1.1794 10.501893 11.887500 27.454775
816 6 2 0.5897 9.916808 11.894167 28.247479
817 6 2 0.5897 10.184338 12.686764 26.976735
818 6 1 -1.1794 10.501893 11.887500 31.982725
819 6 2 0.5897 10.305638 12.686373 32.524125
820 6 2 0.5897 11.480928 11.953994 31.891678
821 6 1 -1.1794 3.679775 13.273107 23.775000
822 6 2 0.5897 3.181486 13.547580 24.578227
823 6 2 0.5897 4.465410 13.859811 23.812997
824 6 1 -1.1794 8.207725 13.273107 23.775000
825 6 2 0.5897 8.780854 13.502355 24.544515
826 6 2 0.5897 8.792041 13.540988 23.027135
827 6 1 -1.1794 3.679775 22.389393 23.775000
828 6 2 0.5897 3.869586 23.339877 23.879347
829 6 2 0.5897 4.546334 21.955958 23.887136
830 6 1 -1.1794 8.207725 22.389393 23.775000
831 6 2 0.5897 8.122284 23.365758 23.691574
832 6 2 0.5897 8.687717 22.164357 22.947637
833 6 1 -1.1794 9.623525 17.831250 28.333143
834 6 2 0.5897 9.813335 17.935598 29.283627
835 6 2 0.5897 10.490084 17.943385 27.899708
836 6 1 -1.1794 2.263975 17.831250 28.333143
837 6 2 0.5897 2.178531 17.747824 29.309508
838 6 2 0.5897 2.743967 17.003887 28.108108
839 6 1 -1.1794 9.623525 17.831250 31.104357
840 6 2 0.5897 9.125238 18.634478 31.378833
841 6 2 0.5897 10.409160 17.869243 31.691061
842 6 1 -1.1794 2.263975 17.831250 31.104357
843 6 2 0.5897 2.837102 18.600767 31.333605
844 6 2 0.5897 2.848293 17.083386 31.372239
845 6 1 -1.1794 5.943750 19.216857 26.038975
846 6 2 0.5897 5.185122 19.568606 26.563093
847 6 2 0.5897 6.703124 19.501622 26.611075
848 6 1 -1.1794 5.943750 19.216857 33.398525
849 6 2 0.5897 5.979250 19.820706 34.177818
850 6 2 0.5897 6.742237 19.503002 32.897842
851 6 1 -1.1794 5.943750 16.445643 26.038975
852 6 2 0.5897 6.149264 17.413742 26.105661
853 6 2 0.5897 5.164278 16.531661 25.460681
854 6 1 -1.1794 5.943750 16.445643 33.398525
855 6 2 0.5897 5.899383 17.413213 33.570644
856 6 2 0.5897 5.925192 16.053692 34.296889
857 6 1 -1.1794 7.329357 21.511025 29.718750
858 6 2 0.5897 6.361476 21.652384 29.624090
859 6 2 0.5897 7.698320 22.413218 29.619322
860 6 1 -1.1794 7.329357 14.151475 29.718750
861 6 2 0.5897 7.660588 14.701785 30.465503
862 6 2 0.5897 7.658458 14.670699 28.947706
863 6 1 -1.1794 4.558143 21.511025 29.718750
864 6 2 0.5897 3.973056 22.303729 29.725416
865 6 2 0.5897 4.240588 21.032985 30.518014
866 6 1 -1.1794 4.558143 14.151475 29.718750
867 6 2 0.5897 4.361890 14.692872 30.517625
868 6 2 0.5897 5.537178 14.060428 29.785242
869 6 3 0.0 0.000000 11.887500 23.775000
870 6 3 0.0 5.943750 17.831250 29.718750
871 6 3 0.0 0.000000 14.859375 29.718750
872 6 3 0.0 0.000000 20.803125 29.718750
873 6 3 0.0 5.943750 11.887500 26.746875
874 6 3 0.0 5.943750 11.887500 32.690625
875 6 3 0.0 2.971875 17.831250 23.775000
876 6 3 0.0 8.915625 17.831250 23.775000
877 7 1 -1.1794 0.000000 29.718750 2.971875
878 7 2 0.5897 0.009656 30.521382 2.401692
879 7 2 0.5897 0.819206 29.853805 3.500477
880 7 1 -1.1794 0.000000 29.718750 8.915625
881 7 2 0.5897 0.281067 30.583436 9.277971
882 7 2 0.5897 0.723234 29.587773 8.254920
883 7 1 -1.1794 2.971875 23.775000 5.943750
884 7 2 0.5897 2.409366 23.887795 6.741859
885 7 2 0.5897 3.506404 24.601096 5.955505
886 7 1 -1.1794 8.915625 23.775000 5.943750
887 7 2 0.5897 8.353117 24.573110 6.056546
888 7 2 0.5897 9.450153 23.786753 6.769848
889 7 1 -1.1794 5.943750 26.746875 0.000000
890 7 2 0.5897 6.224823 27.109227 0.864683
891 7 2 0.5897 6.666985 26.086172 -0.130979
892 7 1 -1.1794 5.943750 32.690625 0.000000
893 7 2 0.5897 5.953409 32.120441 0.802632
894 7 2 0.5897 6.762955 33.219227 0.135054
895 7 1 -1.1794 2.195740 25.970740 2.195740
896 7 2 0.5897 1.930743 25.177781 2.721735
897 7 2 0.5897 2.708046 26.483072 2.862811
898 7 1 -1.1794 9.691760 33.466760 2.195740
899 7 2 0.5897 9.978388 34.291781 2.648501
900 7 2 0.5897 9.116718 33.818814 1.480933
901 7 1 -1.1794 9.691760 25.970740 9.691760
902 7 2 0.5897 9.154281 26.557308 9.104938
903 7 2 0.5897 10.452871 26.557332 9.905926
904 7 1 -1.1794 2.195740 33.466760 9.691760
905 7 2 0.5897 1.433515 32.963865 10.050449
906 7 2 0.5897 2.654073 33.724780 10.533970
907 7 1 -1.1794 8.139490 31.914490 3.748010
908 7 2 0.5897 8.055452 32.381915 4.601005
909 7 2 0.5897 8.845452 32.419310 3.294149
910 7 1 -1.1794 3.748010 27.523010 3.748010
911 7 2 0.5897 4.002365 26.959788 4.519697
912 7 2 0.5897 4.639981 27.745836 3.410372
913 7 1 -1.1794 8.139490 27.523010 8.139490
914 7 2 0.5897 7.353136 27.885945 8.609681
915 7 2 0.5897 8.567214 28.347992 7.810198
916 7 1 -1.1794 3.748010 31.914490 8.139490
917 7 2 0.5897 3.235613 32.506546 8.742287
918 7 2 0.5897 4.491456 31.644471 8.725499
919 7 1 -1.1794 9.691760 33.466760 9.691760
920 7 2 0.5897 9.946137 34.238442 9.128541
921 7 2 0.5897 10.583721 33.129096 9.914592
922 7 1 -1.1794 2.195740 25.970740 9.691760
923 7 2 0.5897 1.409385 26.440929 10.054694
924 7 2 0.5897 2.623464 25.641447 10.516742
925 7 1 -1.1794 2.195740 33.466760 2.195740
926 7 2 0.5897 2.111703 34.319755 2.663166
927 7 2 0.5897 2.901702 33.012898 2.700560
928 7 1 -1.1794 9.691760 25.970740 2.195740
929 7 2 0.5897 9.179361 26.573535 2.787796
930 7 2 0.5897 10.435205 26.556750 1.925722
931 7 1 -1.1794 3.748010 27.523010 8.139490
932 7 2 0.5897 3.210531 26.936188 8.726058
933 7 2 0.5897 4.509120 27.737177 8.726082
934 7 1 -1.1794 8.139490 31.914490 8.139490
935 7 2 0.5897 7.874494 32.440484 7.346530
936 7 2 0.5897 8.651795 32.581563 8.651821
937 7 1 -1.1794 3.748010 31.914490 3.748010
938 7 2 0.5897 4.034637 32.367251 4.573031
939 7 2 0.5897 3.172969 31.199681 4.100063
940 7 1 -1.1794 8.139490 27.523010 3.748010
941 7 2 0.5897 7.377269 27.881705 3.245111
942 7 2 0.5897 8.597826 28.365218 4.006031
943 7 1 -1.1794 0.000000 27.454775 1.385607
944 7 2 0.5897 0.035498 28.234067 1.989457
945 7 2 0.5897 0.798485 26.954090 1.671756
946 7 1 -1.1794 0.000000 31.982725 1.385607
947 7 2 0.5897 -0.758631 32.506842 1.737352
948 7 2 0.5897 0.759372 32.554826 1.670376
949 7 1 -1.1794 0.000000 27.454775 10.501893
950 7 2 0.5897 -0.044368 27.626890 11.469464
951 7 2 0.5897 -0.018559 28.353141 10.109946
952 7 1 -1.1794 0.000000 31.982725 10.501893
953 7 2 0.5897 0.205529 32.049438 11.469986
954 7 2 0.5897 -0.779451 31.404397 10.587942
955 7 1 -1.1794 1.385607 23.775000 3.679775
956 7 2 0.5897 0.417726 23.680341 3.821134
957 7 2 0.5897 1.754570 23.675572 4.581968
958 7 1 -1.1794 1.385607 23.775000 8.207725
959 7 2 0.5897 1.716836 24.521754 8.758036
960 7 2 0.5897 1.714706 23.003957 8.726950
961 7 1 -1.1794 10.501893 23.775000 3.679775
962 7 2 0.5897 9.916808 23.781667 4.472479
963 7 2 0.5897 10.184338 24.574264 3.201735
964 7 1 -1.1794 10.501893 23.775000 8.207725
965 7 2 0.5897 10.305638 24.573873 8.749125
966 7 2 0.5897 11.480928 23.841494 8.116678
967 7 1 -1.1794 3.679775 25.160607 0.000000
968 7 2 0.5897 3.181486 25.435080 0.803227
969 7 2 0.5897 4.465410 25.747311 0.037997
970 7 1 -1.1794 8.207725 25.160607 0.000000
971 7 2 0.5897 8.780854 25.389855 0.769515
972 7 2 0.5897 8.792041 25.428488 -0.747865
973 7 1 -1.1794 3.679775 34.276893 0.000000
974 7 2 0.5897 3.869586 35.227377 0.104347
975 7 2 0.5897 4.546334 33.843458 0.112136
976 7 1 -1.1794 8.207725 34.276893 0.000000
977 7 2 0.5897 8.122284 35.253258 -0.083426
978 7 2 0.5897 8.687717 34.051857 -0.827363
979 7 1 -1.1794 9.623525 29.718750 4.558143
980 7 2 0.5897 9.813335 29.823098 5.508627
981 7 2 0.5897 10.490084 29.830885 4.124708
982 7 1 -1.1794 2.263975 29.718750 4.558143
983 7 2 0.5897 2.178531 29.635324 5.534508
984 7 2 0.5897 2.743967 28.891387 4.333108
985 7 1 -1.1794 9.623525 29.718750 7.329357
986 7 2 0.5897 9.125238 30.521978 7.603833
987 7 2 0.5897 10.409160 29.756743 7.916061
988 7 1 -1.1794 2.263975 29.718750 7.329357
989 7 2 0.5897 2.837102 30.488267 7.558605
990 7 2 0.5897 2.848293 28.970886 7.597239
991 7 1 -1.1794 5.943750 31.104357 2.263975
992 7 2 0.5897 5.185122 31.456106 2.788093
993 7 2 0.5897 6.703124 31.389122 2.836075
994 7 1 -1.1794 5.943750 31.104357 9.623525
995 7 2 0.5897 5.979250 31.708206 10.402818
996 7 2 0.5897 6.742237 31.390502 9.122842
997 7 1 -1.1794 5.943750 28.333143 2.263975
998 7 2 0.5897 6.149264 29.301242 2.330661
999 7 2 0.5897 5.164278 28.419161 1.685681
1000 7 1 -1.1794 5.943750 28.333143 9.623525
1001 7 2 0.5897 5.899383 29.300713 9.795644
1002 7 2 0.5897 5.925192 27.941192 10.521889
1003 7 1 -1.1794 7.329357 33.398525 5.943750
1004 7 2 0.5897 6.361476 33.539884 5.849090
1005 7 2 0.5897 7.698320 34.300718 5.844322
1006 7 1 -1.1794 7.329357 26.038975 5.943750
1007 7 2 0.5897 7.660588 26.589285 6.690503
1008 7 2 0.5897 7.658458 26.558199 5.172706
1009 7 1 -1.1794 4.558143 33.398525 5.943750
1010 7 2 0.5897 3.973056 34.191229 5.950416
1011 7 2 0.5897 4.240588 32.920485 6.743014
1012 7 1 -1.1794 4.558143 26.038975 5.943750
1013 7 2 0.5897 4.361890 26.580372 6.742625
1014 7 2 0.5897 5.537178 25.947928 6.010242
1015 7 3 0.0 0.000000 23.775000 0.000000
1016 7 3 0.0 5.943750 29.718750 5.943750
1017 7 3 0.0 0.000000 26.746875 5.943750
1018 7 3 0.0 0.000000 32.690625 5.943750
1019 7 3 0.0 5.943750 23.775000 2.971875
1020 7 3 0.0 5.943750 23.775000 8.915625
1021 7 3 0.0 2.971875 29.718750 0.000000
1022 7 3 0.0 8.915625 29.718750 0.000000
1023 8 1 -1.1794 0.000000 29.718750 14.859375
1024 8 2 0.5897 0.009656 30.521382 14.289192
1025 8 2 0.5897 0.819206 29.853805 15.387977
1026 8 1 -1.1794 0.000000 29.718750 20.803125
1027 8 2 0.5897 0.281067 30.583436 21.165471
1028 8 2 0.5897 0.723234 29.587773 20.142420
1029 8 1 -1.1794 2.971875 23.775000 17.831250
1030 8 2 0.5897 2.409366 23.887795 18.629359
1031 8 2 0.5897 3.506404 24.601096 17.843005
1032 8 1 -1.1794 8.915625 23.775000 17.831250
1033 8 2 0.5897 8.353117 24.573110 17.944046
1034 8 2 0.5897 9.450153 23.786753 18.657348
1035 8 1 -1.1794 5.943750 26.746875 11.887500
1036 8 2 0.5897 6.224823 27.109227 12.752183
1037 8 2 0.5897 6.666985 26.086172 11.756521
1038 8 1 -1.1794 5.943750 32.690625 11.887500
1039 8 2 0.5897 5.953409 32.120441 12.690132
1040 8 2 0.5897 6.762955 33.219227 12.022554
1041 8 1 -1.1794 2.195740 25.970740 14.083240
1042 8 2 0.5897 1.930743 25.177781 14.609235
1043 8 2 0.5897 2.708046 26.483072 14.750311
1044 8 1 -1.1794 9.691760 33.466760 14.083240
1045 8 2 0.5897 9.978388 34.291781 14.536001
1046 8 2 0.5897 9.116718 33.818814 13.368433
1047 8 1 -1.1794 9.691760 25.970740 21.579260
1048 8 2 0.5897 9.154281 26.557308 20.992438
1049 8 2 0.5897 10.452871 26.557332 21.793426
1050 8 1 -1.1794 2.195740 33.466760 21.579260
1051 8 2 0.5897 1.433515 32.963865 21.937949
1052 8 2 0.5897 2.654073 33.724780 22.421470
1053 8 1 -1.1794 8.139490 31.914490 15.635510
1054 8 2 0.5897 8.055452 32.381915 16.488505
1055 8 2 0.5897 8.845452 32.419310 15.181649
1056 8 1 -1.1794 3.748010 27.523010 15.635510
1057 8 2 0.5897 4.002365 26.959788 16.407197
1058 8 2 0.5897 4.639981 27.745836 15.297872
1059 8 1 -1.1794 8.139490 27.523010 20.026990
1060 8 2 0.5897 7.353136 27.885945 20.497181
1061 8 2 0.5897 8.567214 28.347992 19.697698
1062 8 1 -1.1794 3.748010 31.914490 20.026990
1063 8 2 0.5897 3.235613 32.506546 20.629787
1064 8 2 0.5897 4.491456 31.644471 20.612999
1065 8 1 -1.1794 9.691760 33.466760 21.579260
1066 8 2 0.5897 9.946137 34.238442 21.016041
1067 8 2 0.5897 10.583721 33.129096 21.802092
1068 8 1 -1.1794 2.195740 25.970740 21.579260
1069 8 2 0.5897 1.409385 26.440929 21.942194
1070 8 2 0.5897 2.623464 25.641447 22.404242
1071 8 1 -1.1794 2.195740 33.466760 14.083240
1072 8 2 0.5897 2.111703 34.319755 14.550666
1073 8 2 0.5897 2.901702 33.012898 14.588060
1074 8 1 -1.1794 9.691760 25.970740 14.083240
1075 8 2 0.5897 9.179361 26.573535 14.675296
1076 8 2 0.5897 10.435205 26.556750 13.813222
1077 8 1 -1.1794 3.748010 27.523010 20.026990
1078 8 2 0.5897 3.210531 26.936188 20.613558
1079 8 2 0.5897 4.509120 27.737177 20.613582
1080 8 1 -1.1794 8.139490 31.914490 20.026990
1081 8 2 0.5897 7.874494 32.440484 19.234030
1082 8 2 0.5897 8.651795 32.581563 20.539321
1083 8 1 -1.1794 3.748010 31.914490 15.635510
1084 8 2 0.5897 4.034637 32.367251 16.460531
1085 8 2 0.5897 3.172969 31.199681 15.987563
1086 8 1 -1.1794 8.139490 27.523010 15.635510
1087 8 2 0.5897 7.377269 27.881705 15.132611
1088 8 2 0.5897 8.597826 28.365218 15.893531
1089 8 1 -1.1794 0.000000 27.454775 13.273107
1090 8 2 0.5897 0.035498 28.234067 13.876957
1091 8 2 0.5897 0.798485 26.954090 13.559256
1092 8 1 -1.1794 0.000000 31.982725 13.273107
1093 8 2 0.5897 -0.758631 32.506842 13.624852
1094 8 2 0.5897 0.759372 32.554826 13.557876
1095 8 1 -1.1794 0.000000 27.454775 22.389393
1096 8 2 0.5897 -0.044368 27.626890 23.356964
1097 8 2 0.5897 -0.018559 28.353141 21.997446
1098 8 1 -1.1794 0.000000 31.982725 22.389393
1099 8 2 0.5897 0.205529 32.049438 23.357486
1100 8 2 0.5897 -0.779451 31.404397 22.475442
1101 8 1 -1.1794 1.385607 23.775000 15.567275
1102 8 2 0.5897 0.417726 23.680341 15.708634
1103 8 2 0.5897 1.754570 23.675572 16.469468
1104 8 1 -1.1794 1.385607 23.775000 20.095225
1105 8 2 0.5897 1.716836 24.521754 20.645536
1106 8 2 0.5897 1.714706 23.003957 20.614450
1107 8 1 -1.1794 10.501893 23.775000 15.567275
1108 8 2 0.5897 9.916808 23.781667 16.359979
1109 8 2 0.5897 10.184338 24.574264 15.089235
1110 8 1 -1.1794 10.501893 23.775000 20.095225
1111 8 2 0.5897 10.305638 24.573873 20.636625
1112 8 2 0.5897 11.480928 23.841494 20.004178
1113 8 1 -1.1794 3.679775 25.160607 11.887500
1114 8 2 0.5897 3.181486 25.435080 12.690727
1115 8 2 0.5897 4.465410 25.747311 11.925497
1116 8 1 -1.1794 8.207725 25.160607 11.887500
1117 8 2 0.5897 8.780854 25.389855 12.657015
1118 8 2 0.5897 8.792041 25.428488 11.139635
1119 8 1 -1.1794 3.679775 34.276893 11.887500
1120 8 2 0.5897 3.869586 35.227377 11.991847
1121 8 2 0.5897 4.546334 33.843458 11.999636
1122 8 1 -1.1794 8.207725 34.276893 11.887500
1123 8 2 0.5897 8.122284 35.253258 11.804074
1124 8 2 0.5897 8.687717 34.051857 11.060137
1125 8 1 -1.1794 9.623525 29.718750 16.445643
1126 8 2 0.5897 9.813335 29.823098 17.396127
1127 8 2 0.5897 10.490084 29.830885 16.012208
1128 8 1 -1.1794 2.263975 29.718750 16.445643
1129 8 2 0.5897 2.178531 29.635324 17.422008
1130 8 2 0.5897 2.743967 28.891387 16.220608
1131 8 1 -1.1794 9.623525 29.718750 19.216857
1132 8 2 0.5897 9.125238 30.521978 19.491333
1133 8 2 0.5897 10.409160 29.756743 19.803561
1134 8 1 -1.1794 2.263975 29.718750 19.216857
1135 8 2 0.5897 2.837102 30.488267 19.446105
1136 8 2 0.5897 2.848293 28.970886 19.484739
1137 8 1 -1.1794 5.943750 31.104357 14.151475
1138 8 2 0.5897 5.185122 31.456106 14.675593
1139 8 2 0.5897 6.703124 31.389122 14.723575
1140 8 1 -1.1794 5.943750 31.104357 21.511025
1141 8 2 0.5897 5.979250 31.708206 22.290318
1142 8 2 0.5897 6.742237 31.390502 21.010342
1143 8 1 -1.1794 5.943750 28.333143 14.151475
1144 8 2 0.5897 6.149264 29.301242 14.218161
1145 8 2 0.5897 5.164278 28.419161 13.573181
1146 8 1 -1.1794 5.943750 28.333143 21.511025
1147 8 2 0.5897 5.899383 29.300713 21.683144
1148 8 2 0.5897 5.925192 27.941192 22.409389
1149 8 1 -1.1794 7.329357 33.398525 17.831250
1150 8 2 0.5897 6.361476 33.539884 17.736590
1151 8 2 0.5897 7.698320 34.300718 17.731822
1152 8 1 -1.1794 7.329357 26.038975 17.831250
1153 8 2 0.5897 7.660588 26.589285 18.578003
1154 8 2 0.5897 7.658458 26.558199 17.060206
1155 8 1 -1.1794 4.558143 33.398525 17.831250
1156 8 2 0.5897 3.973056 34.191229 17.837916
1157 8 2 0.5897 4.240588 32.920485 18.630514
1158 8 1 -1.1794 4.558143 26.038975 17.831250
1159 8 2 0.5897 4.361890 26.580372 18.630125
1160 8 2 0.5897 5.537178 25.947928 17.897742
1161 8 3 0.0 0.000000 23.775000 11.887500
1162 8 3 0.0 5.943750 29.718750 17.831250
1163 8 3 0.0 0.000000 26.746875 17.831250
1164 8 3 0.0 0.000000 32.690625 17.831250
1165 8 3 0.0 5.943750 23.775000 14.859375
1166 8 3 0.0 5.943750 23.775000 20.803125
1167 8 3 0.0 2.971875 29.718750 11.887500
1168 8 3 0.0 8.915625 29.718750 11.887500
1169 9 1 -1.1794 0.000000 29.718750 26.746875
1170 9 2 0.5897 0.009656 30.521382 26.176692
1171 9 2 0.5897 0.819206 29.853805 27.275477
1172 9 1 -1.1794 0.000000 29.718750 32.690625
1173 9 2 0.5897 0.281067 30.583436 33.052971
1174 9 2 0.5897 0.723234 29.587773 32.029920
1175 9 1 -1.1794 2.971875 23.775000 29.718750
1176 9 2 0.5897 2.409366 23.887795 30.516859
1177 9 2 0.5897 3.506404 24.601096 29.730505
1178 9 1 -1.1794 8.915625 23.775000 29.718750
1179 9 2 0.5897 8.353117 24.573110 29.831546
1180 9 2 0.5897 9.450153 23.786753 30.544848
1181 9 1 -1.1794 5.943750 26.746875 23.775000
1182 9 2 0.5897 6.224823 27.109227 24.639683
1183 9 2 0.5897 6.666985 26.086172 23.644021
1184 9 1 -1.1794 5.943750 32.690625 23.775000
1185 9 2 0.5897 5.953409 32.120441 24.577632
1186 9 2 0.5897 6.762955 33.219227 23.910054
1187 9 1 -1.1794 2.195740 25.970740 25.970740
1188 9 2 0.5897 1.930743 25.177781 26.496735
1189 9 2 0.5897 2.708046 26.483072 26.637811
1190 9 1 -1.1794 9.691760 33.466760 25.970740
1191 9 2 0.5897 9.978388 34.291781 26.423501
1192 9 2 0.5897 9.116718 33.818814 25.255933
1193 9 1 -1.1794 9.691760 25.970740 33.466760
1194 9 2 0.5897 9.154281 26.557308 32.879938
1195 9 2 0.5897 10.452871 26.557332 33.680926
1196 9 1 -1.1794 2.195740 33.466760 33.466760
1197 9 2 0.5897 1.433515 32.963865 33.825449
1198 9 2 0.5897 2.654073 33.724780 34.308970
1199 9 1 -1.1794 8.139490 31.914490 27.523010
1200 9 2 0.5897 8.055452 32.381915 28.376005
1201 9 2 0.5897 8.845452 32.419310 27.069149
1202 9 1 -1.1794 3.748010 27.523010 27.523010
1203 9 2 0.5897 4.002365 26.959788 28.294697
1204 9 2 0.5897 4.639981 27.745836 27.185372
1205 9 1 -1.1794 8.139490 27.523010 31.914490
1206 9 2 0.5897 7.353136 27.885945 32.384681
1207 9 2 0.5897 8.567214 28.347992 31.585198
1208 9 1 -1.1794 3.748010 31.914490 31.914490
1209 9 2 0.5897 3.235613 32.506546 32.517287
1210 9 2 0.5897 4.491456 31.644471 32.500499
1211 9 1 -1.1794 9.691760 33.466760 33.466760
1212 9 2 0.5897 9.946137 34.238442 32.903541
1213 9 2 0.5897 10.583721 33.129096 33.689592
1214 9 1 -1.1794 2.195740 25.970740 33.466760
1215 9 2 0.5897 1.409385 26.440929 33.829694
1216 9 2 0.5897 2.623464 25.641447 34.291742
1217 9 1 -1.1794 2.195740 33.466760 25.970740
1218 9 2 0.5897 2.111703 34.319755 26.438166
1219 9 2 0.5897 2.901702 33.012898 26.475560
1220 9 1 -1.1794 9.691760 25.970740 25.970740
1221 9 2 0.5897 9.179361 26.573535 26.562796
1222 9 2 0.5897 10.435205 26.556750 25.700722
1223 9 1 -1.1794 3.748010 27.523010 31.914490
1224 9 2 0.5897 3.210531 26.936188 32.501058
1225 9 2 0.5897 4.509120 27.737177 32.501082
1226 9 1 -1.1794 8.139490 31.914490 31.914490
1227 9 2 0.5897 7.874494 32.440484 31.121530
1228 9 2 0.5897 8.651795 32.581563 32.426821
1229 9 1 -1.1794 3.748010 31.914490 27.523010
1230 9 2 0.5897 4.034637 32.367251 28.348031
1231 9 2 0.5897 3.172969 31.199681 27.875063
1232 9 1 -1.1794 8.139490 27.523010 27.523010
1233 9 2 0.5897 7.377269 27.881705 27.020111
1234 9 2 0.5897 8.597826 28.365218 27.781031
1235 9 1 -1.1794 0.000000 27.454775 25.160607
1236 9 2 0.5897 0.035498 28.234067 25.764457
1237 9 2 0.5897 0.798485 26.954090 25.446756
1238 9 1 -1.1794 0.000000 31.982725 25.160607
1239 9 2 0.5897 -0.758631 32.506842 25.512352
1240 9 2 0.5897 0.759372 32.554826 25.445376
1241 9 1 -1.1794 0.000000 27.454775 34.276893
1242 9 2 0.5897 -0.044368 27.626890 35.244464
1243 9 2 0.5897 -0.018559 28.353141 33.884946
1244 9 1 -1.1794 0.000000 31.982725 34.276893
1245 9 2 0.5897 0.205529 32.049438 35.244986
1246 9 2 0.5897 -0.779451 31.404397 34.362942
1247 9 1 -1.1794 1.385607 23.775000 27.454775
1248 9 2 0.5897 0.417726 23.680341 27.596134
1249 9 2 0.5897 1.754570 23.675572 28.356968
1250 9 1 -1.1794 1.385607 23.775000 31.982725
1251 9 2 0.5897 1.716836 24.521754 32.533036
1252 9 2 0.5897 1.714706 23.003957 32.501950
1253 9 1 -1.1794 10.501893 23.775000 27.454775
1254 9 2 0.5897 9.916808 23.781667 28.247479
1255 9 2 0.5897 10.184338 24.574264 26.976735
1256 9 1 -1.1794 10.501893 23.775000 31.982725
1257 9 2 0.5897 10.305638 24.573873 32.524125
1258 9 2 0.5897 11.480928 23.841494 31.891678
1259 9 1 -1.1794 3.679775 25.160607 23.775000
1260 9 2 0.5897 3.181486 25.435080 24.578227
1261 9 2 0.5897 4.465410 25.747311 23.812997
1262 9 1 -1.1794 8.207725 25.160607 23.775000
1263 9 2 0.5897 8.780854 25.389855 24.544515
1264 9 2 0.5897 8.792041 25.428488 23.027135
1265 9 1 -1.1794 3.679775 34.276893 23.775000
1266 9 2 0.5897 3.869586 35.227377 23.879347
1267 9 2 0.5897 4.546334 33.843458 23.887136
1268 9 1 -1.1794 8.207725 34.276893 23.775000
1269 9 2 0.5897 8.122284 35.253258 23.691574
1270 9 2 0.5897 8.687717 34.051857 22.947637
1271 9 1 -1.1794 9.623525 29.718750 28.333143
1272 9 2 0.5897 9.813335 29.823098 29.283627
1273 9 2 0.5897 10.490084 29.830885 27.899708
1274 9 1 -1.1794 2.263975 29.718750 28.333143
1275 9 2 0.5897 2.178531 29.635324 29.309508
1276 9 2 0.5897 2.743967 28.891387 28.108108
1277 9 1 -1.1794 9.623525 29.718750 31.104357
1278 9 2 0.5897 9.125238 30.521978 31.378833
1279 9 2 0.5897 10.409160 29.756743 31.691061
1280 9 1 -1.1794 2.263975 29.718750 31.104357
1281 9 2 0.5897 2.837102 30.488267 31.333605
1282 9 2 0.5897 2.848293 28.970886 31.372239
1283 9 1 -1.1794 5.943750 31.104357 26.038975
1284 9 2 0.5897 5.185122 31.456106 26.563093
1285 9 2 0.5897 6.703124 31.389122 26.611075
1286 9 1 -1.1794 5.943750 31.104357 33.398525
1287 9 2 0.5897 5.979250 31.708206 34.177818
1288 9 2 0.5897 6.742237 31.390502 32.897842
1289 9 1 -1.1794 5.943750 28.333143 26.038975
1290 9 2 0.5897 6.149264 29.301242 26.105661
1291 9 2 0.5897 5.164278 28.419161 25.460681
1292 9 1 -1.1794 5.943750 28.333143 33.398525
1293 9 2 0.5897 5.899383 29.300713 33.570644
1294 9 2 0.5897 5.925192 27.941192 34.296889
1295 9 1 -1.1794 7.329357 33.398525 29.718750
1296 9 2 0.5897 6.361476 33.539884 29.624090
1297 9 2 0.5897 7.698320 34.300718 29.619322
1298 9 1 -1.1794 7.329357 26.038975 29.718750
1299 9 2 0.5897 7.660588 26.589285 30.465503
1300 9 2 0.5897 7.658458 26.558199 28.947706
1301 9 1 -1.1794 4.558143 33.398525 29.718750
1302 9 2 0.5897 3.973056 34.191229 29.725416
1303 9 2 0.5897 4.240588 32.920485 30.518014
1304 9 1 -1.1794 4.558143 26.038975 29.718750
1305 9 2 0.5897 4.361890 26.580372 30.517625
1306 9 2 0.5897 5.537178 25.947928 29.785242
1307 9 3 0.0 0.000000 23.775000 23.775000
1308 9 3 0.0 5.943750 29.718750 29.718750
1309 9 3 0.0 0.000000 26.746875 29.718750
1310 9 3 0.0 0.000000 32.690625 29.718750
1311 9 3 0.0 5.943750 23.775000 26.746875
1312 9 3 0.0 5.943750 23.775000 32.690625
1313 9 3 0.0 2.971875 29.718750 23.775000
1314 9 3 0.0 8.915625 29.718750 23.775000
1315 10 1 -1.1794 0.000000 41.606250 2.971875
1316 10 2 0.5897 0.009656 42.408882 2.401692
1317 10 2 0.5897 0.819206 41.741305 3.500477
1318 10 1 -1.1794 0.000000 41.606250 8.915625
1319 10 2 0.5897 0.281067 42.470936 9.277971
1320 10 2 0.5897 0.723234 41.475273 8.254920
1321 10 1 -1.1794 2.971875 35.662500 5.943750
1322 10 2 0.5897 2.409366 35.775295 6.741859
1323 10 2 0.5897 3.506404 36.488596 5.955505
1324 10 1 -1.1794 8.915625 35.662500 5.943750
1325 10 2 0.5897 8.353117 36.460610 6.056546
1326 10 2 0.5897 9.450153 35.674253 6.769848
1327 10 1 -1.1794 5.943750 38.634375 0.000000
1328 10 2 0.5897 6.224823 38.996727 0.864683
1329 10 2 0.5897 6.666985 37.973672 -0.130979
1330 10 1 -1.1794 5.943750 44.578125 0.000000
1331 10 2 0.5897 5.953409 44.007941 0.802632
1332 10 2 0.5897 6.762955 45.106727 0.135054
1333 10 1 -1.1794 2.195740 37.858240 2.195740
1334 10 2 0.5897 1.930743 37.065281 2.721735
1335 10 2 0.5897 2.708046 38.370572 2.862811
1336 10 1 -1.1794 9.691760 45.354260 2.195740
1337 10 2 0.5897 9.978388 46.179281 2.648501
1338 10 2 0.5897 9.116718 45.706314 1.480933
1339 10 1 -1.1794 9.691760 37.858240 9.691760
1340 10 2 0.5897 9.154281 38.444808 9.104938
1341 10 2 0.5897 10.452871 38.444832 9.905926
1342 10 1 -1.1794 2.195740 45.354260 9.691760
1343 10 2 0.5897 1.433515 44.851365 10.050449
1344 10 2 0.5897 2.654073 45.612280 10.533970
1345 10 1 -1.1794 8.139490 43.801990 3.748010
1346 10 2 0.5897 8.055452 44.269415 4.601005
1347 10 2 0.5897 8.845452 44.306810 3.294149
1348 10 1 -1.1794 3.748010 39.410510 3.748010
1349 10 2 0.5897 4.002365 38.847288 4.519697
1350 10 2 0.5897 4.639981 39.633336 3.410372
1351 10 1 -1.1794 8.139490 39.410510 8.139490
1352 10 2 0.5897 7.353136 39.773445 8.609681
1353 10 2 0.5897 8.567214 40.235492 7.810198
1354 10 1 -1.1794 3.748010 43.801990 8.139490
1355 10 2 0.5897 3.235613 44.394046 8.742287
1356 10 2 0.5897 4.491456 43.531971 8.725499
1357 10 1 -1.1794 9.691760 45.354260 9.691760
1358 10 2 0.5897 9.946137 46.125942 9.128541
1359 10 2 0.5897 10.583721 45.016596 9.914592
1360 10 1 -1.1794 2.195740 37.858240 9.691760
1361 10 2 0.5897 1.409385 38.328429 10.054694
1362 10 2 0.5897 2.623464 37.528947 10.516742
1363 10 1 -1.1794 2.195740 45.354260 2.195740
1364 10 2 0.5897 2.111703 46.207255 2.663166
1365 10 2 0.5897 2.901702 44.900398 2.700560
1366 10 1 -1.1794 9.691760 37.858240 2.195740
1367 10 2 0.5897 9.179361 38.461035 2.787796
1368 10 2 0.5897 10.435205 38.444250 1.925722
1369 10 1 -1.1794 3.748010 39.410510 8.139490
1370 10 2 0.5897 3.210531 38.823688 8.726058
1371 10 2 0.5897 4.509120 39.624677 8.726082
1372 10 1 -1.1794 8.139490 43.801990 8.139490
1373 10 2 0.5897 7.874494 44.327984 7.346530
1374 10 2 0.5897 8.651795 44.469063 8.651821
1375 10 1 -1.1794 3.748010 43.801990 3.748010
1376 10 2 0.5897 4.034637 44.254751 4.573031
1377 10 2 0.5897 3.172969 43.087181 4.100063
1378 10 1 -1.1794 8.139490 39.410510 3.748010
1379 10 2 0.5897 7.377269 39.769205 3.245111
1380 10 2 0.5897 8.597826 40.252718 4.006031
1381 10 1 -1.1794 0.000000 39.342275 1.385607
1382 10 2 0.5897 0.035498 40.121567 1.989457
1383 10 2 0.5897 0.798485 38.841590 1.671756
1384 10 1 -1.1794 0.000000 43.870225 1.385607
1385 10 2 0.5897 -0.758631 44.394342 1.737352
1386 10 2 0.5897 0.759372 44.442326 1.670376
1387 10 1 -1.1794 0.000000 39.342275 10.501893
1388 10 2 0.5897 -0.044368 39.514390 11.469464
1389 10 2 0.5897 -0.018559 40.240641 10.109946
1390 10 1 -1.1794 0.000000 43.870225 10.501893
1391 10 2 0.5897 0.205529 43.936938 11.469986
1392 10 2 0.5897 -0.779451 43.291897 10.587942
1393 10 1 -1.1794 1.385607 35.662500 3.679775
1394 10 2 0.5897 0.417726 35.567841 3.821134
1395 10 2 0.5897 1.754570 35.563072 4.581968
1396 10 1 -1.1794 1.385607 35.662500 8.207725
1397 10 2 0.5897 1.716836 36.409254 8.758036
1398 10 2 0.5897 1.714706 34.891457 8.726950
1399 10 1 -1.1794 10.501893 35.662500 3.679775
1400 10 2 0.5897 9.916808 35.669167 4.472479
1401 10 2 0.5897 10.184338 36.461764 3.201735
1402 10 1 -1.1794 10.501893 35.662500 8.207725
1403 10 2 0.5897 10.305638 36.461373 8.749125
1404 10 2 0.5897 11.480928 35.728994 8.116678
1405 10 1 -1.1794 3.679775 37.048107 0.000000
1406 10 2 0.5897 3.181486 37.322580 0.803227
1407 10 2 0.5897 4.465410 37.634811 0.037997
1408 10 1 -1.1794 8.207725 37.048107 0.000000
1409 10 2 0.5897 8.780854 37.277355 0.769515
1410 10 2 0.5897 8.792041 37.315988 -0.747865
1411 10 1 -1.1794 3.679775 46.164393 0.000000
1412 10 2 0.5897 3.869586 47.114877 0.104347
1413 10 2 0.5897 4.546334 45.730958 0.112136
1414 10 1 -1.1794 8.207725 46.164393 0.000000
1415 10 2 0.5897 8.122284 47.140758 -0.083426
1416 10 2 0.5897 8.687717 45.939357 -0.827363
1417 10 1 -1.1794 9.623525 41.606250 4.558143
1418 10 2 0.5897 9.813335 41.710598 5.508627
1419 10 2 0.5897 10.490084 41.718385 4.124708
1420 10 1 -1.1794 2.263975 41.606250 4.558143
1421 10 2 0.5897 2.178531 41.522824 5.534508
1422 10 2 0.5897 2.743967 40.778887 4.333108
1423 10 1 -1.1794 9.623525 41.606250 7.329357
1424 10 2 0.5897 9.125238 42.409478 7.603833
1425 10 2 0.5897 10.409160 41.644243 7.916061
1426 10 1 -1.1794 2.263975 41.606250 7.329357
1427 10 2 0.5897 2.837102 42.375767 7.558605
1428 10 2 0.5897 2.848293 40.858386 7.597239
1429 10 1 -1.1794 5.943750 42.991857 2.263975
1430 10 2 0.5897 5.185122 43.343606 2.788093
1431 10 2 0.5897 6.703124 43.276622 2.836075
1432 10 1 -1.1794 5.943750 42.991857 9.623525
1433 10 2 0.5897 5.979250 43.595706 10.402818
1434 10 2 0.5897 6.742237 43.278002 9.122842
1435 10 1 -1.1794 5.943750 40.220643 2.263975
1436 10 2 0.5897 6.149264 41.188742 2.330661
1437 10 2 0.5897 5.164278 40.306661 1.685681
1438 10 1 -1.1794 5.943750 40.220643 9.623525
1439 10 2 0.5897 5.899383 41.188213 9.795644
1440 10 2 0.5897 5.925192 39.828692 10.521889
1441 10 1 -1.1794 7.329357 45.286025 5.943750
1442 10 2 0.5897 6.361476 45.427384 5.849090
1443 10 2 0.5897 7.698320 46.188218 5.844322
1444 10 1 -1.1794 7.329357 37.926475 5.943750
1445 10 2 0.5897 7.660588 38.476785 6.690503
1446 10 2 0.5897 7.658458 38.445699 5.172706
1447 10 1 -1.1794 4.558143 45.286025 5.943750
1448 10 2 0.5897 3.973056 46.078729 5.950416
1449 10 2 0.5897 4.240588 44.807985 6.743014
1450 10 1 -1.1794 4.558143 37.926475 5.943750
1451 10 2 0.5897 4.361890 38.467872 6.742625
1452 10 2 0.5897 5.537178 37.835428 6.010242
1453 10 3 0.0 0.000000 35.662500 0.000000
1454 10 3 0.0 5.943750 41.606250 5.943750
1455 10 3 0.0 0.000000 38.634375 5.943750
1456 10 3 0.0 0.000000 44.578125 5.943750
1457 10 3 0.0 5.943750 35.662500 2.971875
1458 10 3 0.0 5.943750 35.662500 8.915625
1459 10 3 0.0 2.971875 41.606250 0.000000
1460 10 3 0.0 8.915625 41.606250 0.000000
1461 11 1 -1.1794 0.000000 41.606250 14.859375
1462 11 2 0.5897 0.009656 42.408882 14.289192
1463 11 2 0.5897 0.819206 41.741305 15.387977
1464 11 1 -1.1794 0.000000 41.606250 20.803125
1465 11 2 0.5897 0.281067 42.470936 21.165471
1466 11 2 0.5897 0.723234 41.475273 20.142420
1467 11 1 -1.1794 2.971875 35.662500 17.831250
1468 11 2 0.5897 2.409366 35.775295 18.629359
1469 11 2 0.5897 3.506404 36.488596 17.843005
1470 11 1 -1.1794 8.915625 35.662500 17.831250
1471 11 2 0.5897 8.353117 36.460610 17.944046
1472 11 2 0.5897 9.450153 35.674253 18.657348
1473 11 1 -1.1794 5.943750 38.634375 11.887500
1474 11 2 0.5897 6.224823 38.996727 12.752183
1475 11 2 0.5897 6.666985 37.973672 11.756521
1476 11 1 -1.1794 5.943750 44.578125 11.887500
1477 11 2 0.5897 5.953409 44.007941 12.690132
1478 11 2 0.5897 6.762955 45.106727 12.022554
1479 11 1 -1.1794 2.195740 37.858240 14.083240
1480 11 2 0.5897 1.930743 37.065281 14.609235
1481 11 2 0.5897 2.708046 38.370572 14.750311
1482 11 1 -1.1794 9.691760 45.354260 14.083240
1483 11 2 0.5897 9.978388 46.179281 14.536001
1484 11 2 0.5897 9.116718 45.706314 13.368433
1485 11 1 -1.1794 9.691760 37.858240 21.579260
1486 11 2 0.5897 9.154281 38.444808 20.992438
1487 11 2 0.5897 10.452871 38.444832 21.793426
1488 11 1 -1.1794 2.195740 45.354260 21.579260
1489 11 2 0.5897 1.433515 44.851365 21.937949
1490 11 2 0.5897 2.654073 45.612280 22.421470
1491 11 1 -1.1794 8.139490 43.801990 15.635510
1492 11 2 0.5897 8.055452 44.269415 16.488505
1493 11 2 0.5897 8.845452 44.306810 15.181649
1494 11 1 -1.1794 3.748010 39.410510 15.635510
1495 11 2 0.5897 4.002365 38.847288 16.407197
1496 11 2 0.5897 4.639981 39.633336 15.297872
1497 11 1 -1.1794 8.139490 39.410510 20.026990
1498 11 2 0.5897 7.353136 39.773445 20.497181
1499 11 2 0.5897 8.567214 40.235492 19.697698
1500 11 1 -1.1794 3.748010 43.801990 20.026990
1501 11 2 0.5897 3.235613 44.394046 20.629787
1502 11 2 0.5897 4.491456 43.531971 20.612999
1503 11 1 -1.1794 9.691760 45.354260 21.579260
1504 11 2 0.5897 9.946137 46.125942 21.016041
1505 11 2 0.5897 10.583721 45.016596 21.802092
1506 11 1 -1.1794 2.195740 37.858240 21.579260
1507 11 2 0.5897 1.409385 38.328429 21.942194
1508 11 2 0.5897 2.623464 37.528947 22.404242
1509 11 1 -1.1794 2.195740 45.354260 14.083240
1510 11 2 0.5897 2.111703 46.207255 14.550666
1511 11 2 0.5897 2.901702 44.900398 14.588060
1512 11 1 -1.1794 9.691760 37.858240 14.083240
1513 11 2 0.5897 9.179361 38.461035 14.675296
1514 11 2 0.5897 10.435205 38.444250 13.813222
1515 11 1 -1.1794 3.748010 39.410510 20.026990
1516 11 2 0.5897 3.210531 38.823688 20.613558
1517 11 2 0.5897 4.509120 39.624677 20.613582
1518 11 1 -1.1794 8.139490 43.801990 20.026990
1519 11 2 0.5897 7.874494 44.327984 19.234030
1520 11 2 0.5897 8.651795 44.469063 20.539321
1521 11 1 -1.1794 3.748010 43.801990 15.635510
1522 11 2 0.5897 4.034637 44.254751 16.460531
1523 11 2 0.5897 3.172969 43.087181 15.987563
1524 11 1 -1.1794 8.139490 39.410510 15.635510
1525 11 2 0.5897 7.377269 39.769205 15.132611
1526 11 2 0.5897 8.597826 40.252718 15.893531
1527 11 1 -1.1794 0.000000 39.342275 13.273107
1528 11 2 0.5897 0.035498 40.121567 13.876957
1529 11 2 0.5897 0.798485 38.841590 13.559256
1530 11 1 -1.1794 0.000000 43.870225 13.273107
1531 11 2 0.5897 -0.758631 44.394342 13.624852
1532 11 2 0.5897 0.759372 44.442326 13.557876
1533 11 1 -1.1794 0.000000 39.342275 22.389393
1534 11 2 0.5897 -0.044368 39.514390 23.356964
1535 11 2 0.5897 -0.018559 40.240641 21.997446
1536 11 1 -1.1794 0.000000 43.870225 22.389393
1537 11 2 0.5897 0.205529 43.936938 23.357486
1538 11 2 0.5897 -0.779451 43.291897 22.475442
1539 11 1 -1.1794 1.385607 35.662500 15.567275
1540 11 2 0.5897 0.417726 35.567841 15.708634
1541 11 2 0.5897 1.754570 35.563072 16.469468
1542 11 1 -1.1794 1.385607 35.662500 20.095225
1543 11 2 0.5897 1.716836 36.409254 20.645536
1544 11 2 0.5897 1.714706 34.891457 20.614450
1545 11 1 -1.1794 10.501893 35.662500 15.567275
1546 11 2 0.5897 9.916808 35.669167 16.359979
1547 11 2 0.5897 10.184338 36.461764 15.089235
1548 11 1 -1.1794 10.501893 35.662500 20.095225
1549 11 2 0.5897 10.305638 36.461373 20.636625
1550 11 2 0.5897 11.480928 35.728994 20.004178
1551 11 1 -1.1794 3.679775 37.048107 11.887500
1552 11 2 0.5897 3.181486 37.322580 12.690727
1553 11 2 0.5897 4.465410 37.634811 11.925497
1554 11 1 -1.1794 8.207725 37.048107 11.887500
1555 11 2 0.5897 8.780854 37.277355 12.657015
1556 11 2 0.5897 8.792041 37.315988 11.139635
1557 11 1 -1.1794 3.679775 46.164393 11.887500
1558 11 2 0.5897 3.869586 47.114877 11.991847
1559 11 2 0.5897 4.546334 45.730958 11.999636
1560 11 1 -1.1794 8.207725 46.164393 11.887500
1561 11 2 0.5897 8.122284 47.140758 11.804074
1562 11 2 0.5897 8.687717 45.939357 11.060137
1563 11 1 -1.1794 9.623525 41.606250 16.445643
1564 11 2 0.5897 9.813335 41.710598 17.396127
1565 11 2 0.5897 10.490084 41.718385 16.012208
1566 11 1 -1.1794 2.263975 41.606250 16.445643
1567 11 2 0.5897 2.178531 41.522824 17.422008
1568 11 2 0.5897 2.743967 40.778887 16.220608
1569 11 1 -1.1794 9.623525 41.606250 19.216857
1570 11 2 0.5897 9.125238 42.409478 19.491333
1571 11 2 0.5897 10.409160 41.644243 19.803561
1572 11 1 -1.1794 2.263975 41.606250 19.216857
1573 11 2 0.5897 2.837102 42.375767 19.446105
1574 11 2 0.5897 2.848293 40.858386 19.484739
1575 11 1 -1.1794 5.943750 42.991857 14.151475
1576 11 2 0.5897 5.185122 43.343606 14.675593
1577 11 2 0.5897 6.703124 43.276622 14.723575
1578 11 1 -1.1794 5.943750 42.991857 21.511025
1579 11 2 0.5897 5.979250 43.595706 22.290318
1580 11 2 0.5897 6.742237 43.278002 21.010342
1581 11 1 -1.1794 5.943750 40.220643 14.151475
1582 11 2 0.5897 6.149264 41.188742 14.218161
1583 11 2 0.5897 5.164278 40.306661 13.573181
1584 11 1 -1.1794 5.943750 40.220643 21.511025
1585 11 2 0.5897 5.899383 41.188213 21.683144
1586 11 2 0.5897 5.925192 39.828692 22.409389
1587 11 1 -1.1794 7.329357 45.286025 17.831250
1588 11 2 0.5897 6.361476 45.427384 17.736590
1589 11 2 0.5897 7.698320 46.188218 17.731822
1590 11 1 -1.1794 7.329357 37.926475 17.831250
1591 11 2 0.5897 7.660588 38.476785 18.578003
1592 11 2 0.5897 7.658458 38.445699 17.060206
1593 11 1 -1.1794 4.558143 45.286025 17.831250
1594 11 2 0.5897 3.973056 46.078729 17.837916
1595 11 2 0.5897 4.240588 44.807985 18.630514
1596 11 1 -1.1794 4.558143 37.926475 17.831250
1597 11 2 0.5897 4.361890 38.467872 18.630125
1598 11 2 0.5897 5.537178 37.835428 17.897742
1599 11 3 0.0 0.000000 35.662500 11.887500
1600 11 3 0.0 5.943750 41.606250 17.831250
1601 11 3 0.0 0.000000 38.634375 17.831250
1602 11 3 0.0 0.000000 44.578125 17.831250
1603 11 3 0.0 5.943750 35.662500 14.859375
1604 11 3 0.0 5.943750 35.662500 20.803125
1605 11 3 0.0 2.971875 41.606250 11.887500
1606 11 3 0.0 8.915625 41.606250 11.887500
1607 12 1 -1.1794 0.000000 41.606250 26.746875
1608 12 2 0.5897 0.009656 42.408882 26.176692
1609 12 2 0.5897 0.819206 41.741305 27.275477
1610 12 1 -1.1794 0.000000 41.606250 32.690625
1611 12 2 0.5897 0.281067 42.470936 33.052971
1612 12 2 0.5897 0.723234 41.475273 32.029920
1613 12 1 -1.1794 2.971875 35.662500 29.718750
1614 12 2 0.5897 2.409366 35.775295 30.516859
1615 12 2 0.5897 3.506404 36.488596 29.730505
1616 12 1 -1.1794 8.915625 35.662500 29.718750
1617 12 2 0.5897 8.353117 36.460610 29.831546
1618 12 2 0.5897 9.450153 35.674253 30.544848
1619 12 1 -1.1794 5.943750 38.634375 23.775000
1620 12 2 0.5897 6.224823 38.996727 24.639683
1621 12 2 0.5897 6.666985 37.973672 23.644021
1622 12 1 -1.1794 5.943750 44.578125 23.775000
1623 12 2 0.5897 5.953409 44.007941 24.577632
1624 12 2 0.5897 6.762955 45.106727 23.910054
1625 12 1 -1.1794 2.195740 37.858240 25.970740
1626 12 2 0.5897 1.930743 37.065281 26.496735
1627 12 2 0.5897 2.708046 38.370572 26.637811
1628 12 1 -1.1794 9.691760 45.354260 25.970740
1629 12 2 0.5897 9.978388 46.179281 26.423501
1630 12 2 0.5897 9.116718 45.706314 25.255933
1631 12 1 -1.1794 9.691760 37.858240 33.466760
1632 12 2 0.5897 9.154281 38.444808 32.879938
1633 12 2 0.5897 10.452871 38.444832 33.680926
1634 12 1 -1.1794 2.195740 45.354260 33.466760
1635 12 2 0.5897 1.433515 44.851365 33.825449
1636 12 2 0.5897 2.654073 45.612280 34.308970
1637 12 1 -1.1794 8.139490 43.801990 27.523010
1638 12 2 0.5897 8.055452 44.269415 28.376005
1639 12 2 0.5897 8.845452 44.306810 27.069149
1640 12 1 -1.1794 3.748010 39.410510 27.523010
1641 12 2 0.5897 4.002365 38.847288 28.294697
1642 12 2 0.5897 4.639981 39.633336 27.185372
1643 12 1 -1.1794 8.139490 39.410510 31.914490
1644 12 2 0.5897 7.353136 39.773445 32.384681
1645 12 2 0.5897 8.567214 40.235492 31.585198
1646 12 1 -1.1794 3.748010 43.801990 31.914490
1647 12 2 0.5897 3.235613 44.394046 32.517287
1648 12 2 0.5897 4.491456 43.531971 32.500499
1649 12 1 -1.1794 9.691760 45.354260 33.466760
1650 12 2 0.5897 9.946137 46.125942 32.903541
1651 12 2 0.5897 10.583721 45.016596 33.689592
1652 12 1 -1.1794 2.195740 37.858240 33.466760
1653 12 2 0.5897 1.409385 38.328429 33.829694
1654 12 2 0.5897 2.623464 37.528947 34.291742
1655 12 1 -1.1794 2.195740 45.354260 25.970740
1656 12 2 0.5897 2.111703 46.207255 26.438166
1657 12 2 0.5897 2.901702 44.900398 26.475560
1658 12 1 -1.1794 9.691760 37.858240 25.970740
1659 12 2 0.5897 9.179361 38.461035 26.562796
1660 12 2 0.5897 10.435205 38.444250 25.700722
1661 12 1 -1.1794 3.748010 39.410510 31.914490
1662 12 2 0.5897 3.210531 38.823688 32.501058
1663 12 2 0.5897 4.509120 39.624677 32.501082
1664 12 1 -1.1794 8.139490 43.801990 31.914490
1665 12 2 0.5897 7.874494 44.327984 31.121530
1666 12 2 0.5897 8.651795 44.469063 32.426821
1667 12 1 -1.1794 3.748010 43.801990 27.523010
1668 12 2 0.5897 4.034637 44.254751 28.348031
1669 12 2 0.5897 3.172969 43.087181 27.875063
1670 12 1 -1.1794 8.139490 39.410510 27.523010
1671 12 2 0.5897 7.377269 39.769205 27.020111
1672 12 2 0.5897 8.597826 40.252718 27.781031
1673 12 1 -1.1794 0.000000 39.342275 25.160607
1674 12 2 0.5897 0.035498 40.121567 25.764457
1675 12 2 0.5897 0.798485 38.841590 25.446756
1676 12 1 -1.1794 0.000000 43.870225 25.160607
1677 12 2 0.5897 -0.758631 44.394342 25.512352
1678 12 2 0.5897 0.759372 44.442326 25.445376
1679 12 1 -1.1794 0.000000 39.342275 34.276893
1680 12 2 0.5897 -0.044368 39.514390 35.244464
1681 12 2 0.5897 -0.018559 40.240641 33.884946
1682 12 1 -1.1794 0.000000 43.870225 34.276893
1683 12 2 0.5897 0.205529 43.936938 35.244986
1684 12 2 0.5897 -0.779451 43.291897 34.362942
1685 12 1 -1.1794 1.385607 35.662500 27.454775
1686 12 2 0.5897 0.417726 35.567841 27.596134
1687 12 2 0.5897 1.754570 35.563072 28.356968
1688 12 1 -1.1794 1.385607 35.662500 31.982725
1689 12 2 0.5897 1.716836 36.409254 32.533036
1690 12 2 0.5897 1.714706 34.891457 32.501950
1691 12 1 -1.1794 10.501893 35.662500 27.454775
1692 12 2 0.5897 9.916808 35.669167 28.247479
1693 12 2 0.5897 10.184338 36.461764 26.976735
1694 12 1 -1.1794 10.501893 35.662500 31.982725
1695 12 2 0.5897 10.305638 36.461373 32.524125
1696 12 2 0.5897 11.480928 35.728994 31.891678
1697 12 1 -1.1794 3.679775 37.048107 23.775000
1698 12 2 0.5897 3.181486 37.322580 24.578227
1699 12 2 0.5897 4.465410 37.634811 23.812997
1700 12 1 -1.1794 8.207725 37.048107 23.775000
1701 12 2 0.5897 8.780854 37.277355 24.544515
1702 12 2 0.5897 8.792041 37.315988 23.027135
1703 12 1 -1.1794 3.679775 46.164393 23.775000
1704 12 2 0.5897 3.869586 47.114877 23.879347
1705 12 2 0.5897 4.546334 45.730958 23.887136
1706 12 1 -1.1794 8.207725 46.164393 23.775000
1707 12 2 0.5897 8.122284 47.140758 23.691574
1708 12 2 0.5897 8.687717 45.939357 22.947637
1709 12 1 -1.1794 9.623525 41.606250 28.333143
1710 12 2 0.5897 9.813335 41.710598 29.283627
1711 12 2 0.5897 10.490084 41.718385 27.899708
1712 12 1 -1.1794 2.263975 41.606250 28.333143
1713 12 2 0.5897 2.178531 41.522824 29.309508
1714 12 2 0.5897 2.743967 40.778887 28.108108
1715 12 1 -1.1794 9.623525 41.606250 31.104357
1716 12 2 0.5897 9.125238 42.409478 31.378833
1717 12 2 0.5897 10.409160 41.644243 31.691061
1718 12 1 -1.1794 2.263975 41.606250 31.104357
1719 12 2 0.5897 2.837102 42.375767 31.333605
1720 12 2 0.5897 2.848293 40.858386 31.372239
1721 12 1 -1.1794 5.943750 42.991857 26.038975
1722 12 2 0.5897 5.185122 43.343606 26.563093
1723 12 2 0.5897 6.703124 43.276622 26.611075
1724 12 1 -1.1794 5.943750 42.991857 33.398525
1725 12 2 0.5897 5.979250 43.595706 34.177818
1726 12 2 0.5897 6.742237 43.278002 32.897842
1727 12 1 -1.1794 5.943750 40.220643 26.038975
1728 12 2 0.5897 6.149264 41.188742 26.105661
1729 12 2 0.5897 5.164278 40.306661 25.460681
1730 12 1 -1.1794 5.943750 40.220643 33.398525
1731 12 2 0.5897 5.899383 41.188213 33.570644
1732 12 2 0.5897 5.925192 39.828692 34.296889
1733 12 1 -1.1794 7.329357 45.286025 29.718750
1734 12 2 0.5897 6.361476 45.427384 29.624090
1735 12 2 0.5897 7.698320 46.188218 29.619322
1736 12 1 -1.1794 7.329357 37.926475 29.718750
1737 12 2 0.5897 7.660588 38.476785 30.465503
1738 12 2 0.5897 7.658458 38.445699 28.947706
1739 12 1 -1.1794 4.558143 45.286025 29.718750
1740 12 2 0.5897 3.973056 46.078729 29.725416
1741 12 2 0.5897 4.240588 44.807985 30.518014
1742 12 1 -1.1794 4.558143 37.926475 29.718750
1743 12 2 0.5897 4.361890 38.467872 30.517625
1744 12 2 0.5897 5.537178 37.835428 29.785242
1745 12 3 0.0 0.000000 35.662500 23.775000
1746 12 3 0.0 5.943750 41.606250 29.718750
1747 12 3 0.0 0.000000 38.634375 29.718750
1748 12 3 0.0 0.000000 44.578125 29.718750
1749 12 3 0.0 5.943750 35.662500 26.746875
1750 12 3 0.0 5.943750 35.662500 32.690625
1751 12 3 0.0 2.971875 41.606250 23.775000
1752 12 3 0.0 8.915625 41.606250 23.775000
1753 13 1 -1.1794 11.887500 5.943750 2.971875
1754 13 2 0.5897 11.897156 6.746382 2.401692
1755 13 2 0.5897 12.706706 6.078805 3.500477
1756 13 1 -1.1794 11.887500 5.943750 8.915625
1757 13 2 0.5897 12.168567 6.808436 9.277971
1758 13 2 0.5897 12.610734 5.812773 8.254920
1759 13 1 -1.1794 14.859375 0.000000 5.943750
1760 13 2 0.5897 14.296866 0.112795 6.741859
1761 13 2 0.5897 15.393904 0.826096 5.955505
1762 13 1 -1.1794 20.803125 0.000000 5.943750
1763 13 2 0.5897 20.240617 0.798110 6.056546
1764 13 2 0.5897 21.337653 0.011753 6.769848
1765 13 1 -1.1794 17.831250 2.971875 0.000000
1766 13 2 0.5897 18.112323 3.334227 0.864683
1767 13 2 0.5897 18.554485 2.311172 -0.130979
1768 13 1 -1.1794 17.831250 8.915625 0.000000
1769 13 2 0.5897 17.840909 8.345441 0.802632
1770 13 2 0.5897 18.650455 9.444227 0.135054
1771 13 1 -1.1794 14.083240 2.195740 2.195740
1772 13 2 0.5897 13.818243 1.402781 2.721735
1773 13 2 0.5897 14.595546 2.708072 2.862811
1774 13 1 -1.1794 21.579260 9.691760 2.195740
1775 13 2 0.5897 21.865888 10.516781 2.648501
1776 13 2 0.5897 21.004218 10.043814 1.480933
1777 13 1 -1.1794 21.579260 2.195740 9.691760
1778 13 2 0.5897 21.041781 2.782308 9.104938
1779 13 2 0.5897 22.340371 2.782332 9.905926
1780 13 1 -1.1794 14.083240 9.691760 9.691760
1781 13 2 0.5897 13.321015 9.188865 10.050449
1782 13 2 0.5897 14.541573 9.949780 10.533970
1783 13 1 -1.1794 20.026990 8.139490 3.748010
1784 13 2 0.5897 19.942952 8.606915 4.601005
1785 13 2 0.5897 20.732952 8.644310 3.294149
1786 13 1 -1.1794 15.635510 3.748010 3.748010
1787 13 2 0.5897 15.889865 3.184788 4.519697
1788 13 2 0.5897 16.527481 3.970836 3.410372
1789 13 1 -1.1794 20.026990 3.748010 8.139490
1790 13 2 0.5897 19.240636 4.110945 8.609681
1791 13 2 0.5897 20.454714 4.572992 7.810198
1792 13 1 -1.1794 15.635510 8.139490 8.139490
1793 13 2 0.5897 15.123113 8.731546 8.742287
1794 13 2 0.5897 16.378956 7.869471 8.725499
1795 13 1 -1.1794 21.579260 9.691760 9.691760
1796 13 2 0.5897 21.833637 10.463442 9.128541
1797 13 2 0.5897 22.471221 9.354096 9.914592
1798 13 1 -1.1794 14.083240 2.195740 9.691760
1799 13 2 0.5897 13.296885 2.665929 10.054694
1800 13 2 0.5897 14.510964 1.866447 10.516742
1801 13 1 -1.1794 14.083240 9.691760 2.195740
1802 13 2 0.5897 13.999203 10.544755 2.663166
1803 13 2 0.5897 14.789202 9.237898 2.700560
1804 13 1 -1.1794 21.579260 2.195740 2.195740
1805 13 2 0.5897 21.066861 2.798535 2.787796
1806 13 2 0.5897 22.322705 2.781750 1.925722
1807 13 1 -1.1794 15.635510 3.748010 8.139490
1808 13 2 0.5897 15.098031 3.161188 8.726058
1809 13 2 0.5897 16.396620 3.962177 8.726082
1810 13 1 -1.1794 20.026990 8.139490 8.139490
1811 13 2 0.5897 19.761994 8.665484 7.346530
1812 13 2 0.5897 20.539295 8.806563 8.651821
1813 13 1 -1.1794 15.635510 8.139490 3.748010
1814 13 2 0.5897 15.922137 8.592251 4.573031
1815 13 2 0.5897 15.060469 7.424681 4.100063
1816 13 1 -1.1794 20.026990 3.748010 3.748010
1817 13 2 0.5897 19.264769 4.106705 3.245111
1818 13 2 0.5897 20.485326 4.590218 4.006031
1819 13 1 -1.1794 11.887500 3.679775 1.385607
1820 13 2 0.5897 11.922998 4.459067 1.989457
1821 13 2 0.5897 12.685985 3.179090 1.671756
1822 13 1 -1.1794 11.887500 8.207725 1.385607
1823 13 2 0.5897 11.128869 8.731842 1.737352
1824 13 2 0.5897 12.646872 8.779826 1.670376
1825 13 1 -1.1794 11.887500 3.679775 10.501893
1826 13 2 0.5897 11.843132 3.851890 11.469464
1827 13 2 0.5897 11.868941 4.578141 10.109946
1828 13 1 -1.1794 11.887500 8.207725 10.501893
1829 13 2 0.5897 12.093029 8.274438 11.469986
1830 13 2 0.5897 11.108049 7.629397 10.587942
1831 13 1 -1.1794 13.273107 0.000000 3.679775
1832 13 2 0.5897 12.305226 -0.094659 3.821134
1833 13 2 0.5897 13.642070 -0.099428 4.581968
1834 13 1 -1.1794 13.273107 0.000000 8.207725
1835 13 2 0.5897 13.604336 0.746754 8.758036
1836 13 2 0.5897 13.602206 -0.771043 8.726950
1837 13 1 -1.1794 22.389393 0.000000 3.679775
1838 13 2 0.5897 21.804308 0.006667 4.472479
1839 13 2 0.5897 22.071838 0.799264 3.201735
1840 13 1 -1.1794 22.389393 0.000000 8.207725
1841 13 2 0.5897 22.193138 0.798873 8.749125
1842 13 2 0.5897 23.368428 0.066494 8.116678
1843 13 1 -1.1794 15.567275 1.385607 0.000000
1844 13 2 0.5897 15.068986 1.660080 0.803227
1845 13 2 0.5897 16.352910 1.972311 0.037997
1846 13 1 -1.1794 20.095225 1.385607 0.000000
1847 13 2 0.5897 20.668354 1.614855 0.769515
1848 13 2 0.5897 20.679541 1.653488 -0.747865
1849 13 1 -1.1794 15.567275 10.501893 0.000000
1850 13 2 0.5897 15.757086 11.452377 0.104347
1851 13 2 0.5897 16.433834 10.068458 0.112136
1852 13 1 -1.1794 20.095225 10.501893 0.000000
1853 13 2 0.5897 20.009784 11.478258 -0.083426
1854 13 2 0.5897 20.575217 10.276857 -0.827363
1855 13 1 -1.1794 21.511025 5.943750 4.558143
1856 13 2 0.5897 21.700835 6.048098 5.508627
1857 13 2 0.5897 22.377584 6.055885 4.124708
1858 13 1 -1.1794 14.151475 5.943750 4.558143
1859 13 2 0.5897 14.066031 5.860324 5.534508
1860 13 2 0.5897 14.631467 5.116387 4.333108
1861 13 1 -1.1794 21.511025 5.943750 7.329357
1862 13 2 0.5897 21.012738 6.746978 7.603833
1863 13 2 0.5897 22.296660 5.981743 7.916061
1864 13 1 -1.1794 14.151475 5.943750 7.329357
1865 13 2 0.5897 14.724602 6.713267 7.558605
1866 13 2 0.5897 14.735793 5.195886 7.597239
1867 13 1 -1.1794 17.831250 7.329357 2.263975
1868 13 2 0.5897 17.072622 7.681106 2.788093
1869 13 2 0.5897 18.590624 7.614122 2.836075
1870 13 1 -1.1794 17.831250 7.329357 9.623525
1871 13 2 0.5897 17.866750 7.933206 10.402818
1872 13 2 0.5897 18.629737 7.615502 9.122842
1873 13 1 -1.1794 17.831250 4.558143 2.263975
1874 13 2 0.5897 18.036764 5.526242 2.330661
1875 13 2 0.5897 17.051778 4.644161 1.685681
1876 13 1 -1.1794 17.831250 4.558143 9.623525
1877 13 2 0.5897 17.786883 5.525713 9.795644
1878 13 2 0.5897 17.812692 4.166192 10.521889
1879 13 1 -1.1794 19.216857 9.623525 5.943750
1880 13 2 0.5897 18.248976 9.764884 5.849090
1881 13 2 0.5897 19.585820 10.525718 5.844322
1882 13 1 -1.1794 19.216857 2.263975 5.943750
1883 13 2 0.5897 19.548088 2.814285 6.690503
1884 13 2 0.5897 19.545958 2.783199 5.172706
1885 13 1 -1.1794 16.445643 9.623525 5.943750
1886 13 2 0.5897 15.860556 10.416229 5.950416
1887 13 2 0.5897 16.128088 9.145485 6.743014
1888 13 1 -1.1794 16.445643 2.263975 5.943750
1889 13 2 0.5897 16.249390 2.805372 6.742625
1890 13 2 0.5897 17.424678 2.172928 6.010242
1891 13 3 0.0 11.887500 0.000000 0.000000
1892 13 3 0.0 17.831250 5.943750 5.943750
1893 13 3 0.0 11.887500 2.971875 5.943750
1894 13 3 0.0 11.887500 8.915625 5.943750
1895 13 3 0.0 17.831250 0.000000 2.971875
1896 13 3 0.0 17.831250 0.000000 8.915625
1897 13 3 0.0 14.859375 5.943750 0.000000
1898 13 3 0.0 20.803125 5.943750 0.000000
1899 14 1 -1.1794 11.887500 5.943750 14.859375
1900 14 2 0.5897 11.897156 6.746382 14.289192
1901 14 2 0.5897 12.706706 6.078805 15.387977
1902 14 1 -1.1794 11.887500 5.943750 20.803125
1903 14 2 0.5897 12.168567 6.808436 21.165471
1904 14 2 0.5897 12.610734 5.812773 20.142420
1905 14 1 -1.1794 14.859375 0.000000 17.831250
1906 14 2 0.5897 14.296866 0.112795 18.629359
1907 14 2 0.5897 15.393904 0.826096 17.843005
1908 14 1 -1.1794 20.803125 0.000000 17.831250
1909 14 2 0.5897 20.240617 0.798110 17.944046
1910 14 2 0.5897 21.337653 0.011753 18.657348
1911 14 1 -1.1794 17.831250 2.971875 11.887500
1912 14 2 0.5897 18.112323 3.334227 12.752183
1913 14 2 0.5897 18.554485 2.311172 11.756521
1914 14 1 -1.1794 17.831250 8.915625 11.887500
1915 14 2 0.5897 17.840909 8.345441 12.690132
1916 14 2 0.5897 18.650455 9.444227 12.022554
1917 14 1 -1.1794 14.083240 2.195740 14.083240
1918 14 2 0.5897 13.818243 1.402781 14.609235
1919 14 2 0.5897 14.595546 2.708072 14.750311
1920 14 1 -1.1794 21.579260 9.691760 14.083240
1921 14 2 0.5897 21.865888 10.516781 14.536001
1922 14 2 0.5897 21.004218 10.043814 13.368433
1923 14 1 -1.1794 21.579260 2.195740 21.579260
1924 14 2 0.5897 21.041781 2.782308 20.992438
1925 14 2 0.5897 22.340371 2.782332 21.793426
1926 14 1 -1.1794 14.083240 9.691760 21.579260
1927 14 2 0.5897 13.321015 9.188865 21.937949
1928 14 2 0.5897 14.541573 9.949780 22.421470
1929 14 1 -1.1794 20.026990 8.139490 15.635510
1930 14 2 0.5897 19.942952 8.606915 16.488505
1931 14 2 0.5897 20.732952 8.644310 15.181649
1932 14 1 -1.1794 15.635510 3.748010 15.635510
1933 14 2 0.5897 15.889865 3.184788 16.407197
1934 14 2 0.5897 16.527481 3.970836 15.297872
1935 14 1 -1.1794 20.026990 3.748010 20.026990
1936 14 2 0.5897 19.240636 4.110945 20.497181
1937 14 2 0.5897 20.454714 4.572992 19.697698
1938 14 1 -1.1794 15.635510 8.139490 20.026990
1939 14 2 0.5897 15.123113 8.731546 20.629787
1940 14 2 0.5897 16.378956 7.869471 20.612999
1941 14 1 -1.1794 21.579260 9.691760 21.579260
1942 14 2 0.5897 21.833637 10.463442 21.016041
1943 14 2 0.5897 22.471221 9.354096 21.802092
1944 14 1 -1.1794 14.083240 2.195740 21.579260
1945 14 2 0.5897 13.296885 2.665929 21.942194
1946 14 2 0.5897 14.510964 1.866447 22.404242
1947 14 1 -1.1794 14.083240 9.691760 14.083240
1948 14 2 0.5897 13.999203 10.544755 14.550666
1949 14 2 0.5897 14.789202 9.237898 14.588060
1950 14 1 -1.1794 21.579260 2.195740 14.083240
1951 14 2 0.5897 21.066861 2.798535 14.675296
1952 14 2 0.5897 22.322705 2.781750 13.813222
1953 14 1 -1.1794 15.635510 3.748010 20.026990
1954 14 2 0.5897 15.098031 3.161188 20.613558
1955 14 2 0.5897 16.396620 3.962177 20.613582
1956 14 1 -1.1794 20.026990 8.139490 20.026990
1957 14 2 0.5897 19.761994 8.665484 19.234030
1958 14 2 0.5897 20.539295 8.806563 20.539321
1959 14 1 -1.1794 15.635510 8.139490 15.635510
1960 14 2 0.5897 15.922137 8.592251 16.460531
1961 14 2 0.5897 15.060469 7.424681 15.987563
1962 14 1 -1.1794 20.026990 3.748010 15.635510
1963 14 2 0.5897 19.264769 4.106705 15.132611
1964 14 2 0.5897 20.485326 4.590218 15.893531
1965 14 1 -1.1794 11.887500 3.679775 13.273107
1966 14 2 0.5897 11.922998 4.459067 13.876957
1967 14 2 0.5897 12.685985 3.179090 13.559256
1968 14 1 -1.1794 11.887500 8.207725 13.273107
1969 14 2 0.5897 11.128869 8.731842 13.624852
1970 14 2 0.5897 12.646872 8.779826 13.557876
1971 14 1 -1.1794 11.887500 3.679775 22.389393
1972 14 2 0.5897 11.843132 3.851890 23.356964
1973 14 2 0.5897 11.868941 4.578141 21.997446
1974 14 1 -1.1794 11.887500 8.207725 22.389393
1975 14 2 0.5897 12.093029 8.274438 23.357486
1976 14 2 0.5897 11.108049 7.629397 22.475442
1977 14 1 -1.1794 13.273107 0.000000 15.567275
1978 14 2 0.5897 12.305226 -0.094659 15.708634
1979 14 2 0.5897 13.642070 -0.099428 16.469468
1980 14 1 -1.1794 13.273107 0.000000 20.095225
1981 14 2 0.5897 13.604336 0.746754 20.645536
1982 14 2 0.5897 13.602206 -0.771043 20.614450
1983 14 1 -1.1794 22.389393 0.000000 15.567275
1984 14 2 0.5897 21.804308 0.006667 16.359979
1985 14 2 0.5897 22.071838 0.799264 15.089235
1986 14 1 -1.1794 22.389393 0.000000 20.095225
1987 14 2 0.5897 22.193138 0.798873 20.636625
1988 14 2 0.5897 23.368428 0.066494 20.004178
1989 14 1 -1.1794 15.567275 1.385607 11.887500
1990 14 2 0.5897 15.068986 1.660080 12.690727
1991 14 2 0.5897 16.352910 1.972311 11.925497
1992 14 1 -1.1794 20.095225 1.385607 11.887500
1993 14 2 0.5897 20.668354 1.614855 12.657015
1994 14 2 0.5897 20.679541 1.653488 11.139635
1995 14 1 -1.1794 15.567275 10.501893 11.887500
1996 14 2 0.5897 15.757086 11.452377 11.991847
1997 14 2 0.5897 16.433834 10.068458 11.999636
1998 14 1 -1.1794 20.095225 10.501893 11.887500
1999 14 2 0.5897 20.009784 11.478258 11.804074
2000 14 2 0.5897 20.575217 10.276857 11.060137
2001 14 1 -1.1794 21.511025 5.943750 16.445643
2002 14 2 0.5897 21.700835 6.048098 17.396127
2003 14 2 0.5897 22.377584 6.055885 16.012208
2004 14 1 -1.1794 14.151475 5.943750 16.445643
2005 14 2 0.5897 14.066031 5.860324 17.422008
2006 14 2 0.5897 14.631467 5.116387 16.220608
2007 14 1 -1.1794 21.511025 5.943750 19.216857
2008 14 2 0.5897 21.012738 6.746978 19.491333
2009 14 2 0.5897 22.296660 5.981743 19.803561
2010 14 1 -1.1794 14.151475 5.943750 19.216857
2011 14 2 0.5897 14.724602 6.713267 19.446105
2012 14 2 0.5897 14.735793 5.195886 19.484739
2013 14 1 -1.1794 17.831250 7.329357 14.151475
2014 14 2 0.5897 17.072622 7.681106 14.675593
2015 14 2 0.5897 18.590624 7.614122 14.723575
2016 14 1 -1.1794 17.831250 7.329357 21.511025
2017 14 2 0.5897 17.866750 7.933206 22.290318
2018 14 2 0.5897 18.629737 7.615502 21.010342
2019 14 1 -1.1794 17.831250 4.558143 14.151475
2020 14 2 0.5897 18.036764 5.526242 14.218161
2021 14 2 0.5897 17.051778 4.644161 13.573181
2022 14 1 -1.1794 17.831250 4.558143 21.511025
2023 14 2 0.5897 17.786883 5.525713 21.683144
2024 14 2 0.5897 17.812692 4.166192 22.409389
2025 14 1 -1.1794 19.216857 9.623525 17.831250
2026 14 2 0.5897 18.248976 9.764884 17.736590
2027 14 2 0.5897 19.585820 10.525718 17.731822
2028 14 1 -1.1794 19.216857 2.263975 17.831250
2029 14 2 0.5897 19.548088 2.814285 18.578003
2030 14 2 0.5897 19.545958 2.783199 17.060206
2031 14 1 -1.1794 16.445643 9.623525 17.831250
2032 14 2 0.5897 15.860556 10.416229 17.837916
2033 14 2 0.5897 16.128088 9.145485 18.630514
2034 14 1 -1.1794 16.445643 2.263975 17.831250
2035 14 2 0.5897 16.249390 2.805372 18.630125
2036 14 2 0.5897 17.424678 2.172928 17.897742
2037 14 3 0.0 11.887500 0.000000 11.887500
2038 14 3 0.0 17.831250 5.943750 17.831250
2039 14 3 0.0 11.887500 2.971875 17.831250
2040 14 3 0.0 11.887500 8.915625 17.831250
2041 14 3 0.0 17.831250 0.000000 14.859375
2042 14 3 0.0 17.831250 0.000000 20.803125
2043 14 3 0.0 14.859375 5.943750 11.887500
2044 14 3 0.0 20.803125 5.943750 11.887500
2045 15 1 -1.1794 11.887500 5.943750 26.746875
2046 15 2 0.5897 11.897156 6.746382 26.176692
2047 15 2 0.5897 12.706706 6.078805 27.275477
2048 15 1 -1.1794 11.887500 5.943750 32.690625
2049 15 2 0.5897 12.168567 6.808436 33.052971
2050 15 2 0.5897 12.610734 5.812773 32.029920
2051 15 1 -1.1794 14.859375 0.000000 29.718750
2052 15 2 0.5897 14.296866 0.112795 30.516859
2053 15 2 0.5897 15.393904 0.826096 29.730505
2054 15 1 -1.1794 20.803125 0.000000 29.718750
2055 15 2 0.5897 20.240617 0.798110 29.831546
2056 15 2 0.5897 21.337653 0.011753 30.544848
2057 15 1 -1.1794 17.831250 2.971875 23.775000
2058 15 2 0.5897 18.112323 3.334227 24.639683
2059 15 2 0.5897 18.554485 2.311172 23.644021
2060 15 1 -1.1794 17.831250 8.915625 23.775000
2061 15 2 0.5897 17.840909 8.345441 24.577632
2062 15 2 0.5897 18.650455 9.444227 23.910054
2063 15 1 -1.1794 14.083240 2.195740 25.970740
2064 15 2 0.5897 13.818243 1.402781 26.496735
2065 15 2 0.5897 14.595546 2.708072 26.637811
2066 15 1 -1.1794 21.579260 9.691760 25.970740
2067 15 2 0.5897 21.865888 10.516781 26.423501
2068 15 2 0.5897 21.004218 10.043814 25.255933
2069 15 1 -1.1794 21.579260 2.195740 33.466760
2070 15 2 0.5897 21.041781 2.782308 32.879938
2071 15 2 0.5897 22.340371 2.782332 33.680926
2072 15 1 -1.1794 14.083240 9.691760 33.466760
2073 15 2 0.5897 13.321015 9.188865 33.825449
2074 15 2 0.5897 14.541573 9.949780 34.308970
2075 15 1 -1.1794 20.026990 8.139490 27.523010
2076 15 2 0.5897 19.942952 8.606915 28.376005
2077 15 2 0.5897 20.732952 8.644310 27.069149
2078 15 1 -1.1794 15.635510 3.748010 27.523010
2079 15 2 0.5897 15.889865 3.184788 28.294697
2080 15 2 0.5897 16.527481 3.970836 27.185372
2081 15 1 -1.1794 20.026990 3.748010 31.914490
2082 15 2 0.5897 19.240636 4.110945 32.384681
2083 15 2 0.5897 20.454714 4.572992 31.585198
2084 15 1 -1.1794 15.635510 8.139490 31.914490
2085 15 2 0.5897 15.123113 8.731546 32.517287
2086 15 2 0.5897 16.378956 7.869471 32.500499
2087 15 1 -1.1794 21.579260 9.691760 33.466760
2088 15 2 0.5897 21.833637 10.463442 32.903541
2089 15 2 0.5897 22.471221 9.354096 33.689592
2090 15 1 -1.1794 14.083240 2.195740 33.466760
2091 15 2 0.5897 13.296885 2.665929 33.829694
2092 15 2 0.5897 14.510964 1.866447 34.291742
2093 15 1 -1.1794 14.083240 9.691760 25.970740
2094 15 2 0.5897 13.999203 10.544755 26.438166
2095 15 2 0.5897 14.789202 9.237898 26.475560
2096 15 1 -1.1794 21.579260 2.195740 25.970740
2097 15 2 0.5897 21.066861 2.798535 26.562796
2098 15 2 0.5897 22.322705 2.781750 25.700722
2099 15 1 -1.1794 15.635510 3.748010 31.914490
2100 15 2 0.5897 15.098031 3.161188 32.501058
2101 15 2 0.5897 16.396620 3.962177 32.501082
2102 15 1 -1.1794 20.026990 8.139490 31.914490
2103 15 2 0.5897 19.761994 8.665484 31.121530
2104 15 2 0.5897 20.539295 8.806563 32.426821
2105 15 1 -1.1794 15.635510 8.139490 27.523010
2106 15 2 0.5897 15.922137 8.592251 28.348031
2107 15 2 0.5897 15.060469 7.424681 27.875063
2108 15 1 -1.1794 20.026990 3.748010 27.523010
2109 15 2 0.5897 19.264769 4.106705 27.020111
2110 15 2 0.5897 20.485326 4.590218 27.781031
2111 15 1 -1.1794 11.887500 3.679775 25.160607
2112 15 2 0.5897 11.922998 4.459067 25.764457
2113 15 2 0.5897 12.685985 3.179090 25.446756
2114 15 1 -1.1794 11.887500 8.207725 25.160607
2115 15 2 0.5897 11.128869 8.731842 25.512352
2116 15 2 0.5897 12.646872 8.779826 25.445376
2117 15 1 -1.1794 11.887500 3.679775 34.276893
2118 15 2 0.5897 11.843132 3.851890 35.244464
2119 15 2 0.5897 11.868941 4.578141 33.884946
2120 15 1 -1.1794 11.887500 8.207725 34.276893
2121 15 2 0.5897 12.093029 8.274438 35.244986
2122 15 2 0.5897 11.108049 7.629397 34.362942
2123 15 1 -1.1794 13.273107 0.000000 27.454775
2124 15 2 0.5897 12.305226 -0.094659 27.596134
2125 15 2 0.5897 13.642070 -0.099428 28.356968
2126 15 1 -1.1794 13.273107 0.000000 31.982725
2127 15 2 0.5897 13.604336 0.746754 32.533036
2128 15 2 0.5897 13.602206 -0.771043 32.501950
2129 15 1 -1.1794 22.389393 0.000000 27.454775
2130 15 2 0.5897 21.804308 0.006667 28.247479
2131 15 2 0.5897 22.071838 0.799264 26.976735
2132 15 1 -1.1794 22.389393 0.000000 31.982725
2133 15 2 0.5897 22.193138 0.798873 32.524125
2134 15 2 0.5897 23.368428 0.066494 31.891678
2135 15 1 -1.1794 15.567275 1.385607 23.775000
2136 15 2 0.5897 15.068986 1.660080 24.578227
2137 15 2 0.5897 16.352910 1.972311 23.812997
2138 15 1 -1.1794 20.095225 1.385607 23.775000
2139 15 2 0.5897 20.668354 1.614855 24.544515
2140 15 2 0.5897 20.679541 1.653488 23.027135
2141 15 1 -1.1794 15.567275 10.501893 23.775000
2142 15 2 0.5897 15.757086 11.452377 23.879347
2143 15 2 0.5897 16.433834 10.068458 23.887136
2144 15 1 -1.1794 20.095225 10.501893 23.775000
2145 15 2 0.5897 20.009784 11.478258 23.691574
2146 15 2 0.5897 20.575217 10.276857 22.947637
2147 15 1 -1.1794 21.511025 5.943750 28.333143
2148 15 2 0.5897 21.700835 6.048098 29.283627
2149 15 2 0.5897 22.377584 6.055885 27.899708
2150 15 1 -1.1794 14.151475 5.943750 28.333143
2151 15 2 0.5897 14.066031 5.860324 29.309508
2152 15 2 0.5897 14.631467 5.116387 28.108108
2153 15 1 -1.1794 21.511025 5.943750 31.104357
2154 15 2 0.5897 21.012738 6.746978 31.378833
2155 15 2 0.5897 22.296660 5.981743 31.691061
2156 15 1 -1.1794 14.151475 5.943750 31.104357
2157 15 2 0.5897 14.724602 6.713267 31.333605
2158 15 2 0.5897 14.735793 5.195886 31.372239
2159 15 1 -1.1794 17.831250 7.329357 26.038975
2160 15 2 0.5897 17.072622 7.681106 26.563093
2161 15 2 0.5897 18.590624 7.614122 26.611075
2162 15 1 -1.1794 17.831250 7.329357 33.398525
2163 15 2 0.5897 17.866750 7.933206 34.177818
2164 15 2 0.5897 18.629737 7.615502 32.897842
2165 15 1 -1.1794 17.831250 4.558143 26.038975
2166 15 2 0.5897 18.036764 5.526242 26.105661
2167 15 2 0.5897 17.051778 4.644161 25.460681
2168 15 1 -1.1794 17.831250 4.558143 33.398525
2169 15 2 0.5897 17.786883 5.525713 33.570644
2170 15 2 0.5897 17.812692 4.166192 34.296889
2171 15 1 -1.1794 19.216857 9.623525 29.718750
2172 15 2 0.5897 18.248976 9.764884 29.624090
2173 15 2 0.5897 19.585820 10.525718 29.619322
2174 15 1 -1.1794 19.216857 2.263975 29.718750
2175 15 2 0.5897 19.548088 2.814285 30.465503
2176 15 2 0.5897 19.545958 2.783199 28.947706
2177 15 1 -1.1794 16.445643 9.623525 29.718750
2178 15 2 0.5897 15.860556 10.416229 29.725416
2179 15 2 0.5897 16.128088 9.145485 30.518014
2180 15 1 -1.1794 16.445643 2.263975 29.718750
2181 15 2 0.5897 16.249390 2.805372 30.517625
2182 15 2 0.5897 17.424678 2.172928 29.785242
2183 15 3 0.0 11.887500 0.000000 23.775000
2184 15 3 0.0 17.831250 5.943750 29.718750
2185 15 3 0.0 11.887500 2.971875 29.718750
2186 15 3 0.0 11.887500 8.915625 29.718750
2187 15 3 0.0 17.831250 0.000000 26.746875
2188 15 3 0.0 17.831250 0.000000 32.690625
2189 15 3 0.0 14.859375 5.943750 23.775000
2190 15 3 0.0 20.803125 5.943750 23.775000
2191 16 1 -1.1794 11.887500 17.831250 2.971875
2192 16 2 0.5897 11.897156 18.633882 2.401692
2193 16 2 0.5897 12.706706 17.966305 3.500477
2194 16 1 -1.1794 11.887500 17.831250 8.915625
2195 16 2 0.5897 12.168567 18.695936 9.277971
2196 16 2 0.5897 12.610734 17.700273 8.254920
2197 16 1 -1.1794 14.859375 11.887500 5.943750
2198 16 2 0.5897 14.296866 12.000295 6.741859
2199 16 2 0.5897 15.393904 12.713596 5.955505
2200 16 1 -1.1794 20.803125 11.887500 5.943750
2201 16 2 0.5897 20.240617 12.685610 6.056546
2202 16 2 0.5897 21.337653 11.899253 6.769848
2203 16 1 -1.1794 17.831250 14.859375 0.000000
2204 16 2 0.5897 18.112323 15.221727 0.864683
2205 16 2 0.5897 18.554485 14.198672 -0.130979
2206 16 1 -1.1794 17.831250 20.803125 0.000000
2207 16 2 0.5897 17.840909 20.232941 0.802632
2208 16 2 0.5897 18.650455 21.331727 0.135054
2209 16 1 -1.1794 14.083240 14.083240 2.195740
2210 16 2 0.5897 13.818243 13.290281 2.721735
2211 16 2 0.5897 14.595546 14.595572 2.862811
2212 16 1 -1.1794 21.579260 21.579260 2.195740
2213 16 2 0.5897 21.865888 22.404281 2.648501
2214 16 2 0.5897 21.004218 21.931314 1.480933
2215 16 1 -1.1794 21.579260 14.083240 9.691760
2216 16 2 0.5897 21.041781 14.669808 9.104938
2217 16 2 0.5897 22.340371 14.669832 9.905926
2218 16 1 -1.1794 14.083240 21.579260 9.691760
2219 16 2 0.5897 13.321015 21.076365 10.050449
2220 16 2 0.5897 14.541573 21.837280 10.533970
2221 16 1 -1.1794 20.026990 20.026990 3.748010
2222 16 2 0.5897 19.942952 20.494415 4.601005
2223 16 2 0.5897 20.732952 20.531810 3.294149
2224 16 1 -1.1794 15.635510 15.635510 3.748010
2225 16 2 0.5897 15.889865 15.072288 4.519697
2226 16 2 0.5897 16.527481 15.858336 3.410372
2227 16 1 -1.1794 20.026990 15.635510 8.139490
2228 16 2 0.5897 19.240636 15.998445 8.609681
2229 16 2 0.5897 20.454714 16.460492 7.810198
2230 16 1 -1.1794 15.635510 20.026990 8.139490
2231 16 2 0.5897 15.123113 20.619046 8.742287
2232 16 2 0.5897 16.378956 19.756971 8.725499
2233 16 1 -1.1794 21.579260 21.579260 9.691760
2234 16 2 0.5897 21.833637 22.350942 9.128541
2235 16 2 0.5897 22.471221 21.241596 9.914592
2236 16 1 -1.1794 14.083240 14.083240 9.691760
2237 16 2 0.5897 13.296885 14.553429 10.054694
2238 16 2 0.5897 14.510964 13.753947 10.516742
2239 16 1 -1.1794 14.083240 21.579260 2.195740
2240 16 2 0.5897 13.999203 22.432255 2.663166
2241 16 2 0.5897 14.789202 21.125398 2.700560
2242 16 1 -1.1794 21.579260 14.083240 2.195740
2243 16 2 0.5897 21.066861 14.686035 2.787796
2244 16 2 0.5897 22.322705 14.669250 1.925722
2245 16 1 -1.1794 15.635510 15.635510 8.139490
2246 16 2 0.5897 15.098031 15.048688 8.726058
2247 16 2 0.5897 16.396620 15.849677 8.726082
2248 16 1 -1.1794 20.026990 20.026990 8.139490
2249 16 2 0.5897 19.761994 20.552984 7.346530
2250 16 2 0.5897 20.539295 20.694063 8.651821
2251 16 1 -1.1794 15.635510 20.026990 3.748010
2252 16 2 0.5897 15.922137 20.479751 4.573031
2253 16 2 0.5897 15.060469 19.312181 4.100063
2254 16 1 -1.1794 20.026990 15.635510 3.748010
2255 16 2 0.5897 19.264769 15.994205 3.245111
2256 16 2 0.5897 20.485326 16.477718 4.006031
2257 16 1 -1.1794 11.887500 15.567275 1.385607
2258 16 2 0.5897 11.922998 16.346567 1.989457
2259 16 2 0.5897 12.685985 15.066590 1.671756
2260 16 1 -1.1794 11.887500 20.095225 1.385607
2261 16 2 0.5897 11.128869 20.619342 1.737352
2262 16 2 0.5897 12.646872 20.667326 1.670376
2263 16 1 -1.1794 11.887500 15.567275 10.501893
2264 16 2 0.5897 11.843132 15.739390 11.469464
2265 16 2 0.5897 11.868941 16.465641 10.109946
2266 16 1 -1.1794 11.887500 20.095225 10.501893
2267 16 2 0.5897 12.093029 20.161938 11.469986
2268 16 2 0.5897 11.108049 19.516897 10.587942
2269 16 1 -1.1794 13.273107 11.887500 3.679775
2270 16 2 0.5897 12.305226 11.792841 3.821134
2271 16 2 0.5897 13.642070 11.788072 4.581968
2272 16 1 -1.1794 13.273107 11.887500 8.207725
2273 16 2 0.5897 13.604336 12.634254 8.758036
2274 16 2 0.5897 13.602206 11.116457 8.726950
2275 16 1 -1.1794 22.389393 11.887500 3.679775
2276 16 2 0.5897 21.804308 11.894167 4.472479
2277 16 2 0.5897 22.071838 12.686764 3.201735
2278 16 1 -1.1794 22.389393 11.887500 8.207725
2279 16 2 0.5897 22.193138 12.686373 8.749125
2280 16 2 0.5897 23.368428 11.953994 8.116678
2281 16 1 -1.1794 15.567275 13.273107 0.000000
2282 16 2 0.5897 15.068986 13.547580 0.803227
2283 16 2 0.5897 16.352910 13.859811 0.037997
2284 16 1 -1.1794 20.095225 13.273107 0.000000
2285 16 2 0.5897 20.668354 13.502355 0.769515
2286 16 2 0.5897 20.679541 13.540988 -0.747865
2287 16 1 -1.1794 15.567275 22.389393 0.000000
2288 16 2 0.5897 15.757086 23.339877 0.104347
2289 16 2 0.5897 16.433834 21.955958 0.112136
2290 16 1 -1.1794 20.095225 22.389393 0.000000
2291 16 2 0.5897 20.009784 23.365758 -0.083426
2292 16 2 0.5897 20.575217 22.164357 -0.827363
2293 16 1 -1.1794 21.511025 17.831250 4.558143
2294 16 2 0.5897 21.700835 17.935598 5.508627
2295 16 2 0.5897 22.377584 17.943385 4.124708
2296 16 1 -1.1794 14.151475 17.831250 4.558143
2297 16 2 0.5897 14.066031 17.747824 5.534508
2298 16 2 0.5897 14.631467 17.003887 4.333108
2299 16 1 -1.1794 21.511025 17.831250 7.329357
2300 16 2 0.5897 21.012738 18.634478 7.603833
2301 16 2 0.5897 22.296660 17.869243 7.916061
2302 16 1 -1.1794 14.151475 17.831250 7.329357
2303 16 2 0.5897 14.724602 18.600767 7.558605
2304 16 2 0.5897 14.735793 17.083386 7.597239
2305 16 1 -1.1794 17.831250 19.216857 2.263975
2306 16 2 0.5897 17.072622 19.568606 2.788093
2307 16 2 0.5897 18.590624 19.501622 2.836075
2308 16 1 -1.1794 17.831250 19.216857 9.623525
2309 16 2 0.5897 17.866750 19.820706 10.402818
2310 16 2 0.5897 18.629737 19.503002 9.122842
2311 16 1 -1.1794 17.831250 16.445643 2.263975
2312 16 2 0.5897 18.036764 17.413742 2.330661
2313 16 2 0.5897 17.051778 16.531661 1.685681
2314 16 1 -1.1794 17.831250 16.445643 9.623525
2315 16 2 0.5897 17.786883 17.413213 9.795644
2316 16 2 0.5897 17.812692 16.053692 10.521889
2317 16 1 -1.1794 19.216857 21.511025 5.943750
2318 16 2 0.5897 18.248976 21.652384 5.849090
2319 16 2 0.5897 19.585820 22.413218 5.844322
2320 16 1 -1.1794 19.216857 14.151475 5.943750
2321 16 2 0.5897 19.548088 14.701785 6.690503
2322 16 2 0.5897 19.545958 14.670699 5.172706
2323 16 1 -1.1794 16.445643 21.511025 5.943750
2324 16 2 0.5897 15.860556 22.303729 5.950416
2325 16 2 0.5897 16.128088 21.032985 6.743014
2326 16 1 -1.1794 16.445643 14.151475 5.943750
2327 16 2 0.5897 16.249390 14.692872 6.742625
2328 16 2 0.5897 17.424678 14.060428 6.010242
2329 16 3 0.0 11.887500 11.887500 0.000000
2330 16 3 0.0 17.831250 17.831250 5.943750
2331 16 3 0.0 11.887500 14.859375 5.943750
2332 16 3 0.0 11.887500 20.803125 5.943750
2333 16 3 0.0 17.831250 11.887500 2.971875
2334 16 3 0.0 17.831250 11.887500 8.915625
2335 16 3 0.0 14.859375 17.831250 0.000000
2336 16 3 0.0 20.803125 17.831250 0.000000
2337 17 1 -1.1794 11.887500 17.831250 14.859375
2338 17 2 0.5897 11.897156 18.633882 14.289192
2339 17 2 0.5897 12.706706 17.966305 15.387977
2340 17 1 -1.1794 11.887500 17.831250 20.803125
2341 17 2 0.5897 12.168567 18.695936 21.165471
2342 17 2 0.5897 12.610734 17.700273 20.142420
2343 17 1 -1.1794 14.859375 11.887500 17.831250
2344 17 2 0.5897 14.296866 12.000295 18.629359
2345 17 2 0.5897 15.393904 12.713596 17.843005
2346 17 1 -1.1794 20.803125 11.887500 17.831250
2347 17 2 0.5897 20.240617 12.685610 17.944046
2348 17 2 0.5897 21.337653 11.899253 18.657348
2349 17 1 -1.1794 17.831250 14.859375 11.887500
2350 17 2 0.5897 18.112323 15.221727 12.752183
2351 17 2 0.5897 18.554485 14.198672 11.756521
2352 17 1 -1.1794 17.831250 20.803125 11.887500
2353 17 2 0.5897 17.840909 20.232941 12.690132
2354 17 2 0.5897 18.650455 21.331727 12.022554
2355 17 1 -1.1794 14.083240 14.083240 14.083240
2356 17 2 0.5897 13.818243 13.290281 14.609235
2357 17 2 0.5897 14.595546 14.595572 14.750311
2358 17 1 -1.1794 21.579260 21.579260 14.083240
2359 17 2 0.5897 21.865888 22.404281 14.536001
2360 17 2 0.5897 21.004218 21.931314 13.368433
2361 17 1 -1.1794 21.579260 14.083240 21.579260
2362 17 2 0.5897 21.041781 14.669808 20.992438
2363 17 2 0.5897 22.340371 14.669832 21.793426
2364 17 1 -1.1794 14.083240 21.579260 21.579260
2365 17 2 0.5897 13.321015 21.076365 21.937949
2366 17 2 0.5897 14.541573 21.837280 22.421470
2367 17 1 -1.1794 20.026990 20.026990 15.635510
2368 17 2 0.5897 19.942952 20.494415 16.488505
2369 17 2 0.5897 20.732952 20.531810 15.181649
2370 17 1 -1.1794 15.635510 15.635510 15.635510
2371 17 2 0.5897 15.889865 15.072288 16.407197
2372 17 2 0.5897 16.527481 15.858336 15.297872
2373 17 1 -1.1794 20.026990 15.635510 20.026990
2374 17 2 0.5897 19.240636 15.998445 20.497181
2375 17 2 0.5897 20.454714 16.460492 19.697698
2376 17 1 -1.1794 15.635510 20.026990 20.026990
2377 17 2 0.5897 15.123113 20.619046 20.629787
2378 17 2 0.5897 16.378956 19.756971 20.612999
2379 17 1 -1.1794 21.579260 21.579260 21.579260
2380 17 2 0.5897 21.833637 22.350942 21.016041
2381 17 2 0.5897 22.471221 21.241596 21.802092
2382 17 1 -1.1794 14.083240 14.083240 21.579260
2383 17 2 0.5897 13.296885 14.553429 21.942194
2384 17 2 0.5897 14.510964 13.753947 22.404242
2385 17 1 -1.1794 14.083240 21.579260 14.083240
2386 17 2 0.5897 13.999203 22.432255 14.550666
2387 17 2 0.5897 14.789202 21.125398 14.588060
2388 17 1 -1.1794 21.579260 14.083240 14.083240
2389 17 2 0.5897 21.066861 14.686035 14.675296
2390 17 2 0.5897 22.322705 14.669250 13.813222
2391 17 1 -1.1794 15.635510 15.635510 20.026990
2392 17 2 0.5897 15.098031 15.048688 20.613558
2393 17 2 0.5897 16.396620 15.849677 20.613582
2394 17 1 -1.1794 20.026990 20.026990 20.026990
2395 17 2 0.5897 19.761994 20.552984 19.234030
2396 17 2 0.5897 20.539295 20.694063 20.539321
2397 17 1 -1.1794 15.635510 20.026990 15.635510
2398 17 2 0.5897 15.922137 20.479751 16.460531
2399 17 2 0.5897 15.060469 19.312181 15.987563
2400 17 1 -1.1794 20.026990 15.635510 15.635510
2401 17 2 0.5897 19.264769 15.994205 15.132611
2402 17 2 0.5897 20.485326 16.477718 15.893531
2403 17 1 -1.1794 11.887500 15.567275 13.273107
2404 17 2 0.5897 11.922998 16.346567 13.876957
2405 17 2 0.5897 12.685985 15.066590 13.559256
2406 17 1 -1.1794 11.887500 20.095225 13.273107
2407 17 2 0.5897 11.128869 20.619342 13.624852
2408 17 2 0.5897 12.646872 20.667326 13.557876
2409 17 1 -1.1794 11.887500 15.567275 22.389393
2410 17 2 0.5897 11.843132 15.739390 23.356964
2411 17 2 0.5897 11.868941 16.465641 21.997446
2412 17 1 -1.1794 11.887500 20.095225 22.389393
2413 17 2 0.5897 12.093029 20.161938 23.357486
2414 17 2 0.5897 11.108049 19.516897 22.475442
2415 17 1 -1.1794 13.273107 11.887500 15.567275
2416 17 2 0.5897 12.305226 11.792841 15.708634
2417 17 2 0.5897 13.642070 11.788072 16.469468
2418 17 1 -1.1794 13.273107 11.887500 20.095225
2419 17 2 0.5897 13.604336 12.634254 20.645536
2420 17 2 0.5897 13.602206 11.116457 20.614450
2421 17 1 -1.1794 22.389393 11.887500 15.567275
2422 17 2 0.5897 21.804308 11.894167 16.359979
2423 17 2 0.5897 22.071838 12.686764 15.089235
2424 17 1 -1.1794 22.389393 11.887500 20.095225
2425 17 2 0.5897 22.193138 12.686373 20.636625
2426 17 2 0.5897 23.368428 11.953994 20.004178
2427 17 1 -1.1794 15.567275 13.273107 11.887500
2428 17 2 0.5897 15.068986 13.547580 12.690727
2429 17 2 0.5897 16.352910 13.859811 11.925497
2430 17 1 -1.1794 20.095225 13.273107 11.887500
2431 17 2 0.5897 20.668354 13.502355 12.657015
2432 17 2 0.5897 20.679541 13.540988 11.139635
2433 17 1 -1.1794 15.567275 22.389393 11.887500
2434 17 2 0.5897 15.757086 23.339877 11.991847
2435 17 2 0.5897 16.433834 21.955958 11.999636
2436 17 1 -1.1794 20.095225 22.389393 11.887500
2437 17 2 0.5897 20.009784 23.365758 11.804074
2438 17 2 0.5897 20.575217 22.164357 11.060137
2439 17 1 -1.1794 21.511025 17.831250 16.445643
2440 17 2 0.5897 21.700835 17.935598 17.396127
2441 17 2 0.5897 22.377584 17.943385 16.012208
2442 17 1 -1.1794 14.151475 17.831250 16.445643
2443 17 2 0.5897 14.066031 17.747824 17.422008
2444 17 2 0.5897 14.631467 17.003887 16.220608
2445 17 1 -1.1794 21.511025 17.831250 19.216857
2446 17 2 0.5897 21.012738 18.634478 19.491333
2447 17 2 0.5897 22.296660 17.869243 19.803561
2448 17 1 -1.1794 14.151475 17.831250 19.216857
2449 17 2 0.5897 14.724602 18.600767 19.446105
2450 17 2 0.5897 14.735793 17.083386 19.484739
2451 17 1 -1.1794 17.831250 19.216857 14.151475
2452 17 2 0.5897 17.072622 19.568606 14.675593
2453 17 2 0.5897 18.590624 19.501622 14.723575
2454 17 1 -1.1794 17.831250 19.216857 21.511025
2455 17 2 0.5897 17.866750 19.820706 22.290318
2456 17 2 0.5897 18.629737 19.503002 21.010342
2457 17 1 -1.1794 17.831250 16.445643 14.151475
2458 17 2 0.5897 18.036764 17.413742 14.218161
2459 17 2 0.5897 17.051778 16.531661 13.573181
2460 17 1 -1.1794 17.831250 16.445643 21.511025
2461 17 2 0.5897 17.786883 17.413213 21.683144
2462 17 2 0.5897 17.812692 16.053692 22.409389
2463 17 1 -1.1794 19.216857 21.511025 17.831250
2464 17 2 0.5897 18.248976 21.652384 17.736590
2465 17 2 0.5897 19.585820 22.413218 17.731822
2466 17 1 -1.1794 19.216857 14.151475 17.831250
2467 17 2 0.5897 19.548088 14.701785 18.578003
2468 17 2 0.5897 19.545958 14.670699 17.060206
2469 17 1 -1.1794 16.445643 21.511025 17.831250
2470 17 2 0.5897 15.860556 22.303729 17.837916
2471 17 2 0.5897 16.128088 21.032985 18.630514
2472 17 1 -1.1794 16.445643 14.151475 17.831250
2473 17 2 0.5897 16.249390 14.692872 18.630125
2474 17 2 0.5897 17.424678 14.060428 17.897742
2475 17 3 0.0 11.887500 11.887500 11.887500
2476 17 3 0.0 17.831250 17.831250 17.831250
2477 17 3 0.0 11.887500 14.859375 17.831250
2478 17 3 0.0 11.887500 20.803125 17.831250
2479 17 3 0.0 17.831250 11.887500 14.859375
2480 17 3 0.0 17.831250 11.887500 20.803125
2481 17 3 0.0 14.859375 17.831250 11.887500
2482 17 3 0.0 20.803125 17.831250 11.887500
2483 18 1 -1.1794 11.887500 17.831250 26.746875
2484 18 2 0.5897 11.897156 18.633882 26.176692
2485 18 2 0.5897 12.706706 17.966305 27.275477
2486 18 1 -1.1794 11.887500 17.831250 32.690625
2487 18 2 0.5897 12.168567 18.695936 33.052971
2488 18 2 0.5897 12.610734 17.700273 32.029920
2489 18 1 -1.1794 14.859375 11.887500 29.718750
2490 18 2 0.5897 14.296866 12.000295 30.516859
2491 18 2 0.5897 15.393904 12.713596 29.730505
2492 18 1 -1.1794 20.803125 11.887500 29.718750
2493 18 2 0.5897 20.240617 12.685610 29.831546
2494 18 2 0.5897 21.337653 11.899253 30.544848
2495 18 1 -1.1794 17.831250 14.859375 23.775000
2496 18 2 0.5897 18.112323 15.221727 24.639683
2497 18 2 0.5897 18.554485 14.198672 23.644021
2498 18 1 -1.1794 17.831250 20.803125 23.775000
2499 18 2 0.5897 17.840909 20.232941 24.577632
2500 18 2 0.5897 18.650455 21.331727 23.910054
2501 18 1 -1.1794 14.083240 14.083240 25.970740
2502 18 2 0.5897 13.818243 13.290281 26.496735
2503 18 2 0.5897 14.595546 14.595572 26.637811
2504 18 1 -1.1794 21.579260 21.579260 25.970740
2505 18 2 0.5897 21.865888 22.404281 26.423501
2506 18 2 0.5897 21.004218 21.931314 25.255933
2507 18 1 -1.1794 21.579260 14.083240 33.466760
2508 18 2 0.5897 21.041781 14.669808 32.879938
2509 18 2 0.5897 22.340371 14.669832 33.680926
2510 18 1 -1.1794 14.083240 21.579260 33.466760
2511 18 2 0.5897 13.321015 21.076365 33.825449
2512 18 2 0.5897 14.541573 21.837280 34.308970
2513 18 1 -1.1794 20.026990 20.026990 27.523010
2514 18 2 0.5897 19.942952 20.494415 28.376005
2515 18 2 0.5897 20.732952 20.531810 27.069149
2516 18 1 -1.1794 15.635510 15.635510 27.523010
2517 18 2 0.5897 15.889865 15.072288 28.294697
2518 18 2 0.5897 16.527481 15.858336 27.185372
2519 18 1 -1.1794 20.026990 15.635510 31.914490
2520 18 2 0.5897 19.240636 15.998445 32.384681
2521 18 2 0.5897 20.454714 16.460492 31.585198
2522 18 1 -1.1794 15.635510 20.026990 31.914490
2523 18 2 0.5897 15.123113 20.619046 32.517287
2524 18 2 0.5897 16.378956 19.756971 32.500499
2525 18 1 -1.1794 21.579260 21.579260 33.466760
2526 18 2 0.5897 21.833637 22.350942 32.903541
2527 18 2 0.5897 22.471221 21.241596 33.689592
2528 18 1 -1.1794 14.083240 14.083240 33.466760
2529 18 2 0.5897 13.296885 14.553429 33.829694
2530 18 2 0.5897 14.510964 13.753947 34.291742
2531 18 1 -1.1794 14.083240 21.579260 25.970740
2532 18 2 0.5897 13.999203 22.432255 26.438166
2533 18 2 0.5897 14.789202 21.125398 26.475560
2534 18 1 -1.1794 21.579260 14.083240 25.970740
2535 18 2 0.5897 21.066861 14.686035 26.562796
2536 18 2 0.5897 22.322705 14.669250 25.700722
2537 18 1 -1.1794 15.635510 15.635510 31.914490
2538 18 2 0.5897 15.098031 15.048688 32.501058
2539 18 2 0.5897 16.396620 15.849677 32.501082
2540 18 1 -1.1794 20.026990 20.026990 31.914490
2541 18 2 0.5897 19.761994 20.552984 31.121530
2542 18 2 0.5897 20.539295 20.694063 32.426821
2543 18 1 -1.1794 15.635510 20.026990 27.523010
2544 18 2 0.5897 15.922137 20.479751 28.348031
2545 18 2 0.5897 15.060469 19.312181 27.875063
2546 18 1 -1.1794 20.026990 15.635510 27.523010
2547 18 2 0.5897 19.264769 15.994205 27.020111
2548 18 2 0.5897 20.485326 16.477718 27.781031
2549 18 1 -1.1794 11.887500 15.567275 25.160607
2550 18 2 0.5897 11.922998 16.346567 25.764457
2551 18 2 0.5897 12.685985 15.066590 25.446756
2552 18 1 -1.1794 11.887500 20.095225 25.160607
2553 18 2 0.5897 11.128869 20.619342 25.512352
2554 18 2 0.5897 12.646872 20.667326 25.445376
2555 18 1 -1.1794 11.887500 15.567275 34.276893
2556 18 2 0.5897 11.843132 15.739390 35.244464
2557 18 2 0.5897 11.868941 16.465641 33.884946
2558 18 1 -1.1794 11.887500 20.095225 34.276893
2559 18 2 0.5897 12.093029 20.161938 35.244986
2560 18 2 0.5897 11.108049 19.516897 34.362942
2561 18 1 -1.1794 13.273107 11.887500 27.454775
2562 18 2 0.5897 12.305226 11.792841 27.596134
2563 18 2 0.5897 13.642070 11.788072 28.356968
2564 18 1 -1.1794 13.273107 11.887500 31.982725
2565 18 2 0.5897 13.604336 12.634254 32.533036
2566 18 2 0.5897 13.602206 11.116457 32.501950
2567 18 1 -1.1794 22.389393 11.887500 27.454775
2568 18 2 0.5897 21.804308 11.894167 28.247479
2569 18 2 0.5897 22.071838 12.686764 26.976735
2570 18 1 -1.1794 22.389393 11.887500 31.982725
2571 18 2 0.5897 22.193138 12.686373 32.524125
2572 18 2 0.5897 23.368428 11.953994 31.891678
2573 18 1 -1.1794 15.567275 13.273107 23.775000
2574 18 2 0.5897 15.068986 13.547580 24.578227
2575 18 2 0.5897 16.352910 13.859811 23.812997
2576 18 1 -1.1794 20.095225 13.273107 23.775000
2577 18 2 0.5897 20.668354 13.502355 24.544515
2578 18 2 0.5897 20.679541 13.540988 23.027135
2579 18 1 -1.1794 15.567275 22.389393 23.775000
2580 18 2 0.5897 15.757086 23.339877 23.879347
2581 18 2 0.5897 16.433834 21.955958 23.887136
2582 18 1 -1.1794 20.095225 22.389393 23.775000
2583 18 2 0.5897 20.009784 23.365758 23.691574
2584 18 2 0.5897 20.575217 22.164357 22.947637
2585 18 1 -1.1794 21.511025 17.831250 28.333143
2586 18 2 0.5897 21.700835 17.935598 29.283627
2587 18 2 0.5897 22.377584 17.943385 27.899708
2588 18 1 -1.1794 14.151475 17.831250 28.333143
2589 18 2 0.5897 14.066031 17.747824 29.309508
2590 18 2 0.5897 14.631467 17.003887 28.108108
2591 18 1 -1.1794 21.511025 17.831250 31.104357
2592 18 2 0.5897 21.012738 18.634478 31.378833
2593 18 2 0.5897 22.296660 17.869243 31.691061
2594 18 1 -1.1794 14.151475 17.831250 31.104357
2595 18 2 0.5897 14.724602 18.600767 31.333605
2596 18 2 0.5897 14.735793 17.083386 31.372239
2597 18 1 -1.1794 17.831250 19.216857 26.038975
2598 18 2 0.5897 17.072622 19.568606 26.563093
2599 18 2 0.5897 18.590624 19.501622 26.611075
2600 18 1 -1.1794 17.831250 19.216857 33.398525
2601 18 2 0.5897 17.866750 19.820706 34.177818
2602 18 2 0.5897 18.629737 19.503002 32.897842
2603 18 1 -1.1794 17.831250 16.445643 26.038975
2604 18 2 0.5897 18.036764 17.413742 26.105661
2605 18 2 0.5897 17.051778 16.531661 25.460681
2606 18 1 -1.1794 17.831250 16.445643 33.398525
2607 18 2 0.5897 17.786883 17.413213 33.570644
2608 18 2 0.5897 17.812692 16.053692 34.296889
2609 18 1 -1.1794 19.216857 21.511025 29.718750
2610 18 2 0.5897 18.248976 21.652384 29.624090
2611 18 2 0.5897 19.585820 22.413218 29.619322
2612 18 1 -1.1794 19.216857 14.151475 29.718750
2613 18 2 0.5897 19.548088 14.701785 30.465503
2614 18 2 0.5897 19.545958 14.670699 28.947706
2615 18 1 -1.1794 16.445643 21.511025 29.718750
2616 18 2 0.5897 15.860556 22.303729 29.725416
2617 18 2 0.5897 16.128088 21.032985 30.518014
2618 18 1 -1.1794 16.445643 14.151475 29.718750
2619 18 2 0.5897 16.249390 14.692872 30.517625
2620 18 2 0.5897 17.424678 14.060428 29.785242
2621 18 3 0.0 11.887500 11.887500 23.775000
2622 18 3 0.0 17.831250 17.831250 29.718750
2623 18 3 0.0 11.887500 14.859375 29.718750
2624 18 3 0.0 11.887500 20.803125 29.718750
2625 18 3 0.0 17.831250 11.887500 26.746875
2626 18 3 0.0 17.831250 11.887500 32.690625
2627 18 3 0.0 14.859375 17.831250 23.775000
2628 18 3 0.0 20.803125 17.831250 23.775000
2629 19 1 -1.1794 11.887500 29.718750 2.971875
2630 19 2 0.5897 11.897156 30.521382 2.401692
2631 19 2 0.5897 12.706706 29.853805 3.500477
2632 19 1 -1.1794 11.887500 29.718750 8.915625
2633 19 2 0.5897 12.168567 30.583436 9.277971
2634 19 2 0.5897 12.610734 29.587773 8.254920
2635 19 1 -1.1794 14.859375 23.775000 5.943750
2636 19 2 0.5897 14.296866 23.887795 6.741859
2637 19 2 0.5897 15.393904 24.601096 5.955505
2638 19 1 -1.1794 20.803125 23.775000 5.943750
2639 19 2 0.5897 20.240617 24.573110 6.056546
2640 19 2 0.5897 21.337653 23.786753 6.769848
2641 19 1 -1.1794 17.831250 26.746875 0.000000
2642 19 2 0.5897 18.112323 27.109227 0.864683
2643 19 2 0.5897 18.554485 26.086172 -0.130979
2644 19 1 -1.1794 17.831250 32.690625 0.000000
2645 19 2 0.5897 17.840909 32.120441 0.802632
2646 19 2 0.5897 18.650455 33.219227 0.135054
2647 19 1 -1.1794 14.083240 25.970740 2.195740
2648 19 2 0.5897 13.818243 25.177781 2.721735
2649 19 2 0.5897 14.595546 26.483072 2.862811
2650 19 1 -1.1794 21.579260 33.466760 2.195740
2651 19 2 0.5897 21.865888 34.291781 2.648501
2652 19 2 0.5897 21.004218 33.818814 1.480933
2653 19 1 -1.1794 21.579260 25.970740 9.691760
2654 19 2 0.5897 21.041781 26.557308 9.104938
2655 19 2 0.5897 22.340371 26.557332 9.905926
2656 19 1 -1.1794 14.083240 33.466760 9.691760
2657 19 2 0.5897 13.321015 32.963865 10.050449
2658 19 2 0.5897 14.541573 33.724780 10.533970
2659 19 1 -1.1794 20.026990 31.914490 3.748010
2660 19 2 0.5897 19.942952 32.381915 4.601005
2661 19 2 0.5897 20.732952 32.419310 3.294149
2662 19 1 -1.1794 15.635510 27.523010 3.748010
2663 19 2 0.5897 15.889865 26.959788 4.519697
2664 19 2 0.5897 16.527481 27.745836 3.410372
2665 19 1 -1.1794 20.026990 27.523010 8.139490
2666 19 2 0.5897 19.240636 27.885945 8.609681
2667 19 2 0.5897 20.454714 28.347992 7.810198
2668 19 1 -1.1794 15.635510 31.914490 8.139490
2669 19 2 0.5897 15.123113 32.506546 8.742287
2670 19 2 0.5897 16.378956 31.644471 8.725499
2671 19 1 -1.1794 21.579260 33.466760 9.691760
2672 19 2 0.5897 21.833637 34.238442 9.128541
2673 19 2 0.5897 22.471221 33.129096 9.914592
2674 19 1 -1.1794 14.083240 25.970740 9.691760
2675 19 2 0.5897 13.296885 26.440929 10.054694
2676 19 2 0.5897 14.510964 25.641447 10.516742
2677 19 1 -1.1794 14.083240 33.466760 2.195740
2678 19 2 0.5897 13.999203 34.319755 2.663166
2679 19 2 0.5897 14.789202 33.012898 2.700560
2680 19 1 -1.1794 21.579260 25.970740 2.195740
2681 19 2 0.5897 21.066861 26.573535 2.787796
2682 19 2 0.5897 22.322705 26.556750 1.925722
2683 19 1 -1.1794 15.635510 27.523010 8.139490
2684 19 2 0.5897 15.098031 26.936188 8.726058
2685 19 2 0.5897 16.396620 27.737177 8.726082
2686 19 1 -1.1794 20.026990 31.914490 8.139490
2687 19 2 0.5897 19.761994 32.440484 7.346530
2688 19 2 0.5897 20.539295 32.581563 8.651821
2689 19 1 -1.1794 15.635510 31.914490 3.748010
2690 19 2 0.5897 15.922137 32.367251 4.573031
2691 19 2 0.5897 15.060469 31.199681 4.100063
2692 19 1 -1.1794 20.026990 27.523010 3.748010
2693 19 2 0.5897 19.264769 27.881705 3.245111
2694 19 2 0.5897 20.485326 28.365218 4.006031
2695 19 1 -1.1794 11.887500 27.454775 1.385607
2696 19 2 0.5897 11.922998 28.234067 1.989457
2697 19 2 0.5897 12.685985 26.954090 1.671756
2698 19 1 -1.1794 11.887500 31.982725 1.385607
2699 19 2 0.5897 11.128869 32.506842 1.737352
2700 19 2 0.5897 12.646872 32.554826 1.670376
2701 19 1 -1.1794 11.887500 27.454775 10.501893
2702 19 2 0.5897 11.843132 27.626890 11.469464
2703 19 2 0.5897 11.868941 28.353141 10.109946
2704 19 1 -1.1794 11.887500 31.982725 10.501893
2705 19 2 0.5897 12.093029 32.049438 11.469986
2706 19 2 0.5897 11.108049 31.404397 10.587942
2707 19 1 -1.1794 13.273107 23.775000 3.679775
2708 19 2 0.5897 12.305226 23.680341 3.821134
2709 19 2 0.5897 13.642070 23.675572 4.581968
2710 19 1 -1.1794 13.273107 23.775000 8.207725
2711 19 2 0.5897 13.604336 24.521754 8.758036
2712 19 2 0.5897 13.602206 23.003957 8.726950
2713 19 1 -1.1794 22.389393 23.775000 3.679775
2714 19 2 0.5897 21.804308 23.781667 4.472479
2715 19 2 0.5897 22.071838 24.574264 3.201735
2716 19 1 -1.1794 22.389393 23.775000 8.207725
2717 19 2 0.5897 22.193138 24.573873 8.749125
2718 19 2 0.5897 23.368428 23.841494 8.116678
2719 19 1 -1.1794 15.567275 25.160607 0.000000
2720 19 2 0.5897 15.068986 25.435080 0.803227
2721 19 2 0.5897 16.352910 25.747311 0.037997
2722 19 1 -1.1794 20.095225 25.160607 0.000000
2723 19 2 0.5897 20.668354 25.389855 0.769515
2724 19 2 0.5897 20.679541 25.428488 -0.747865
2725 19 1 -1.1794 15.567275 34.276893 0.000000
2726 19 2 0.5897 15.757086 35.227377 0.104347
2727 19 2 0.5897 16.433834 33.843458 0.112136
2728 19 1 -1.1794 20.095225 34.276893 0.000000
2729 19 2 0.5897 20.009784 35.253258 -0.083426
2730 19 2 0.5897 20.575217 34.051857 -0.827363
2731 19 1 -1.1794 21.511025 29.718750 4.558143
2732 19 2 0.5897 21.700835 29.823098 5.508627
2733 19 2 0.5897 22.377584 29.830885 4.124708
2734 19 1 -1.1794 14.151475 29.718750 4.558143
2735 19 2 0.5897 14.066031 29.635324 5.534508
2736 19 2 0.5897 14.631467 28.891387 4.333108
2737 19 1 -1.1794 21.511025 29.718750 7.329357
2738 19 2 0.5897 21.012738 30.521978 7.603833
2739 19 2 0.5897 22.296660 29.756743 7.916061
2740 19 1 -1.1794 14.151475 29.718750 7.329357
2741 19 2 0.5897 14.724602 30.488267 7.558605
2742 19 2 0.5897 14.735793 28.970886 7.597239
2743 19 1 -1.1794 17.831250 31.104357 2.263975
2744 19 2 0.5897 17.072622 31.456106 2.788093
2745 19 2 0.5897 18.590624 31.389122 2.836075
2746 19 1 -1.1794 17.831250 31.104357 9.623525
2747 19 2 0.5897 17.866750 31.708206 10.402818
2748 19 2 0.5897 18.629737 31.390502 9.122842
2749 19 1 -1.1794 17.831250 28.333143 2.263975
2750 19 2 0.5897 18.036764 29.301242 2.330661
2751 19 2 0.5897 17.051778 28.419161 1.685681
2752 19 1 -1.1794 17.831250 28.333143 9.623525
2753 19 2 0.5897 17.786883 29.300713 9.795644
2754 19 2 0.5897 17.812692 27.941192 10.521889
2755 19 1 -1.1794 19.216857 33.398525 5.943750
2756 19 2 0.5897 18.248976 33.539884 5.849090
2757 19 2 0.5897 19.585820 34.300718 5.844322
2758 19 1 -1.1794 19.216857 26.038975 5.943750
2759 19 2 0.5897 19.548088 26.589285 6.690503
2760 19 2 0.5897 19.545958 26.558199 5.172706
2761 19 1 -1.1794 16.445643 33.398525 5.943750
2762 19 2 0.5897 15.860556 34.191229 5.950416
2763 19 2 0.5897 16.128088 32.920485 6.743014
2764 19 1 -1.1794 16.445643 26.038975 5.943750
2765 19 2 0.5897 16.249390 26.580372 6.742625
2766 19 2 0.5897 17.424678 25.947928 6.010242
2767 19 3 0.0 11.887500 23.775000 0.000000
2768 19 3 0.0 17.831250 29.718750 5.943750
2769 19 3 0.0 11.887500 26.746875 5.943750
2770 19 3 0.0 11.887500 32.690625 5.943750
2771 19 3 0.0 17.831250 23.775000 2.971875
2772 19 3 0.0 17.831250 23.775000 8.915625
2773 19 3 0.0 14.859375 29.718750 0.000000
2774 19 3 0.0 20.803125 29.718750 0.000000
2775 20 1 -1.1794 11.887500 29.718750 14.859375
2776 20 2 0.5897 11.897156 30.521382 14.289192
2777 20 2 0.5897 12.706706 29.853805 15.387977
2778 20 1 -1.1794 11.887500 29.718750 20.803125
2779 20 2 0.5897 12.168567 30.583436 21.165471
2780 20 2 0.5897 12.610734 29.587773 20.142420
2781 20 1 -1.1794 14.859375 23.775000 17.831250
2782 20 2 0.5897 14.296866 23.887795 18.629359
2783 20 2 0.5897 15.393904 24.601096 17.843005
2784 20 1 -1.1794 20.803125 23.775000 17.831250
2785 20 2 0.5897 20.240617 24.573110 17.944046
2786 20 2 0.5897 21.337653 23.786753 18.657348
2787 20 1 -1.1794 17.831250 26.746875 11.887500
2788 20 2 0.5897 18.112323 27.109227 12.752183
2789 20 2 0.5897 18.554485 26.086172 11.756521
2790 20 1 -1.1794 17.831250 32.690625 11.887500
2791 20 2 0.5897 17.840909 32.120441 12.690132
2792 20 2 0.5897 18.650455 33.219227 12.022554
2793 20 1 -1.1794 14.083240 25.970740 14.083240
2794 20 2 0.5897 13.818243 25.177781 14.609235
2795 20 2 0.5897 14.595546 26.483072 14.750311
2796 20 1 -1.1794 21.579260 33.466760 14.083240
2797 20 2 0.5897 21.865888 34.291781 14.536001
2798 20 2 0.5897 21.004218 33.818814 13.368433
2799 20 1 -1.1794 21.579260 25.970740 21.579260
2800 20 2 0.5897 21.041781 26.557308 20.992438
2801 20 2 0.5897 22.340371 26.557332 21.793426
2802 20 1 -1.1794 14.083240 33.466760 21.579260
2803 20 2 0.5897 13.321015 32.963865 21.937949
2804 20 2 0.5897 14.541573 33.724780 22.421470
2805 20 1 -1.1794 20.026990 31.914490 15.635510
2806 20 2 0.5897 19.942952 32.381915 16.488505
2807 20 2 0.5897 20.732952 32.419310 15.181649
2808 20 1 -1.1794 15.635510 27.523010 15.635510
2809 20 2 0.5897 15.889865 26.959788 16.407197
2810 20 2 0.5897 16.527481 27.745836 15.297872
2811 20 1 -1.1794 20.026990 27.523010 20.026990
2812 20 2 0.5897 19.240636 27.885945 20.497181
2813 20 2 0.5897 20.454714 28.347992 19.697698
2814 20 1 -1.1794 15.635510 31.914490 20.026990
2815 20 2 0.5897 15.123113 32.506546 20.629787
2816 20 2 0.5897 16.378956 31.644471 20.612999
2817 20 1 -1.1794 21.579260 33.466760 21.579260
2818 20 2 0.5897 21.833637 34.238442 21.016041
2819 20 2 0.5897 22.471221 33.129096 21.802092
2820 20 1 -1.1794 14.083240 25.970740 21.579260
2821 20 2 0.5897 13.296885 26.440929 21.942194
2822 20 2 0.5897 14.510964 25.641447 22.404242
2823 20 1 -1.1794 14.083240 33.466760 14.083240
2824 20 2 0.5897 13.999203 34.319755 14.550666
2825 20 2 0.5897 14.789202 33.012898 14.588060
2826 20 1 -1.1794 21.579260 25.970740 14.083240
2827 20 2 0.5897 21.066861 26.573535 14.675296
2828 20 2 0.5897 22.322705 26.556750 13.813222
2829 20 1 -1.1794 15.635510 27.523010 20.026990
2830 20 2 0.5897 15.098031 26.936188 20.613558
2831 20 2 0.5897 16.396620 27.737177 20.613582
2832 20 1 -1.1794 20.026990 31.914490 20.026990
2833 20 2 0.5897 19.761994 32.440484 19.234030
2834 20 2 0.5897 20.539295 32.581563 20.539321
2835 20 1 -1.1794 15.635510 31.914490 15.635510
2836 20 2 0.5897 15.922137 32.367251 16.460531
2837 20 2 0.5897 15.060469 31.199681 15.987563
2838 20 1 -1.1794 20.026990 27.523010 15.635510
2839 20 2 0.5897 19.264769 27.881705 15.132611
2840 20 2 0.5897 20.485326 28.365218 15.893531
2841 20 1 -1.1794 11.887500 27.454775 13.273107
2842 20 2 0.5897 11.922998 28.234067 13.876957
2843 20 2 0.5897 12.685985 26.954090 13.559256
2844 20 1 -1.1794 11.887500 31.982725 13.273107
2845 20 2 0.5897 11.128869 32.506842 13.624852
2846 20 2 0.5897 12.646872 32.554826 13.557876
2847 20 1 -1.1794 11.887500 27.454775 22.389393
2848 20 2 0.5897 11.843132 27.626890 23.356964
2849 20 2 0.5897 11.868941 28.353141 21.997446
2850 20 1 -1.1794 11.887500 31.982725 22.389393
2851 20 2 0.5897 12.093029 32.049438 23.357486
2852 20 2 0.5897 11.108049 31.404397 22.475442
2853 20 1 -1.1794 13.273107 23.775000 15.567275
2854 20 2 0.5897 12.305226 23.680341 15.708634
2855 20 2 0.5897 13.642070 23.675572 16.469468
2856 20 1 -1.1794 13.273107 23.775000 20.095225
2857 20 2 0.5897 13.604336 24.521754 20.645536
2858 20 2 0.5897 13.602206 23.003957 20.614450
2859 20 1 -1.1794 22.389393 23.775000 15.567275
2860 20 2 0.5897 21.804308 23.781667 16.359979
2861 20 2 0.5897 22.071838 24.574264 15.089235
2862 20 1 -1.1794 22.389393 23.775000 20.095225
2863 20 2 0.5897 22.193138 24.573873 20.636625
2864 20 2 0.5897 23.368428 23.841494 20.004178
2865 20 1 -1.1794 15.567275 25.160607 11.887500
2866 20 2 0.5897 15.068986 25.435080 12.690727
2867 20 2 0.5897 16.352910 25.747311 11.925497
2868 20 1 -1.1794 20.095225 25.160607 11.887500
2869 20 2 0.5897 20.668354 25.389855 12.657015
2870 20 2 0.5897 20.679541 25.428488 11.139635
2871 20 1 -1.1794 15.567275 34.276893 11.887500
2872 20 2 0.5897 15.757086 35.227377 11.991847
2873 20 2 0.5897 16.433834 33.843458 11.999636
2874 20 1 -1.1794 20.095225 34.276893 11.887500
2875 20 2 0.5897 20.009784 35.253258 11.804074
2876 20 2 0.5897 20.575217 34.051857 11.060137
2877 20 1 -1.1794 21.511025 29.718750 16.445643
2878 20 2 0.5897 21.700835 29.823098 17.396127
2879 20 2 0.5897 22.377584 29.830885 16.012208
2880 20 1 -1.1794 14.151475 29.718750 16.445643
2881 20 2 0.5897 14.066031 29.635324 17.422008
2882 20 2 0.5897 14.631467 28.891387 16.220608
2883 20 1 -1.1794 21.511025 29.718750 19.216857
2884 20 2 0.5897 21.012738 30.521978 19.491333
2885 20 2 0.5897 22.296660 29.756743 19.803561
2886 20 1 -1.1794 14.151475 29.718750 19.216857
2887 20 2 0.5897 14.724602 30.488267 19.446105
2888 20 2 0.5897 14.735793 28.970886 19.484739
2889 20 1 -1.1794 17.831250 31.104357 14.151475
2890 20 2 0.5897 17.072622 31.456106 14.675593
2891 20 2 0.5897 18.590624 31.389122 14.723575
2892 20 1 -1.1794 17.831250 31.104357 21.511025
2893 20 2 0.5897 17.866750 31.708206 22.290318
2894 20 2 0.5897 18.629737 31.390502 21.010342
2895 20 1 -1.1794 17.831250 28.333143 14.151475
2896 20 2 0.5897 18.036764 29.301242 14.218161
2897 20 2 0.5897 17.051778 28.419161 13.573181
2898 20 1 -1.1794 17.831250 28.333143 21.511025
2899 20 2 0.5897 17.786883 29.300713 21.683144
2900 20 2 0.5897 17.812692 27.941192 22.409389
2901 20 1 -1.1794 19.216857 33.398525 17.831250
2902 20 2 0.5897 18.248976 33.539884 17.736590
2903 20 2 0.5897 19.585820 34.300718 17.731822
2904 20 1 -1.1794 19.216857 26.038975 17.831250
2905 20 2 0.5897 19.548088 26.589285 18.578003
2906 20 2 0.5897 19.545958 26.558199 17.060206
2907 20 1 -1.1794 16.445643 33.398525 17.831250
2908 20 2 0.5897 15.860556 34.191229 17.837916
2909 20 2 0.5897 16.128088 32.920485 18.630514
2910 20 1 -1.1794 16.445643 26.038975 17.831250
2911 20 2 0.5897 16.249390 26.580372 18.630125
2912 20 2 0.5897 17.424678 25.947928 17.897742
2913 20 3 0.0 11.887500 23.775000 11.887500
2914 20 3 0.0 17.831250 29.718750 17.831250
2915 20 3 0.0 11.887500 26.746875 17.831250
2916 20 3 0.0 11.887500 32.690625 17.831250
2917 20 3 0.0 17.831250 23.775000 14.859375
2918 20 3 0.0 17.831250 23.775000 20.803125
2919 20 3 0.0 14.859375 29.718750 11.887500
2920 20 3 0.0 20.803125 29.718750 11.887500
2921 21 1 -1.1794 11.887500 29.718750 26.746875
2922 21 2 0.5897 11.897156 30.521382 26.176692
2923 21 2 0.5897 12.706706 29.853805 27.275477
2924 21 1 -1.1794 11.887500 29.718750 32.690625
2925 21 2 0.5897 12.168567 30.583436 33.052971
2926 21 2 0.5897 12.610734 29.587773 32.029920
2927 21 1 -1.1794 14.859375 23.775000 29.718750
2928 21 2 0.5897 14.296866 23.887795 30.516859
2929 21 2 0.5897 15.393904 24.601096 29.730505
2930 21 1 -1.1794 20.803125 23.775000 29.718750
2931 21 2 0.5897 20.240617 24.573110 29.831546
2932 21 2 0.5897 21.337653 23.786753 30.544848
2933 21 1 -1.1794 17.831250 26.746875 23.775000
2934 21 2 0.5897 18.112323 27.109227 24.639683
2935 21 2 0.5897 18.554485 26.086172 23.644021
2936 21 1 -1.1794 17.831250 32.690625 23.775000
2937 21 2 0.5897 17.840909 32.120441 24.577632
2938 21 2 0.5897 18.650455 33.219227 23.910054
2939 21 1 -1.1794 14.083240 25.970740 25.970740
2940 21 2 0.5897 13.818243 25.177781 26.496735
2941 21 2 0.5897 14.595546 26.483072 26.637811
2942 21 1 -1.1794 21.579260 33.466760 25.970740
2943 21 2 0.5897 21.865888 34.291781 26.423501
2944 21 2 0.5897 21.004218 33.818814 25.255933
2945 21 1 -1.1794 21.579260 25.970740 33.466760
2946 21 2 0.5897 21.041781 26.557308 32.879938
2947 21 2 0.5897 22.340371 26.557332 33.680926
2948 21 1 -1.1794 14.083240 33.466760 33.466760
2949 21 2 0.5897 13.321015 32.963865 33.825449
2950 21 2 0.5897 14.541573 33.724780 34.308970
2951 21 1 -1.1794 20.026990 31.914490 27.523010
2952 21 2 0.5897 19.942952 32.381915 28.376005
2953 21 2 0.5897 20.732952 32.419310 27.069149
2954 21 1 -1.1794 15.635510 27.523010 27.523010
2955 21 2 0.5897 15.889865 26.959788 28.294697
2956 21 2 0.5897 16.527481 27.745836 27.185372
2957 21 1 -1.1794 20.026990 27.523010 31.914490
2958 21 2 0.5897 19.240636 27.885945 32.384681
2959 21 2 0.5897 20.454714 28.347992 31.585198
2960 21 1 -1.1794 15.635510 31.914490 31.914490
2961 21 2 0.5897 15.123113 32.506546 32.517287
2962 21 2 0.5897 16.378956 31.644471 32.500499
2963 21 1 -1.1794 21.579260 33.466760 33.466760
2964 21 2 0.5897 21.833637 34.238442 32.903541
2965 21 2 0.5897 22.471221 33.129096 33.689592
2966 21 1 -1.1794 14.083240 25.970740 33.466760
2967 21 2 0.5897 13.296885 26.440929 33.829694
2968 21 2 0.5897 14.510964 25.641447 34.291742
2969 21 1 -1.1794 14.083240 33.466760 25.970740
2970 21 2 0.5897 13.999203 34.319755 26.438166
2971 21 2 0.5897 14.789202 33.012898 26.475560
2972 21 1 -1.1794 21.579260 25.970740 25.970740
2973 21 2 0.5897 21.066861 26.573535 26.562796
2974 21 2 0.5897 22.322705 26.556750 25.700722
2975 21 1 -1.1794 15.635510 27.523010 31.914490
2976 21 2 0.5897 15.098031 26.936188 32.501058
2977 21 2 0.5897 16.396620 27.737177 32.501082
2978 21 1 -1.1794 20.026990 31.914490 31.914490
2979 21 2 0.5897 19.761994 32.440484 31.121530
2980 21 2 0.5897 20.539295 32.581563 32.426821
2981 21 1 -1.1794 15.635510 31.914490 27.523010
2982 21 2 0.5897 15.922137 32.367251 28.348031
2983 21 2 0.5897 15.060469 31.199681 27.875063
2984 21 1 -1.1794 20.026990 27.523010 27.523010
2985 21 2 0.5897 19.264769 27.881705 27.020111
2986 21 2 0.5897 20.485326 28.365218 27.781031
2987 21 1 -1.1794 11.887500 27.454775 25.160607
2988 21 2 0.5897 11.922998 28.234067 25.764457
2989 21 2 0.5897 12.685985 26.954090 25.446756
2990 21 1 -1.1794 11.887500 31.982725 25.160607
2991 21 2 0.5897 11.128869 32.506842 25.512352
2992 21 2 0.5897 12.646872 32.554826 25.445376
2993 21 1 -1.1794 11.887500 27.454775 34.276893
2994 21 2 0.5897 11.843132 27.626890 35.244464
2995 21 2 0.5897 11.868941 28.353141 33.884946
2996 21 1 -1.1794 11.887500 31.982725 34.276893
2997 21 2 0.5897 12.093029 32.049438 35.244986
2998 21 2 0.5897 11.108049 31.404397 34.362942
2999 21 1 -1.1794 13.273107 23.775000 27.454775
3000 21 2 0.5897 12.305226 23.680341 27.596134
3001 21 2 0.5897 13.642070 23.675572 28.356968
3002 21 1 -1.1794 13.273107 23.775000 31.982725
3003 21 2 0.5897 13.604336 24.521754 32.533036
3004 21 2 0.5897 13.602206 23.003957 32.501950
3005 21 1 -1.1794 22.389393 23.775000 27.454775
3006 21 2 0.5897 21.804308 23.781667 28.247479
3007 21 2 0.5897 22.071838 24.574264 26.976735
3008 21 1 -1.1794 22.389393 23.775000 31.982725
3009 21 2 0.5897 22.193138 24.573873 32.524125
3010 21 2 0.5897 23.368428 23.841494 31.891678
3011 21 1 -1.1794 15.567275 25.160607 23.775000
3012 21 2 0.5897 15.068986 25.435080 24.578227
3013 21 2 0.5897 16.352910 25.747311 23.812997
3014 21 1 -1.1794 20.095225 25.160607 23.775000
3015 21 2 0.5897 20.668354 25.389855 24.544515
3016 21 2 0.5897 20.679541 25.428488 23.027135
3017 21 1 -1.1794 15.567275 34.276893 23.775000
3018 21 2 0.5897 15.757086 35.227377 23.879347
3019 21 2 0.5897 16.433834 33.843458 23.887136
3020 21 1 -1.1794 20.095225 34.276893 23.775000
3021 21 2 0.5897 20.009784 35.253258 23.691574
3022 21 2 0.5897 20.575217 34.051857 22.947637
3023 21 1 -1.1794 21.511025 29.718750 28.333143
3024 21 2 0.5897 21.700835 29.823098 29.283627
3025 21 2 0.5897 22.377584 29.830885 27.899708
3026 21 1 -1.1794 14.151475 29.718750 28.333143
3027 21 2 0.5897 14.066031 29.635324 29.309508
3028 21 2 0.5897 14.631467 28.891387 28.108108
3029 21 1 -1.1794 21.511025 29.718750 31.104357
3030 21 2 0.5897 21.012738 30.521978 31.378833
3031 21 2 0.5897 22.296660 29.756743 31.691061
3032 21 1 -1.1794 14.151475 29.718750 31.104357
3033 21 2 0.5897 14.724602 30.488267 31.333605
3034 21 2 0.5897 14.735793 28.970886 31.372239
3035 21 1 -1.1794 17.831250 31.104357 26.038975
3036 21 2 0.5897 17.072622 31.456106 26.563093
3037 21 2 0.5897 18.590624 31.389122 26.611075
3038 21 1 -1.1794 17.831250 31.104357 33.398525
3039 21 2 0.5897 17.866750 31.708206 34.177818
3040 21 2 0.5897 18.629737 31.390502 32.897842
3041 21 1 -1.1794 17.831250 28.333143 26.038975
3042 21 2 0.5897 18.036764 29.301242 26.105661
3043 21 2 0.5897 17.051778 28.419161 25.460681
3044 21 1 -1.1794 17.831250 28.333143 33.398525
3045 21 2 0.5897 17.786883 29.300713 33.570644
3046 21 2 0.5897 17.812692 27.941192 34.296889
3047 21 1 -1.1794 19.216857 33.398525 29.718750
3048 21 2 0.5897 18.248976 33.539884 29.624090
3049 21 2 0.5897 19.585820 34.300718 29.619322
3050 21 1 -1.1794 19.216857 26.038975 29.718750
3051 21 2 0.5897 19.548088 26.589285 30.465503
3052 21 2 0.5897 19.545958 26.558199 28.947706
3053 21 1 -1.1794 16.445643 33.398525 29.718750
3054 21 2 0.5897 15.860556 34.191229 29.725416
3055 21 2 0.5897 16.128088 32.920485 30.518014
3056 21 1 -1.1794 16.445643 26.038975 29.718750
3057 21 2 0.5897 16.249390 26.580372 30.517625
3058 21 2 0.5897 17.424678 25.947928 29.785242
3059 21 3 0.0 11.887500 23.775000 23.775000
3060 21 3 0.0 17.831250 29.718750 29.718750
3061 21 3 0.0 11.887500 26.746875 29.718750
3062 21 3 0.0 11.887500 32.690625 29.718750
3063 21 3 0.0 17.831250 23.775000 26.746875
3064 21 3 0.0 17.831250 23.775000 32.690625
3065 21 3 0.0 14.859375 29.718750 23.775000
3066 21 3 0.0 20.803125 29.718750 23.775000
3067 22 1 -1.1794 11.887500 41.606250 2.971875
3068 22 2 0.5897 11.897156 42.408882 2.401692
3069 22 2 0.5897 12.706706 41.741305 3.500477
3070 22 1 -1.1794 11.887500 41.606250 8.915625
3071 22 2 0.5897 12.168567 42.470936 9.277971
3072 22 2 0.5897 12.610734 41.475273 8.254920
3073 22 1 -1.1794 14.859375 35.662500 5.943750
3074 22 2 0.5897 14.296866 35.775295 6.741859
3075 22 2 0.5897 15.393904 36.488596 5.955505
3076 22 1 -1.1794 20.803125 35.662500 5.943750
3077 22 2 0.5897 20.240617 36.460610 6.056546
3078 22 2 0.5897 21.337653 35.674253 6.769848
3079 22 1 -1.1794 17.831250 38.634375 0.000000
3080 22 2 0.5897 18.112323 38.996727 0.864683
3081 22 2 0.5897 18.554485 37.973672 -0.130979
3082 22 1 -1.1794 17.831250 44.578125 0.000000
3083 22 2 0.5897 17.840909 44.007941 0.802632
3084 22 2 0.5897 18.650455 45.106727 0.135054
3085 22 1 -1.1794 14.083240 37.858240 2.195740
3086 22 2 0.5897 13.818243 37.065281 2.721735
3087 22 2 0.5897 14.595546 38.370572 2.862811
3088 22 1 -1.1794 21.579260 45.354260 2.195740
3089 22 2 0.5897 21.865888 46.179281 2.648501
3090 22 2 0.5897 21.004218 45.706314 1.480933
3091 22 1 -1.1794 21.579260 37.858240 9.691760
3092 22 2 0.5897 21.041781 38.444808 9.104938
3093 22 2 0.5897 22.340371 38.444832 9.905926
3094 22 1 -1.1794 14.083240 45.354260 9.691760
3095 22 2 0.5897 13.321015 44.851365 10.050449
3096 22 2 0.5897 14.541573 45.612280 10.533970
3097 22 1 -1.1794 20.026990 43.801990 3.748010
3098 22 2 0.5897 19.942952 44.269415 4.601005
3099 22 2 0.5897 20.732952 44.306810 3.294149
3100 22 1 -1.1794 15.635510 39.410510 3.748010
3101 22 2 0.5897 15.889865 38.847288 4.519697
3102 22 2 0.5897 16.527481 39.633336 3.410372
3103 22 1 -1.1794 20.026990 39.410510 8.139490
3104 22 2 0.5897 19.240636 39.773445 8.609681
3105 22 2 0.5897 20.454714 40.235492 7.810198
3106 22 1 -1.1794 15.635510 43.801990 8.139490
3107 22 2 0.5897 15.123113 44.394046 8.742287
3108 22 2 0.5897 16.378956 43.531971 8.725499
3109 22 1 -1.1794 21.579260 45.354260 9.691760
3110 22 2 0.5897 21.833637 46.125942 9.128541
3111 22 2 0.5897 22.471221 45.016596 9.914592
3112 22 1 -1.1794 14.083240 37.858240 9.691760
3113 22 2 0.5897 13.296885 38.328429 10.054694
3114 22 2 0.5897 14.510964 37.528947 10.516742
3115 22 1 -1.1794 14.083240 45.354260 2.195740
3116 22 2 0.5897 13.999203 46.207255 2.663166
3117 22 2 0.5897 14.789202 44.900398 2.700560
3118 22 1 -1.1794 21.579260 37.858240 2.195740
3119 22 2 0.5897 21.066861 38.461035 2.787796
3120 22 2 0.5897 22.322705 38.444250 1.925722
3121 22 1 -1.1794 15.635510 39.410510 8.139490
3122 22 2 0.5897 15.098031 38.823688 8.726058
3123 22 2 0.5897 16.396620 39.624677 8.726082
3124 22 1 -1.1794 20.026990 43.801990 8.139490
3125 22 2 0.5897 19.761994 44.327984 7.346530
3126 22 2 0.5897 20.539295 44.469063 8.651821
3127 22 1 -1.1794 15.635510 43.801990 3.748010
3128 22 2 0.5897 15.922137 44.254751 4.573031
3129 22 2 0.5897 15.060469 43.087181 4.100063
3130 22 1 -1.1794 20.026990 39.410510 3.748010
3131 22 2 0.5897 19.264769 39.769205 3.245111
3132 22 2 0.5897 20.485326 40.252718 4.006031
3133 22 1 -1.1794 11.887500 39.342275 1.385607
3134 22 2 0.5897 11.922998 40.121567 1.989457
3135 22 2 0.5897 12.685985 38.841590 1.671756
3136 22 1 -1.1794 11.887500 43.870225 1.385607
3137 22 2 0.5897 11.128869 44.394342 1.737352
3138 22 2 0.5897 12.646872 44.442326 1.670376
3139 22 1 -1.1794 11.887500 39.342275 10.501893
3140 22 2 0.5897 11.843132 39.514390 11.469464
3141 22 2 0.5897 11.868941 40.240641 10.109946
3142 22 1 -1.1794 11.887500 43.870225 10.501893
3143 22 2 0.5897 12.093029 43.936938 11.469986
3144 22 2 0.5897 11.108049 43.291897 10.587942
3145 22 1 -1.1794 13.273107 35.662500 3.679775
3146 22 2 0.5897 12.305226 35.567841 3.821134
3147 22 2 0.5897 13.642070 35.563072 4.581968
3148 22 1 -1.1794 13.273107 35.662500 8.207725
3149 22 2 0.5897 13.604336 36.409254 8.758036
3150 22 2 0.5897 13.602206 34.891457 8.726950
3151 22 1 -1.1794 22.389393 35.662500 3.679775
3152 22 2 0.5897 21.804308 35.669167 4.472479
3153 22 2 0.5897 22.071838 36.461764 3.201735
3154 22 1 -1.1794 22.389393 35.662500 8.207725
3155 22 2 0.5897 22.193138 36.461373 8.749125
3156 22 2 0.5897 23.368428 35.728994 8.116678
3157 22 1 -1.1794 15.567275 37.048107 0.000000
3158 22 2 0.5897 15.068986 37.322580 0.803227
3159 22 2 0.5897 16.352910 37.634811 0.037997
3160 22 1 -1.1794 20.095225 37.048107 0.000000
3161 22 2 0.5897 20.668354 37.277355 0.769515
3162 22 2 0.5897 20.679541 37.315988 -0.747865
3163 22 1 -1.1794 15.567275 46.164393 0.000000
3164 22 2 0.5897 15.757086 47.114877 0.104347
3165 22 2 0.5897 16.433834 45.730958 0.112136
3166 22 1 -1.1794 20.095225 46.164393 0.000000
3167 22 2 0.5897 20.009784 47.140758 -0.083426
3168 22 2 0.5897 20.575217 45.939357 -0.827363
3169 22 1 -1.1794 21.511025 41.606250 4.558143
3170 22 2 0.5897 21.700835 41.710598 5.508627
3171 22 2 0.5897 22.377584 41.718385 4.124708
3172 22 1 -1.1794 14.151475 41.606250 4.558143
3173 22 2 0.5897 14.066031 41.522824 5.534508
3174 22 2 0.5897 14.631467 40.778887 4.333108
3175 22 1 -1.1794 21.511025 41.606250 7.329357
3176 22 2 0.5897 21.012738 42.409478 7.603833
3177 22 2 0.5897 22.296660 41.644243 7.916061
3178 22 1 -1.1794 14.151475 41.606250 7.329357
3179 22 2 0.5897 14.724602 42.375767 7.558605
3180 22 2 0.5897 14.735793 40.858386 7.597239
3181 22 1 -1.1794 17.831250 42.991857 2.263975
3182 22 2 0.5897 17.072622 43.343606 2.788093
3183 22 2 0.5897 18.590624 43.276622 2.836075
3184 22 1 -1.1794 17.831250 42.991857 9.623525
3185 22 2 0.5897 17.866750 43.595706 10.402818
3186 22 2 0.5897 18.629737 43.278002 9.122842
3187 22 1 -1.1794 17.831250 40.220643 2.263975
3188 22 2 0.5897 18.036764 41.188742 2.330661
3189 22 2 0.5897 17.051778 40.306661 1.685681
3190 22 1 -1.1794 17.831250 40.220643 9.623525
3191 22 2 0.5897 17.786883 41.188213 9.795644
3192 22 2 0.5897 17.812692 39.828692 10.521889
3193 22 1 -1.1794 19.216857 45.286025 5.943750
3194 22 2 0.5897 18.248976 45.427384 5.849090
3195 22 2 0.5897 19.585820 46.188218 5.844322
3196 22 1 -1.1794 19.216857 37.926475 5.943750
3197 22 2 0.5897 19.548088 38.476785 6.690503
3198 22 2 0.5897 19.545958 38.445699 5.172706
3199 22 1 -1.1794 16.445643 45.286025 5.943750
3200 22 2 0.5897 15.860556 46.078729 5.950416
3201 22 2 0.5897 16.128088 44.807985 6.743014
3202 22 1 -1.1794 16.445643 37.926475 5.943750
3203 22 2 0.5897 16.249390 38.467872 6.742625
3204 22 2 0.5897 17.424678 37.835428 6.010242
3205 22 3 0.0 11.887500 35.662500 0.000000
3206 22 3 0.0 17.831250 41.606250 5.943750
3207 22 3 0.0 11.887500 38.634375 5.943750
3208 22 3 0.0 11.887500 44.578125 5.943750
3209 22 3 0.0 17.831250 35.662500 2.971875
3210 22 3 0.0 17.831250 35.662500 8.915625
3211 22 3 0.0 14.859375 41.606250 0.000000
3212 22 3 0.0 20.803125 41.606250 0.000000
3213 23 1 -1.1794 11.887500 41.606250 14.859375
3214 23 2 0.5897 11.897156 42.408882 14.289192
3215 23 2 0.5897 12.706706 41.741305 15.387977
3216 23 1 -1.1794 11.887500 41.606250 20.803125
3217 23 2 0.5897 12.168567 42.470936 21.165471
3218 23 2 0.5897 12.610734 41.475273 20.142420
3219 23 1 -1.1794 14.859375 35.662500 17.831250
3220 23 2 0.5897 14.296866 35.775295 18.629359
3221 23 2 0.5897 15.393904 36.488596 17.843005
3222 23 1 -1.1794 20.803125 35.662500 17.831250
3223 23 2 0.5897 20.240617 36.460610 17.944046
3224 23 2 0.5897 21.337653 35.674253 18.657348
3225 23 1 -1.1794 17.831250 38.634375 11.887500
3226 23 2 0.5897 18.112323 38.996727 12.752183
3227 23 2 0.5897 18.554485 37.973672 11.756521
3228 23 1 -1.1794 17.831250 44.578125 11.887500
3229 23 2 0.5897 17.840909 44.007941 12.690132
3230 23 2 0.5897 18.650455 45.106727 12.022554
3231 23 1 -1.1794 14.083240 37.858240 14.083240
3232 23 2 0.5897 13.818243 37.065281 14.609235
3233 23 2 0.5897 14.595546 38.370572 14.750311
3234 23 1 -1.1794 21.579260 45.354260 14.083240
3235 23 2 0.5897 21.865888 46.179281 14.536001
3236 23 2 0.5897 21.004218 45.706314 13.368433
3237 23 1 -1.1794 21.579260 37.858240 21.579260
3238 23 2 0.5897 21.041781 38.444808 20.992438
3239 23 2 0.5897 22.340371 38.444832 21.793426
3240 23 1 -1.1794 14.083240 45.354260 21.579260
3241 23 2 0.5897 13.321015 44.851365 21.937949
3242 23 2 0.5897 14.541573 45.612280 22.421470
3243 23 1 -1.1794 20.026990 43.801990 15.635510
3244 23 2 0.5897 19.942952 44.269415 16.488505
3245 23 2 0.5897 20.732952 44.306810 15.181649
3246 23 1 -1.1794 15.635510 39.410510 15.635510
3247 23 2 0.5897 15.889865 38.847288 16.407197
3248 23 2 0.5897 16.527481 39.633336 15.297872
3249 23 1 -1.1794 20.026990 39.410510 20.026990
3250 23 2 0.5897 19.240636 39.773445 20.497181
3251 23 2 0.5897 20.454714 40.235492 19.697698
3252 23 1 -1.1794 15.635510 43.801990 20.026990
3253 23 2 0.5897 15.123113 44.394046 20.629787
3254 23 2 0.5897 16.378956 43.531971 20.612999
3255 23 1 -1.1794 21.579260 45.354260 21.579260
3256 23 2 0.5897 21.833637 46.125942 21.016041
3257 23 2 0.5897 22.471221 45.016596 21.802092
3258 23 1 -1.1794 14.083240 37.858240 21.579260
3259 23 2 0.5897 13.296885 38.328429 21.942194
3260 23 2 0.5897 14.510964 37.528947 22.404242
3261 23 1 -1.1794 14.083240 45.354260 14.083240
3262 23 2 0.5897 13.999203 46.207255 14.550666
3263 23 2 0.5897 14.789202 44.900398 14.588060
3264 23 1 -1.1794 21.579260 37.858240 14.083240
3265 23 2 0.5897 21.066861 38.461035 14.675296
3266 23 2 0.5897 22.322705 38.444250 13.813222
3267 23 1 -1.1794 15.635510 39.410510 20.026990
3268 23 2 0.5897 15.098031 38.823688 20.613558
3269 23 2 0.5897 16.396620 39.624677 20.613582
3270 23 1 -1.1794 20.026990 43.801990 20.026990
3271 23 2 0.5897 19.761994 44.327984 19.234030
3272 23 2 0.5897 20.539295 44.469063 20.539321
3273 23 1 -1.1794 15.635510 43.801990 15.635510
3274 23 2 0.5897 15.922137 44.254751 16.460531
3275 23 2 0.5897 15.060469 43.087181 15.987563
3276 23 1 -1.1794 20.026990 39.410510 15.635510
3277 23 2 0.5897 19.264769 39.769205 15.132611
3278 23 2 0.5897 20.485326 40.252718 15.893531
3279 23 1 -1.1794 11.887500 39.342275 13.273107
3280 23 2 0.5897 11.922998 40.121567 13.876957
3281 23 2 0.5897 12.685985 38.841590 13.559256
3282 23 1 -1.1794 11.887500 43.870225 13.273107
3283 23 2 0.5897 11.128869 44.394342 13.624852
3284 23 2 0.5897 12.646872 44.442326 13.557876
3285 23 1 -1.1794 11.887500 39.342275 22.389393
3286 23 2 0.5897 11.843132 39.514390 23.356964
3287 23 2 0.5897 11.868941 40.240641 21.997446
3288 23 1 -1.1794 11.887500 43.870225 22.389393
3289 23 2 0.5897 12.093029 43.936938 23.357486
3290 23 2 0.5897 11.108049 43.291897 22.475442
3291 23 1 -1.1794 13.273107 35.662500 15.567275
3292 23 2 0.5897 12.305226 35.567841 15.708634
3293 23 2 0.5897 13.642070 35.563072 16.469468
3294 23 1 -1.1794 13.273107 35.662500 20.095225
3295 23 2 0.5897 13.604336 36.409254 20.645536
3296 23 2 0.5897 13.602206 34.891457 20.614450
3297 23 1 -1.1794 22.389393 35.662500 15.567275
3298 23 2 0.5897 21.804308 35.669167 16.359979
3299 23 2 0.5897 22.071838 36.461764 15.089235
3300 23 1 -1.1794 22.389393 35.662500 20.095225
3301 23 2 0.5897 22.193138 36.461373 20.636625
3302 23 2 0.5897 23.368428 35.728994 20.004178
3303 23 1 -1.1794 15.567275 37.048107 11.887500
3304 23 2 0.5897 15.068986 37.322580 12.690727
3305 23 2 0.5897 16.352910 37.634811 11.925497
3306 23 1 -1.1794 20.095225 37.048107 11.887500
3307 23 2 0.5897 20.668354 37.277355 12.657015
3308 23 2 0.5897 20.679541 37.315988 11.139635
3309 23 1 -1.1794 15.567275 46.164393 11.887500
3310 23 2 0.5897 15.757086 47.114877 11.991847
3311 23 2 0.5897 16.433834 45.730958 11.999636
3312 23 1 -1.1794 20.095225 46.164393 11.887500
3313 23 2 0.5897 20.009784 47.140758 11.804074
3314 23 2 0.5897 20.575217 45.939357 11.060137
3315 23 1 -1.1794 21.511025 41.606250 16.445643
3316 23 2 0.5897 21.700835 41.710598 17.396127
3317 23 2 0.5897 22.377584 41.718385 16.012208
3318 23 1 -1.1794 14.151475 41.606250 16.445643
3319 23 2 0.5897 14.066031 41.522824 17.422008
3320 23 2 0.5897 14.631467 40.778887 16.220608
3321 23 1 -1.1794 21.511025 41.606250 19.216857
3322 23 2 0.5897 21.012738 42.409478 19.491333
3323 23 2 0.5897 22.296660 41.644243 19.803561
3324 23 1 -1.1794 14.151475 41.606250 19.216857
3325 23 2 0.5897 14.724602 42.375767 19.446105
3326 23 2 0.5897 14.735793 40.858386 19.484739
3327 23 1 -1.1794 17.831250 42.991857 14.151475
3328 23 2 0.5897 17.072622 43.343606 14.675593
3329 23 2 0.5897 18.590624 43.276622 14.723575
3330 23 1 -1.1794 17.831250 42.991857 21.511025
3331 23 2 0.5897 17.866750 43.595706 22.290318
3332 23 2 0.5897 18.629737 43.278002 21.010342
3333 23 1 -1.1794 17.831250 40.220643 14.151475
3334 23 2 0.5897 18.036764 41.188742 14.218161
3335 23 2 0.5897 17.051778 40.306661 13.573181
3336 23 1 -1.1794 17.831250 40.220643 21.511025
3337 23 2 0.5897 17.786883 41.188213 21.683144
3338 23 2 0.5897 17.812692 39.828692 22.409389
3339 23 1 -1.1794 19.216857 45.286025 17.831250
3340 23 2 0.5897 18.248976 45.427384 17.736590
3341 23 2 0.5897 19.585820 46.188218 17.731822
3342 23 1 -1.1794 19.216857 37.926475 17.831250
3343 23 2 0.5897 19.548088 38.476785 18.578003
3344 23 2 0.5897 19.545958 38.445699 17.060206
3345 23 1 -1.1794 16.445643 45.286025 17.831250
3346 23 2 0.5897 15.860556 46.078729 17.837916
3347 23 2 0.5897 16.128088 44.807985 18.630514
3348 23 1 -1.1794 16.445643 37.926475 17.831250
3349 23 2 0.5897 16.249390 38.467872 18.630125
3350 23 2 0.5897 17.424678 37.835428 17.897742
3351 23 3 0.0 11.887500 35.662500 11.887500
3352 23 3 0.0 17.831250 41.606250 17.831250
3353 23 3 0.0 11.887500 38.634375 17.831250
3354 23 3 0.0 11.887500 44.578125 17.831250
3355 23 3 0.0 17.831250 35.662500 14.859375
3356 23 3 0.0 17.831250 35.662500 20.803125
3357 23 3 0.0 14.859375 41.606250 11.887500
3358 23 3 0.0 20.803125 41.606250 11.887500
3359 24 1 -1.1794 11.887500 41.606250 26.746875
3360 24 2 0.5897 11.897156 42.408882 26.176692
3361 24 2 0.5897 12.706706 41.741305 27.275477
3362 24 1 -1.1794 11.887500 41.606250 32.690625
3363 24 2 0.5897 12.168567 42.470936 33.052971
3364 24 2 0.5897 12.610734 41.475273 32.029920
3365 24 1 -1.1794 14.859375 35.662500 29.718750
3366 24 2 0.5897 14.296866 35.775295 30.516859
3367 24 2 0.5897 15.393904 36.488596 29.730505
3368 24 1 -1.1794 20.803125 35.662500 29.718750
3369 24 2 0.5897 20.240617 36.460610 29.831546
3370 24 2 0.5897 21.337653 35.674253 30.544848
3371 24 1 -1.1794 17.831250 38.634375 23.775000
3372 24 2 0.5897 18.112323 38.996727 24.639683
3373 24 2 0.5897 18.554485 37.973672 23.644021
3374 24 1 -1.1794 17.831250 44.578125 23.775000
3375 24 2 0.5897 17.840909 44.007941 24.577632
3376 24 2 0.5897 18.650455 45.106727 23.910054
3377 24 1 -1.1794 14.083240 37.858240 25.970740
3378 24 2 0.5897 13.818243 37.065281 26.496735
3379 24 2 0.5897 14.595546 38.370572 26.637811
3380 24 1 -1.1794 21.579260 45.354260 25.970740
3381 24 2 0.5897 21.865888 46.179281 26.423501
3382 24 2 0.5897 21.004218 45.706314 25.255933
3383 24 1 -1.1794 21.579260 37.858240 33.466760
3384 24 2 0.5897 21.041781 38.444808 32.879938
3385 24 2 0.5897 22.340371 38.444832 33.680926
3386 24 1 -1.1794 14.083240 45.354260 33.466760
3387 24 2 0.5897 13.321015 44.851365 33.825449
3388 24 2 0.5897 14.541573 45.612280 34.308970
3389 24 1 -1.1794 20.026990 43.801990 27.523010
3390 24 2 0.5897 19.942952 44.269415 28.376005
3391 24 2 0.5897 20.732952 44.306810 27.069149
3392 24 1 -1.1794 15.635510 39.410510 27.523010
3393 24 2 0.5897 15.889865 38.847288 28.294697
3394 24 2 0.5897 16.527481 39.633336 27.185372
3395 24 1 -1.1794 20.026990 39.410510 31.914490
3396 24 2 0.5897 19.240636 39.773445 32.384681
3397 24 2 0.5897 20.454714 40.235492 31.585198
3398 24 1 -1.1794 15.635510 43.801990 31.914490
3399 24 2 0.5897 15.123113 44.394046 32.517287
3400 24 2 0.5897 16.378956 43.531971 32.500499
3401 24 1 -1.1794 21.579260 45.354260 33.466760
3402 24 2 0.5897 21.833637 46.125942 32.903541
3403 24 2 0.5897 22.471221 45.016596 33.689592
3404 24 1 -1.1794 14.083240 37.858240 33.466760
3405 24 2 0.5897 13.296885 38.328429 33.829694
3406 24 2 0.5897 14.510964 37.528947 34.291742
3407 24 1 -1.1794 14.083240 45.354260 25.970740
3408 24 2 0.5897 13.999203 46.207255 26.438166
3409 24 2 0.5897 14.789202 44.900398 26.475560
3410 24 1 -1.1794 21.579260 37.858240 25.970740
3411 24 2 0.5897 21.066861 38.461035 26.562796
3412 24 2 0.5897 22.322705 38.444250 25.700722
3413 24 1 -1.1794 15.635510 39.410510 31.914490
3414 24 2 0.5897 15.098031 38.823688 32.501058
3415 24 2 0.5897 16.396620 39.624677 32.501082
3416 24 1 -1.1794 20.026990 43.801990 31.914490
3417 24 2 0.5897 19.761994 44.327984 31.121530
3418 24 2 0.5897 20.539295 44.469063 32.426821
3419 24 1 -1.1794 15.635510 43.801990 27.523010
3420 24 2 0.5897 15.922137 44.254751 28.348031
3421 24 2 0.5897 15.060469 43.087181 27.875063
3422 24 1 -1.1794 20.026990 39.410510 27.523010
3423 24 2 0.5897 19.264769 39.769205 27.020111
3424 24 2 0.5897 20.485326 40.252718 27.781031
3425 24 1 -1.1794 11.887500 39.342275 25.160607
3426 24 2 0.5897 11.922998 40.121567 25.764457
3427 24 2 0.5897 12.685985 38.841590 25.446756
3428 24 1 -1.1794 11.887500 43.870225 25.160607
3429 24 2 0.5897 11.128869 44.394342 25.512352
3430 24 2 0.5897 12.646872 44.442326 25.445376
3431 24 1 -1.1794 11.887500 39.342275 34.276893
3432 24 2 0.5897 11.843132 39.514390 35.244464
3433 24 2 0.5897 11.868941 40.240641 33.884946
3434 24 1 -1.1794 11.887500 43.870225 34.276893
3435 24 2 0.5897 12.093029 43.936938 35.244986
3436 24 2 0.5897 11.108049 43.291897 34.362942
3437 24 1 -1.1794 13.273107 35.662500 27.454775
3438 24 2 0.5897 12.305226 35.567841 27.596134
3439 24 2 0.5897 13.642070 35.563072 28.356968
3440 24 1 -1.1794 13.273107 35.662500 31.982725
3441 24 2 0.5897 13.604336 36.409254 32.533036
3442 24 2 0.5897 13.602206 34.891457 32.501950
3443 24 1 -1.1794 22.389393 35.662500 27.454775
3444 24 2 0.5897 21.804308 35.669167 28.247479
3445 24 2 0.5897 22.071838 36.461764 26.976735
3446 24 1 -1.1794 22.389393 35.662500 31.982725
3447 24 2 0.5897 22.193138 36.461373 32.524125
3448 24 2 0.5897 23.368428 35.728994 31.891678
3449 24 1 -1.1794 15.567275 37.048107 23.775000
3450 24 2 0.5897 15.068986 37.322580 24.578227
3451 24 2 0.5897 16.352910 37.634811 23.812997
3452 24 1 -1.1794 20.095225 37.048107 23.775000
3453 24 2 0.5897 20.668354 37.277355 24.544515
3454 24 2 0.5897 20.679541 37.315988 23.027135
3455 24 1 -1.1794 15.567275 46.164393 23.775000
3456 24 2 0.5897 15.757086 47.114877 23.879347
3457 24 2 0.5897 16.433834 45.730958 23.887136
3458 24 1 -1.1794 20.095225 46.164393 23.775000
3459 24 2 0.5897 20.009784 47.140758 23.691574
3460 24 2 0.5897 20.575217 45.939357 22.947637
3461 24 1 -1.1794 21.511025 41.606250 28.333143
3462 24 2 0.5897 21.700835 41.710598 29.283627
3463 24 2 0.5897 22.377584 41.718385 27.899708
3464 24 1 -1.1794 14.151475 41.606250 28.333143
3465 24 2 0.5897 14.066031 41.522824 29.309508
3466 24 2 0.5897 14.631467 40.778887 28.108108
3467 24 1 -1.1794 21.511025 41.606250 31.104357
3468 24 2 0.5897 21.012738 42.409478 31.378833
3469 24 2 0.5897 22.296660 41.644243 31.691061
3470 24 1 -1.1794 14.151475 41.606250 31.104357
3471 24 2 0.5897 14.724602 42.375767 31.333605
3472 24 2 0.5897 14.735793 40.858386 31.372239
3473 24 1 -1.1794 17.831250 42.991857 26.038975
3474 24 2 0.5897 17.072622 43.343606 26.563093
3475 24 2 0.5897 18.590624 43.276622 26.611075
3476 24 1 -1.1794 17.831250 42.991857 33.398525
3477 24 2 0.5897 17.866750 43.595706 34.177818
3478 24 2 0.5897 18.629737 43.278002 32.897842
3479 24 1 -1.1794 17.831250 40.220643 26.038975
3480 24 2 0.5897 18.036764 41.188742 26.105661
3481 24 2 0.5897 17.051778 40.306661 25.460681
3482 24 1 -1.1794 17.831250 40.220643 33.398525
3483 24 2 0.5897 17.786883 41.188213 33.570644
3484 24 2 0.5897 17.812692 39.828692 34.296889
3485 24 1 -1.1794 19.216857 45.286025 29.718750
3486 24 2 0.5897 18.248976 45.427384 29.624090
3487 24 2 0.5897 19.585820 46.188218 29.619322
3488 24 1 -1.1794 19.216857 37.926475 29.718750
3489 24 2 0.5897 19.548088 38.476785 30.465503
3490 24 2 0.5897 19.545958 38.445699 28.947706
3491 24 1 -1.1794 16.445643 45.286025 29.718750
3492 24 2 0.5897 15.860556 46.078729 29.725416
3493 24 2 0.5897 16.128088 44.807985 30.518014
3494 24 1 -1.1794 16.445643 37.926475 29.718750
3495 24 2 0.5897 16.249390 38.467872 30.517625
3496 24 2 0.5897 17.424678 37.835428 29.785242
3497 24 3 0.0 11.887500 35.662500 23.775000
3498 24 3 0.0 17.831250 41.606250 29.718750
3499 24 3 0.0 11.887500 38.634375 29.718750
3500 24 3 0.0 11.887500 44.578125 29.718750
3501 24 3 0.0 17.831250 35.662500 26.746875
3502 24 3 0.0 17.831250 35.662500 32.690625
3503 24 3 0.0 14.859375 41.606250 23.775000
3504 24 3 0.0 20.803125 41.606250 23.775000
3505 25 1 -1.1794 4.110740 62.276961 18.152288
3506 25 2 0.5897 4.620577 62.650954 17.377565
3507 25 2 0.5897 3.843298 61.334525 17.951567
3508 26 1 -1.1794 13.769188 80.755692 32.508351
3509 26 2 0.5897 12.863117 80.333340 32.533931
3510 26 2 0.5897 14.069434 80.957227 33.440679
3511 27 1 -1.1794 9.845743 66.551434 3.028690
3512 27 2 0.5897 9.461786 65.652599 3.240047
3513 27 2 0.5897 10.675376 66.694751 3.568291
3514 28 1 -1.1794 11.986853 81.005527 0.581212
3515 28 2 0.5897 11.170775 80.931382 0.008046
3516 28 2 0.5897 12.797286 81.076354 -0.000322
3517 29 1 -1.1794 8.215194 51.227050 2.671833
3518 29 2 0.5897 9.131144 50.882421 2.466244
3519 29 2 0.5897 7.652531 51.191479 1.845912
3520 30 1 -1.1794 8.923679 92.205597 15.522891
3521 30 2 0.5897 8.066168 92.080863 16.022007
3522 30 2 0.5897 9.537752 92.787925 16.055627
3523 31 1 -1.1794 3.764030 75.152590 24.856687
3524 31 2 0.5897 3.126602 75.463462 25.561700
3525 31 2 0.5897 3.666249 74.165375 24.730811
3526 32 1 -1.1794 6.823912 60.690122 11.037937
3527 32 2 0.5897 6.034619 60.965783 11.586595
3528 32 2 0.5897 7.567132 60.404673 11.643035
3529 33 1 -1.1794 14.160074 63.990848 19.335064
3530 33 2 0.5897 14.781364 63.347427 19.782285
3531 33 2 0.5897 14.093849 64.825250 19.882228
3532 34 1 -1.1794 16.769054 87.601734 3.804102
3533 34 2 0.5897 16.586280 87.151650 4.678183
3534 34 2 0.5897 17.586949 88.171101 3.886977
3535 35 1 -1.1794 10.247376 54.715313 14.244190
3536 35 2 0.5897 9.969452 55.654755 14.043673
3537 35 2 0.5897 9.483574 54.095852 14.062877
3538 36 1 -1.1794 9.596874 96.598775 28.566847
3539 36 2 0.5897 9.889360 95.817278 29.117950
3540 36 2 0.5897 9.265364 97.325489 29.168501
3541 37 1 -1.1794 18.691459 77.150354 7.857371
3542 37 2 0.5897 18.101484 76.895307 7.091291
3543 37 2 0.5897 19.222225 76.354471 8.148676
3544 38 1 -1.1794 0.869813 53.178850 8.936280
3545 38 2 0.5897 1.345013 52.555073 9.556834
3546 38 2 0.5897 0.300774 52.651777 8.305099
3547 39 1 -1.1794 3.227206 77.791606 3.539526
3548 39 2 0.5897 2.744366 78.627025 3.276959
3549 39 2 0.5897 3.706235 77.941333 4.404462
3550 40 1 -1.1794 9.672519 73.611911 30.218134
3551 40 2 0.5897 9.037698 74.285343 30.596938
3552 40 2 0.5897 10.588972 74.008932 30.168250
3553 41 1 -1.1794 11.871872 62.537960 1.955427
3554 41 2 0.5897 12.381640 62.977752 1.216021
3555 41 2 0.5897 11.923472 61.544763 1.851042
3556 42 1 -1.1794 1.410681 84.765611 2.768625
3557 42 2 0.5897 0.544456 85.055960 3.175261
3558 42 2 0.5897 2.151284 85.340911 3.115809
3559 43 1 -1.1794 18.287952 80.701566 15.323669
3560 43 2 0.5897 18.883240 81.237604 15.922247
3561 43 2 0.5897 17.420156 81.182612 15.199067
3562 44 1 -1.1794 9.086304 77.738260 21.697220
3563 44 2 0.5897 8.211764 78.221435 21.655714
3564 44 2 0.5897 9.177593 77.290043 22.586472
3565 45 1 -1.1794 17.764602 88.686040 9.645643
3566 45 2 0.5897 17.156624 88.655740 8.852267
3567 45 2 0.5897 18.552631 88.091845 9.484576
3568 46 1 -1.1794 4.695918 69.995987 23.191023
3569 46 2 0.5897 4.930616 69.025644 23.133131
3570 46 2 0.5897 5.305853 70.522355 22.598642
3571 47 1 -1.1794 18.448434 67.908052 23.340379
3572 47 2 0.5897 17.554986 68.347824 23.431764
3573 47 2 0.5897 18.690506 67.462794 24.202438
3574 48 1 -1.1794 3.817933 63.371749 23.626820
3575 48 2 0.5897 3.601875 62.578576 23.057438
3576 48 2 0.5897 4.189347 63.062387 24.502233
3577 49 1 -1.1794 20.085467 78.441855 6.750138
3578 49 2 0.5897 20.921758 78.354392 7.291403
3579 49 2 0.5897 19.483728 79.119110 7.173500
3580 50 1 -1.1794 12.440259 93.891034 24.720280
3581 50 2 0.5897 13.219509 94.350173 24.293712
3582 50 2 0.5897 11.843968 93.517127 24.009907
3583 51 1 -1.1794 15.336652 87.489785 0.546403
3584 51 2 0.5897 14.663360 87.830027 1.202842
3585 51 2 0.5897 16.150702 87.176944 1.035742
3586 52 1 -1.1794 12.290993 52.120644 18.395136
3587 52 2 0.5897 11.698268 51.556162 17.820648
3588 52 2 0.5897 12.878007 52.685236 17.814920
3589 53 1 -1.1794 8.005565 58.236443 17.892270
3590 53 2 0.5897 7.893810 57.789253 17.004841
3591 53 2 0.5897 7.224746 58.837303 18.063411
3592 54 1 -1.1794 12.959052 49.532416 26.809966
3593 54 2 0.5897 13.897842 49.188152 26.822424
3594 54 2 0.5897 12.445425 49.127343 27.566342
3595 55 1 -1.1794 12.525021 79.947579 19.493060
3596 55 2 0.5897 11.767142 79.909922 20.144368
3597 55 2 0.5897 13.391909 79.967276 19.991173
3598 56 1 -1.1794 17.057206 62.761149 5.277254
3599 56 2 0.5897 17.049164 61.775234 5.110200
3600 56 2 0.5897 16.904695 62.935641 6.250030
3601 57 1 -1.1794 1.258223 58.440649 8.139545
3602 57 2 0.5897 0.377719 58.750438 8.498353
3603 57 2 0.5897 1.779441 57.999793 8.870283
3604 58 1 -1.1794 2.066283 51.886048 17.061956
3605 58 2 0.5897 2.225889 52.823868 16.753703
3606 58 2 0.5897 2.585196 51.717800 17.900062
3607 59 1 -1.1794 9.672893 78.821151 26.833328
3608 59 2 0.5897 9.564832 79.557904 27.500799
3609 59 2 0.5897 10.583748 78.873261 26.423906
3610 60 1 -1.1794 0.924234 55.572811 8.881785
3611 60 2 0.5897 1.786750 55.658897 9.380438
3612 60 2 0.5897 0.202753 55.284069 9.511145
3613 61 1 -1.1794 13.893747 81.499841 1.858717
3614 61 2 0.5897 14.243788 80.641127 2.232991
3615 61 2 0.5897 14.624675 82.182242 1.850218
3616 62 1 -1.1794 10.511360 81.448716 29.926690
3617 62 2 0.5897 10.092527 80.725183 29.377984
3618 62 2 0.5897 10.959733 82.107768 29.322859
3619 63 1 -1.1794 19.695626 86.828653 16.675440
3620 63 2 0.5897 19.495566 86.083577 17.311708
3621 63 2 0.5897 19.984908 87.636653 17.188716
3622 64 1 -1.1794 19.269129 92.544573 12.916078
3623 64 2 0.5897 18.971206 93.454897 12.628758
3624 64 2 0.5897 19.852471 92.145971 12.208385
3625 65 1 -1.1794 18.218941 54.630090 8.208489
3626 65 2 0.5897 18.707252 55.214982 7.560836
3627 65 2 0.5897 17.600168 54.023751 7.709018
3628 66 1 -1.1794 14.251248 61.943361 8.314473
3629 66 2 0.5897 14.219485 60.944929 8.360563
3630 66 2 0.5897 14.415748 62.228373 7.370170
3631 67 1 -1.1794 15.165628 68.624760 28.444847
3632 67 2 0.5897 15.996823 68.380402 28.944251
3633 67 2 0.5897 14.453769 68.893501 29.093720
3634 68 1 -1.1794 6.110924 90.265197 32.087676
3635 68 2 0.5897 7.077463 90.225735 32.341143
3636 68 2 0.5897 6.014498 90.074802 31.110716
3637 69 1 -1.1794 16.039354 93.069572 3.505831
3638 69 2 0.5897 15.535857 93.271678 2.665805
3639 69 2 0.5897 16.779315 93.732694 3.618645
3640 70 1 -1.1794 10.377534 59.353631 29.740738
3641 70 2 0.5897 10.536211 58.508466 30.251147
3642 70 2 0.5897 10.562044 60.139276 30.331262
3643 71 1 -1.1794 16.365861 54.731899 9.382219
3644 71 2 0.5897 16.646971 54.861558 10.333095
3645 71 2 0.5897 15.368383 54.768737 9.321550
3646 72 1 -1.1794 1.669216 69.618963 33.663824
3647 72 2 0.5897 1.209741 69.503383 32.783186
3648 72 2 0.5897 2.188235 70.473714 33.659333
3649 73 1 -1.1794 11.752919 96.866408 11.677528
3650 73 2 0.5897 11.217800 97.603612 11.265000
3651 73 2 0.5897 12.128422 96.283588 10.956891
3652 74 1 -1.1794 7.197650 50.924584 29.802429
3653 74 2 0.5897 8.118925 50.535793 29.812116
3654 74 2 0.5897 7.123974 51.588772 29.058502
3655 75 1 -1.1794 20.919227 72.966465 2.906909
3656 75 2 0.5897 21.042407 73.610706 3.661747
3657 75 2 0.5897 21.345317 73.335441 2.080892
3658 76 1 -1.1794 6.535429 78.939030 12.044014
3659 76 2 0.5897 5.674979 78.722200 12.505112
3660 76 2 0.5897 6.355392 79.548074 11.271582
3661 77 1 -1.1794 0.377313 82.775000 8.294909
3662 77 2 0.5897 0.327340 83.768789 8.195487
3663 77 2 0.5897 0.266716 82.530414 9.258208
3664 78 1 -1.1794 21.764270 96.759041 9.141437
3665 78 2 0.5897 21.684407 97.702720 8.820356
3666 78 2 0.5897 20.857167 96.408173 9.373936
3667 79 1 -1.1794 8.666490 71.699257 24.404888
3668 79 2 0.5897 7.972469 72.022885 23.761771
3669 79 2 0.5897 9.407172 71.255420 23.900510
3670 80 1 -1.1794 12.450025 85.963699 12.332218
3671 80 2 0.5897 11.659005 86.440394 12.715689
3672 80 2 0.5897 13.115709 85.786064 13.057001
3673 81 1 -1.1794 1.938936 62.364679 12.743547
3674 81 2 0.5897 2.077723 61.394088 12.940246
3675 81 2 0.5897 2.282578 62.911898 13.506739
3676 82 1 -1.1794 21.366619 66.624703 1.755841
3677 82 2 0.5897 20.628209 67.228718 2.055702
3678 82 2 0.5897 21.774985 66.177146 2.551410
3679 83 1 -1.1794 3.703702 69.298633 1.366418
3680 83 2 0.5897 3.403064 70.235909 1.542854
3681 83 2 0.5897 3.408842 69.020523 0.452245
3682 84 1 -1.1794 8.284135 67.420866 23.991770
3683 84 2 0.5897 7.461583 67.318051 24.551088
3684 84 2 0.5897 8.028730 67.738643 23.078651
3685 85 1 -1.1794 1.265932 94.609984 23.434531
3686 85 2 0.5897 1.349427 93.814107 22.834858
3687 85 2 0.5897 1.148357 95.434023 22.880332
3688 86 1 -1.1794 9.192486 89.352615 28.086297
3689 86 2 0.5897 9.187388 90.155204 28.682807
3690 86 2 0.5897 9.303255 88.526917 28.639428
3691 87 1 -1.1794 1.669200 80.374407 10.282450
3692 87 2 0.5897 0.692582 80.375404 10.067470
3693 87 2 0.5897 1.792817 80.452778 11.271680
3694 88 1 -1.1794 5.752353 70.229236 6.515492
3695 88 2 0.5897 5.139955 69.787120 7.170855
3696 88 2 0.5897 5.711952 69.744197 5.641933
3697 89 1 -1.1794 16.562381 68.061697 6.071615
3698 89 2 0.5897 16.981525 68.718437 5.444710
3699 89 2 0.5897 15.590388 67.968552 5.855851
3700 90 1 -1.1794 0.918445 78.609194 27.963520
3701 90 2 0.5897 1.433784 78.784858 28.802310
3702 90 2 0.5897 1.052053 77.658652 27.683129
3703 91 1 -1.1794 0.202561 82.095693 28.752760
3704 91 2 0.5897 0.655987 82.400157 29.590439
3705 91 2 0.5897 0.435151 82.715852 28.003557
3706 92 1 -1.1794 20.700005 78.874514 33.661380
3707 92 2 0.5897 20.417418 79.612640 33.048752
3708 92 2 0.5897 20.336290 78.005432 33.326108
3709 93 1 -1.1794 15.651916 94.069560 0.416723
3710 93 2 0.5897 15.441551 93.184968 0.000498
3711 93 2 0.5897 16.551543 94.027896 0.851389
3712 94 1 -1.1794 3.168628 95.580628 17.576220
3713 94 2 0.5897 2.569039 94.796984 17.413750
3714 94 2 0.5897 4.107145 95.339001 17.329640
3715 95 1 -1.1794 7.530188 82.896116 25.772980
3716 95 2 0.5897 7.985056 83.623912 25.259746
3717 95 2 0.5897 7.167962 82.215467 25.136184
3718 96 1 -1.1794 0.781146 78.793785 16.387759
3719 96 2 0.5897 0.947029 79.360107 17.195077
3720 96 2 0.5897 0.216864 79.300104 15.735665
3721 97 1 -1.1794 5.399564 83.691760 17.847122
3722 97 2 0.5897 5.344156 82.693326 17.839382
3723 97 2 0.5897 5.565493 84.009150 18.780788
3724 98 1 -1.1794 14.368624 69.139386 32.327541
3725 98 2 0.5897 13.871026 68.293527 32.519683
3726 98 2 0.5897 14.859081 69.048047 31.460876
3727 99 1 -1.1794 14.051725 97.710377 22.001769
3728 99 2 0.5897 13.564989 97.841100 22.865481
3729 99 2 0.5897 14.229260 96.736042 21.863375
3730 100 1 -1.1794 10.236793 77.706807 4.912756
3731 100 2 0.5897 10.534874 78.657365 4.825649
3732 100 2 0.5897 10.172255 77.293174 4.004603
3733 101 1 -1.1794 0.466811 54.612395 25.338948
3734 101 2 0.5897 1.428081 54.337023 25.350359
3735 101 2 0.5897 0.134505 54.701698 26.277882
3736 102 1 -1.1794 5.722509 56.975136 3.115615
3737 102 2 0.5897 5.417513 56.385439 2.367795
3738 102 2 0.5897 6.312861 56.453707 3.731730
3739 103 1 -1.1794 14.917473 71.597869 23.752360
3740 103 2 0.5897 14.438243 72.143635 24.439730
3741 103 2 0.5897 15.545424 72.183739 23.240077
3742 104 1 -1.1794 1.509751 50.608893 1.288637
3743 104 2 0.5897 2.254140 50.073537 0.889540
3744 104 2 0.5897 0.740460 50.005425 1.498442
3745 105 1 -1.1794 14.691760 63.325068 26.728319
3746 105 2 0.5897 14.526871 62.915929 27.625769
3747 105 2 0.5897 15.239034 62.699514 26.172286
3748 106 1 -1.1794 19.445957 58.981403 7.755860
3749 106 2 0.5897 19.945288 59.724198 7.309850
3750 106 2 0.5897 18.568118 58.846791 7.296209
3751 107 1 -1.1794 3.126033 90.659725 23.267761
3752 107 2 0.5897 3.927604 90.767120 23.855936
3753 107 2 0.5897 3.134306 91.366816 22.560687
3754 108 1 -1.1794 21.735581 78.547548 12.530010
3755 108 2 0.5897 21.773138 79.386590 11.987241
3756 108 2 0.5897 20.786193 78.243305 12.608099
3757 109 1 -1.1794 10.076235 56.839903 3.467110
3758 109 2 0.5897 9.223560 56.784874 3.986645
3759 109 2 0.5897 9.949664 57.446242 2.682042
3760 110 1 -1.1794 12.846478 50.799109 24.540403
3761 110 2 0.5897 12.573308 51.340708 23.745388
3762 110 2 0.5897 13.698797 50.316756 24.338197
3763 111 1 -1.1794 13.377195 90.315914 3.174527
3764 111 2 0.5897 13.821564 90.589674 4.027517
3765 111 2 0.5897 13.512080 89.335945 3.028012
3766 112 1 -1.1794 13.182331 60.062850 11.960077
3767 112 2 0.5897 13.825828 59.300979 11.886158
3768 112 2 0.5897 12.577923 60.067138 11.163413
3769 113 1 -1.1794 11.275942 83.173300 6.054058
3770 113 2 0.5897 10.702507 83.477076 6.814908
3771 113 2 0.5897 12.239267 83.252005 6.310591
3772 114 1 -1.1794 3.465365 86.906504 1.862973
3773 114 2 0.5897 3.958459 87.774859 1.916055
3774 114 2 0.5897 4.010890 86.186648 2.292171
3775 115 1 -1.1794 10.152694 67.297596 25.356498
3776 115 2 0.5897 10.553921 67.450893 24.453439
3777 115 2 0.5897 10.101355 68.165738 25.850152
3778 116 1 -1.1794 2.392023 62.555728 31.035840
3779 116 2 0.5897 1.410279 62.712332 31.143798
3780 116 2 0.5897 2.712159 61.938692 31.754714
3781 117 1 -1.1794 16.965576 75.564596 5.135094
3782 117 2 0.5897 17.194731 75.108352 5.994937
3783 117 2 0.5897 16.885340 76.549070 5.291208
3784 118 1 -1.1794 12.956456 61.229509 27.798660
3785 118 2 0.5897 12.124628 60.725524 28.031172
3786 118 2 0.5897 13.671552 61.017971 28.464910
3787 119 1 -1.1794 10.672260 63.796062 31.481661
3788 119 2 0.5897 10.415184 63.603048 32.428581
3789 119 2 0.5897 11.642924 63.593630 31.351923
3790 120 1 -1.1794 7.326825 74.696266 20.692034
3791 120 2 0.5897 7.106608 74.228495 21.548010
3792 120 2 0.5897 7.847010 75.526958 20.890421
3793 121 1 -1.1794 21.769524 79.721840 5.267638
3794 121 2 0.5897 20.980490 80.281442 5.014120
3795 121 2 0.5897 21.694446 78.823895 4.833981
3796 122 1 -1.1794 4.242370 90.285922 6.587053
3797 122 2 0.5897 4.888642 90.024723 7.304065
3798 122 2 0.5897 4.692089 90.903524 5.941824
3799 123 1 -1.1794 17.863908 54.601619 29.484485
3800 123 2 0.5897 16.895346 54.353004 29.475620
3801 123 2 0.5897 18.116920 54.924082 30.396626
3802 124 1 -1.1794 17.256126 56.529011 23.999493
3803 124 2 0.5897 17.630071 57.315900 24.490381
3804 124 2 0.5897 16.797631 55.919722 24.646447
3805 125 1 -1.1794 4.321197 81.641469 9.657964
3806 125 2 0.5897 5.184281 81.533372 10.151320
3807 125 2 0.5897 3.638865 82.048487 10.265219
3808 126 1 -1.1794 17.825506 67.606358 21.188511
3809 126 2 0.5897 18.378110 67.997139 20.452359
3810 126 2 0.5897 17.079839 67.068069 20.795795
3811 127 1 -1.1794 9.734736 65.753537 27.511796
3812 127 2 0.5897 9.189627 65.536302 28.321527
3813 127 2 0.5897 9.880735 66.741644 27.463537
3814 128 1 -1.1794 21.128282 93.509722 32.583140
3815 128 2 0.5897 21.774894 92.751362 32.500780
3816 128 2 0.5897 20.869529 93.624454 33.542245
3817 129 1 -1.1794 11.678985 64.351614 3.453153
3818 129 2 0.5897 12.178497 64.940033 4.088961
3819 129 2 0.5897 10.892898 63.947287 3.920686
3820 130 1 -1.1794 14.975188 57.712659 26.424960
3821 130 2 0.5897 14.215196 58.085732 26.957152
3822 130 2 0.5897 15.650794 57.312345 27.044075
3823 131 1 -1.1794 10.184872 73.557852 24.486918
3824 131 2 0.5897 9.837369 73.486317 25.421864
3825 131 2 0.5897 11.145955 73.833250 24.508701
3826 132 1 -1.1794 4.019616 80.678826 6.030589
3827 132 2 0.5897 4.301055 80.055109 5.301364
3828 132 2 0.5897 4.367844 80.345845 6.906866
3829 133 1 -1.1794 19.626890 80.739443 30.919753
3830 133 2 0.5897 18.871556 80.086074 30.868962
3831 133 2 0.5897 19.260869 81.668312 30.976589
3832 134 1 -1.1794 11.435005 67.359758 30.126186
3833 134 2 0.5897 10.907817 67.027539 29.344071
3834 134 2 0.5897 10.923937 67.190249 30.968846
3835 135 1 -1.1794 2.046283 78.125089 6.642764
3836 135 2 0.5897 1.397649 78.608005 6.054491
3837 135 2 0.5897 1.735768 78.174214 7.592062
3838 136 1 -1.1794 1.978522 82.218424 12.580056
3839 136 2 0.5897 1.537325 81.743219 13.341321
3840 136 2 0.5897 2.898127 82.501835 12.852093
3841 137 1 -1.1794 12.292572 96.548587 20.363259
3842 137 2 0.5897 12.831079 96.675012 19.530177
3843 137 2 0.5897 11.427893 96.100401 20.136409
3844 138 1 -1.1794 12.324415 64.845464 24.844839
3845 138 2 0.5897 13.092916 65.234696 25.352682
3846 138 2 0.5897 11.565362 65.496458 24.838207
3847 139 1 -1.1794 17.913585 79.781457 21.434745
3848 139 2 0.5897 18.713282 79.248681 21.711572
3849 139 2 0.5897 17.837589 79.774923 20.437659
3850 140 1 -1.1794 10.606734 88.302060 14.906665
3851 140 2 0.5897 11.031646 88.838813 14.177730
3852 140 2 0.5897 9.797492 88.781934 15.245558
3853 141 1 -1.1794 3.403896 53.983242 18.915315
3854 141 2 0.5897 2.648687 54.365927 18.383138
3855 141 2 0.5897 4.101809 53.626196 18.294480
3856 142 1 -1.1794 17.523578 60.235288 32.381330
3857 142 2 0.5897 18.510221 60.388020 32.324689
3858 142 2 0.5897 17.182188 59.928793 31.492784
3859 143 1 -1.1794 15.048103 68.619376 2.842358
3860 143 2 0.5897 15.497506 68.528326 3.731035
3861 143 2 0.5897 14.280325 67.980793 2.790129
3862 144 1 -1.1794 9.561487 80.074265 23.452029
3863 144 2 0.5897 10.020657 79.248519 23.124451
3864 144 2 0.5897 8.607592 79.862936 23.665159
3865 145 1 -1.1794 3.237588 89.623736 28.366455
3866 145 2 0.5897 3.205951 88.811752 27.783635
3867 145 2 0.5897 2.997071 90.430735 27.827099
3868 146 1 -1.1794 11.626003 67.642101 10.679120
3869 146 2 0.5897 11.417179 68.560831 11.014273
3870 146 2 0.5897 12.616780 67.506742 10.672984
3871 147 1 -1.1794 3.519033 55.219382 23.246203
3872 147 2 0.5897 3.902593 56.119559 23.452513
3873 147 2 0.5897 3.406483 54.702559 24.094864
3874 148 1 -1.1794 0.816717 84.692934 23.701746
3875 148 2 0.5897 0.143833 84.015770 23.403964
3876 148 2 0.5897 1.290513 85.065289 22.903705
3877 149 1 -1.1794 19.376601 66.207374 8.291000
3878 149 2 0.5897 19.399700 65.243588 8.556673
3879 149 2 0.5897 19.992114 66.730464 8.880508
3880 150 1 -1.1794 2.299499 80.388135 33.657819
3881 150 2 0.5897 3.266138 80.637101 33.597624
3882 150 2 0.5897 2.006235 79.979055 32.793730
3883 151 1 -1.1794 10.287006 79.122976 9.592105
3884 151 2 0.5897 10.377732 80.107344 9.743063
3885 151 2 0.5897 9.577649 78.757338 10.194701
3886 152 1 -1.1794 4.611968 86.418018 29.838279
3887 152 2 0.5897 4.882256 85.455273 29.846342
3888 152 2 0.5897 4.126195 86.620730 28.988025
3889 153 1 -1.1794 14.049375 57.050610 4.645261
3890 153 2 0.5897 13.596918 56.239956 5.016909
3891 153 2 0.5897 14.871445 57.247826 5.179403
3892 154 1 -1.1794 9.481156 62.500826 6.393974
3893 154 2 0.5897 9.333173 62.784912 5.446665
3894 154 2 0.5897 8.658678 62.048326 6.738610
3895 155 1 -1.1794 5.929495 51.927969 22.842382
3896 155 2 0.5897 6.698809 52.451634 23.208347
3897 155 2 0.5897 5.364372 52.521876 22.269746
3898 156 1 -1.1794 4.654575 82.267736 26.233805
3899 156 2 0.5897 4.608153 83.101972 26.783256
3900 156 2 0.5897 4.707635 81.472956 26.838379
3901 157 1 -1.1794 4.074930 95.021262 0.640662
3902 157 2 0.5897 3.354062 94.816365 1.302755
3903 157 2 0.5897 4.863156 95.411754 1.116283
3904 158 1 -1.1794 20.634389 49.907077 6.235058
3905 158 2 0.5897 19.789889 49.643802 5.768683
3906 158 2 0.5897 20.974821 50.764547 5.849246
3907 159 1 -1.1794 0.490857 62.267790 27.784847
3908 159 2 0.5897 0.084250 62.374745 28.692168
3909 159 2 0.5897 0.332018 63.096762 27.248586
3910 160 1 -1.1794 17.037042 55.700931 2.981407
3911 160 2 0.5897 16.399260 56.466257 3.068065
3912 160 2 0.5897 17.973159 56.032127 3.099704
3913 161 1 -1.1794 3.690962 52.815495 27.552925
3914 161 2 0.5897 4.037206 52.366178 28.376472
3915 161 2 0.5897 4.433491 52.915608 26.890635
3916 162 1 -1.1794 19.172241 52.668289 12.609078
3917 162 2 0.5897 20.148269 52.790016 12.428660
3918 162 2 0.5897 18.666679 52.706212 11.747121
3919 163 1 -1.1794 3.439648 86.201224 12.576080
3920 163 2 0.5897 2.763229 86.717565 13.101294
3921 163 2 0.5897 3.362019 86.438882 11.607838
3922 164 1 -1.1794 4.483118 57.739156 21.170629
3923 164 2 0.5897 4.243610 58.710040 21.165990
3924 164 2 0.5897 4.972031 57.520493 22.015111
3925 165 1 -1.1794 21.288700 77.424214 9.972677
3926 165 2 0.5897 21.756334 76.608207 10.312460
3927 165 2 0.5897 20.359715 77.453921 10.341599
3928 166 1 -1.1794 5.751988 76.407103 15.554070
3929 166 2 0.5897 6.148617 77.155195 16.086089
3930 166 2 0.5897 6.187025 75.545330 15.815008
3931 167 1 -1.1794 14.231125 63.288634 2.370497
3932 167 2 0.5897 13.713791 64.094635 2.658122
3933 167 2 0.5897 15.187349 63.391022 2.644634
3934 168 1 -1.1794 5.386102 67.859859 9.152558
3935 168 2 0.5897 4.988701 67.348156 8.390828
3936 168 2 0.5897 6.062815 68.507356 8.802119
3937 169 1 -1.1794 15.472303 52.804667 8.338293
3938 169 2 0.5897 15.270452 53.427901 7.582756
3939 169 2 0.5897 14.906028 51.984733 8.254386
3940 170 1 -1.1794 0.238415 79.032566 24.771270
3941 170 2 0.5897 0.008004 78.202489 25.279092
3942 170 2 0.5897 0.000896 78.910484 23.807589
3943 171 1 -1.1794 5.905893 72.973463 24.565577
3944 171 2 0.5897 5.766945 73.835615 24.078352
3945 171 2 0.5897 5.697075 72.208723 23.956014
3946 172 1 -1.1794 17.697279 49.738852 19.897336
3947 172 2 0.5897 18.285386 50.530397 20.063430
3948 172 2 0.5897 17.341520 49.778018 18.963579
3949 173 1 -1.1794 4.073765 92.786493 0.872980
3950 173 2 0.5897 4.824674 93.116144 1.445227
3951 173 2 0.5897 3.333227 92.451230 1.455391
3952 174 1 -1.1794 20.830849 59.632312 22.942203
3953 174 2 0.5897 21.301622 59.016907 22.310024
3954 174 2 0.5897 20.286214 60.290818 22.422835
3955 175 1 -1.1794 3.607630 50.625903 9.182393
3956 175 2 0.5897 4.285256 50.101757 9.698236
3957 175 2 0.5897 2.938025 51.017338 9.813588
3958 176 1 -1.1794 20.108147 55.941167 30.106241
3959 176 2 0.5897 20.644571 55.300712 29.556635
3960 176 2 0.5897 19.770689 56.679770 29.522642
3961 177 1 -1.1794 0.927097 80.878414 21.830468
3962 177 2 0.5897 0.545973 81.341706 21.030403
3963 177 2 0.5897 0.188433 80.640397 22.461122
3964 178 1 -1.1794 14.214630 60.601768 22.976177
3965 178 2 0.5897 14.276834 60.443213 23.961566
3966 178 2 0.5897 13.351571 61.061217 22.766332
3967 179 1 -1.1794 0.411202 81.560601 18.234541
3968 179 2 0.5897 0.729516 82.470582 18.500270
3969 179 2 0.5897 0.871546 80.870290 18.792711
3970 180 1 -1.1794 2.006926 80.050960 1.042530
3971 180 2 0.5897 2.925730 80.424253 1.170794
3972 180 2 0.5897 1.548937 79.980834 1.928718
3973 181 1 -1.1794 7.177716 50.009901 11.808590
3974 181 2 0.5897 7.264042 49.478257 12.651146
3975 181 2 0.5897 6.895264 50.943099 12.030769
3976 182 1 -1.1794 11.482728 63.416550 9.754989
3977 182 2 0.5897 12.202968 63.695019 10.390371
3978 182 2 0.5897 10.648904 63.209039 10.266533
3979 183 1 -1.1794 4.999217 71.717911 26.989365
3980 183 2 0.5897 5.391624 72.283522 27.714693
3981 183 2 0.5897 4.798762 70.806579 27.348935
3982 184 1 -1.1794 2.957046 87.854997 30.385099
3983 184 2 0.5897 2.243154 87.295928 29.963435
3984 184 2 0.5897 2.655943 88.807876 30.421959
3985 185 1 -1.1794 9.722172 53.704519 23.389895
3986 185 2 0.5897 10.702323 53.586001 23.548820
3987 185 2 0.5897 9.358875 52.894686 22.929260
3988 186 1 -1.1794 7.700235 81.764368 6.857066
3989 186 2 0.5897 8.686148 81.928195 6.890784
3990 186 2 0.5897 7.287451 82.356421 6.164908
3991 187 1 -1.1794 0.000340 84.527177 19.852950
3992 187 2 0.5897 0.364574 83.771473 20.397234
3993 187 2 0.5897 0.356099 85.393039 20.204685
3994 188 1 -1.1794 19.686606 72.234355 19.071529
3995 188 2 0.5897 20.006139 72.980733 19.655327
3996 188 2 0.5897 19.318658 71.499584 19.641377
3997 189 1 -1.1794 10.833938 59.383278 16.695175
3998 189 2 0.5897 11.707894 59.640465 17.107554
3999 189 2 0.5897 10.251950 58.955775 17.386934
4000 190 1 -1.1794 18.353196 73.239869 13.477052
4001 190 2 0.5897 17.505435 72.750686 13.272108
4002 190 2 0.5897 18.292589 73.643870 14.389800
4003 191 1 -1.1794 19.944827 98.488057 20.121700
4004 191 2 0.5897 20.941354 98.405237 20.113101
4005 191 2 0.5897 19.534637 97.576101 20.130671
4006 192 1 -1.1794 8.000488 69.605949 24.234656
4007 192 2 0.5897 8.286603 69.378170 25.165384
4008 192 2 0.5897 7.002340 69.583875 24.177973
4009 193 1 -1.1794 20.259111 81.307033 8.695713
4010 193 2 0.5897 19.781184 81.317839 7.817380
4011 193 2 0.5897 20.148379 80.410400 9.124418
4012 194 1 -1.1794 10.918445 76.109948 30.662961
4013 194 2 0.5897 10.093968 76.129330 30.097397
4014 194 2 0.5897 11.725778 76.072064 30.074082
4015 195 1 -1.1794 14.894510 81.157897 7.088043
4016 195 2 0.5897 13.985949 81.522702 7.291595
4017 195 2 0.5897 14.975601 80.994830 6.104766
4018 196 1 -1.1794 17.274697 52.783544 20.651247
4019 196 2 0.5897 17.711791 52.470586 21.494459
4020 196 2 0.5897 17.951315 53.242770 20.075661
4021 197 1 -1.1794 21.406211 60.115102 29.606428
4022 197 2 0.5897 21.344604 59.242905 29.121168
4023 197 2 0.5897 21.526240 60.856262 28.945917
4024 198 1 -1.1794 0.004641 89.528426 30.078802
4025 198 2 0.5897 0.149124 88.546978 29.952770
4026 198 2 0.5897 0.198932 90.006628 29.222312
4027 199 1 -1.1794 14.244525 94.005339 4.645279
4028 199 2 0.5897 13.816060 93.338130 4.035976
4029 199 2 0.5897 14.699414 94.710032 4.100776
4030 200 1 -1.1794 17.693623 96.179924 11.171645
4031 200 2 0.5897 17.650090 97.029863 10.646565
4032 200 2 0.5897 18.612065 95.790826 11.100460
4033 201 1 -1.1794 5.543111 68.432818 15.800545
4034 201 2 0.5897 6.010002 67.640511 16.193308
4035 201 2 0.5897 5.428700 69.134632 16.503657
4036 202 1 -1.1794 5.511087 76.696728 25.726142
4037 202 2 0.5897 6.410948 76.356120 25.453677
4038 202 2 0.5897 5.002553 76.981750 24.913643
4039 203 1 -1.1794 11.427294 55.538667 11.527511
4040 203 2 0.5897 11.983408 54.912787 12.074330
4041 203 2 0.5897 10.983183 56.202418 12.129341
4042 204 1 -1.1794 10.566888 69.054887 3.214745
4043 204 2 0.5897 9.960734 68.795819 2.462774
4044 204 2 0.5897 11.401904 69.462030 2.844634
4045 205 1 -1.1794 1.193327 88.477796 32.032120
4046 205 2 0.5897 0.740210 88.921237 32.805453
4047 205 2 0.5897 1.430657 87.538242 32.278925
4048 206 1 -1.1794 15.073097 77.822300 7.161727
4049 206 2 0.5897 14.902206 78.619445 7.740827
4050 206 2 0.5897 14.740161 76.998926 7.621300
4051 207 1 -1.1794 0.020473 69.292268 18.915311
4052 207 2 0.5897 0.194927 69.014740 19.860056
4053 207 2 0.5897 0.866532 69.224930 18.386491
4054 208 1 -1.1794 1.768278 91.010272 12.087589
4055 208 2 0.5897 1.749773 91.774803 12.731911
4056 208 2 0.5897 2.039579 91.342250 11.184159
4057 209 1 -1.1794 3.664095 62.683301 2.681221
4058 209 2 0.5897 3.025598 62.052607 2.240146
4059 209 2 0.5897 4.542985 62.226325 2.818062
4060 210 1 -1.1794 11.642065 61.899810 4.716214
4061 210 2 0.5897 12.349086 61.652767 4.053575
4062 210 2 0.5897 11.590690 61.197509 5.426238
4063 211 1 -1.1794 2.547452 64.417774 25.606694
4064 211 2 0.5897 2.118244 63.643697 26.072080
4065 211 2 0.5897 2.914744 65.053114 26.285988
4066 212 1 -1.1794 19.746314 95.579470 15.724534
4067 212 2 0.5897 20.012134 95.847723 14.798585
4068 212 2 0.5897 18.762773 95.716810 15.841938
4069 213 1 -1.1794 13.263864 53.421923 6.556706
4070 213 2 0.5897 13.777336 52.794049 5.971797
4071 213 2 0.5897 12.754206 54.066684 5.987028
4072 214 1 -1.1794 5.082620 64.838594 5.617593
4073 214 2 0.5897 4.631943 64.306193 4.901046
4074 214 2 0.5897 5.567117 65.609933 5.204919
4075 215 1 -1.1794 3.057820 59.237109 16.645337
4076 215 2 0.5897 2.469313 58.588562 17.128086
4077 215 2 0.5897 3.754926 58.736460 16.132118
4078 216 1 -1.1794 3.876002 95.508536 12.727041
4079 216 2 0.5897 3.508050 95.806858 13.607731
4080 216 2 0.5897 4.817926 95.195329 12.848202
4081 217 1 -1.1794 17.479982 70.988323 7.438762
4082 217 2 0.5897 17.789916 70.046295 7.310219
4083 217 2 0.5897 17.617346 71.257260 8.392074
4084 218 1 -1.1794 6.390146 73.699627 13.570330
4085 218 2 0.5897 6.966940 73.180235 14.200838
4086 218 2 0.5897 5.656560 74.147350 14.081598
4087 219 1 -1.1794 11.421212 49.760416 14.834612
4088 219 2 0.5897 10.469466 49.937308 14.583835
4089 219 2 0.5897 11.709425 48.883036 14.451028
4090 220 1 -1.1794 16.487506 57.582326 16.545251
4091 220 2 0.5897 15.560253 57.265572 16.345580
4092 220 2 0.5897 17.058469 56.802125 16.800763
4093 221 1 -1.1794 15.457954 63.979392 32.426211
4094 221 2 0.5897 14.547854 63.669441 32.701254
4095 221 2 0.5897 16.141701 63.600515 33.049863
4096 222 1 -1.1794 0.563097 97.287572 31.355575
4097 222 2 0.5897 1.277665 96.856464 30.804632
4098 222 2 0.5897 0.000007 96.580574 31.783458
4099 223 1 -1.1794 7.072823 95.561142 2.281511
4100 223 2 0.5897 6.873352 94.758918 1.718797
4101 223 2 0.5897 6.900059 96.391353 1.751508
4102 224 1 -1.1794 10.398173 91.778263 9.150981
4103 224 2 0.5897 10.914709 91.657939 9.998750
4104 224 2 0.5897 10.969101 92.246166 8.476365
4105 225 1 -1.1794 21.085672 82.619930 24.082504
4106 225 2 0.5897 20.667347 82.829435 24.966310
4107 225 2 0.5897 21.774502 81.904748 24.200941
4108 226 1 -1.1794 12.417357 74.484276 33.052153
4109 226 2 0.5897 11.466952 74.707603 32.835689
4110 226 2 0.5897 13.019063 74.879936 32.358320
4111 227 1 -1.1794 19.461000 96.389124 30.260574
4112 227 2 0.5897 19.530860 97.050527 31.007344
4113 227 2 0.5897 18.500938 96.275021 30.005108
4114 228 1 -1.1794 3.405969 68.997986 14.926735
4115 228 2 0.5897 2.424537 68.819942 14.998088
4116 228 2 0.5897 3.576109 69.628816 14.169697
4117 229 1 -1.1794 6.668912 71.164584 0.934927
4118 229 2 0.5897 6.414919 70.926310 -0.002470
4119 229 2 0.5897 6.083554 71.907186 1.260347
4120 230 1 -1.1794 8.400485 84.198282 4.396238
4121 230 2 0.5897 8.915671 84.811742 3.797697
4122 230 2 0.5897 8.890439 84.087084 5.260865
4123 231 1 -1.1794 19.917722 81.890365 11.523503
4124 231 2 0.5897 20.600263 82.020801 10.804390
4125 231 2 0.5897 19.001509 81.932467 11.125030
4126 232 1 -1.1794 7.258924 85.042785 33.054754
4127 232 2 0.5897 7.889503 85.659045 33.526552
4128 232 2 0.5897 6.497524 84.816045 33.662092
4129 233 1 -1.1794 4.150679 55.543505 26.529798
4130 233 2 0.5897 3.459279 55.557023 27.252143
4131 233 2 0.5897 4.986645 55.118097 26.876480
4132 234 1 -1.1794 14.935121 77.304852 0.592751
4133 234 2 0.5897 14.464995 77.984021 0.029092
4134 234 2 0.5897 15.374968 76.628349 0.002092
4135 235 1 -1.1794 14.768834 61.195157 14.298680
4136 235 2 0.5897 14.674120 60.900200 13.347875
4137 235 2 0.5897 15.255377 62.068255 14.329921
4138 236 1 -1.1794 6.633398 60.654630 22.935841
4139 236 2 0.5897 5.829234 60.519222 23.514620
4140 236 2 0.5897 7.440343 60.785580 23.511769
4141 237 1 -1.1794 21.156121 76.109228 13.679428
4142 237 2 0.5897 20.556535 75.312393 13.753927
4143 237 2 0.5897 21.774867 76.135349 14.464585
4144 238 1 -1.1794 20.331047 92.894013 30.039958
4145 238 2 0.5897 19.740192 93.233879 29.308260
4146 238 2 0.5897 21.144130 93.472230 30.107493
4147 239 1 -1.1794 12.207909 72.457930 25.855455
4148 239 2 0.5897 12.165224 72.016828 26.751896
4149 239 2 0.5897 12.923290 73.156639 25.861507
4150 240 1 -1.1794 1.549896 77.632113 21.563052
4151 240 2 0.5897 1.353447 77.743204 22.537252
4152 240 2 0.5897 1.294269 78.466215 21.074248
4153 241 1 -1.1794 15.128228 53.544476 3.022072
4154 241 2 0.5897 14.386851 53.307523 2.394208
4155 241 2 0.5897 14.943381 53.147414 3.921056
4156 242 1 -1.1794 0.947067 48.938663 4.831442
4157 242 2 0.5897 0.320037 49.698738 4.660801
4158 242 2 0.5897 0.975239 48.743473 5.811803
4159 243 1 -1.1794 13.268463 84.997082 15.643662
4160 243 2 0.5897 13.910255 84.331116 16.023915
4161 243 2 0.5897 12.449868 85.035901 16.216719
4162 244 1 -1.1794 0.494517 94.833625 29.585660
4163 244 2 0.5897 0.000528 95.690056 29.435660
4164 244 2 0.5897 0.003926 94.083730 29.141838
4165 245 1 -1.1794 13.889207 66.559930 27.946605
4166 245 2 0.5897 14.557803 66.419030 27.216450
4167 245 2 0.5897 12.965339 66.472912 27.573917
4168 246 1 -1.1794 5.083602 92.310979 10.909176
4169 246 2 0.5897 4.170024 91.998603 10.648796
4170 246 2 0.5897 5.199285 92.215556 11.897868
4171 247 1 -1.1794 8.602011 94.396729 0.000237
4172 247 2 0.5897 8.898624 94.161409 0.925788
4173 247 2 0.5897 8.153452 95.290416 0.011082
4174 248 1 -1.1794 0.032974 52.648133 16.713101
4175 248 2 0.5897 -0.000353 53.459310 17.296951
4176 248 2 0.5897 0.007605 52.927126 15.753143
4177 249 1 -1.1794 6.296271 51.668602 8.171106
4178 249 2 0.5897 5.301032 51.756828 8.212524
4179 249 2 0.5897 6.688756 51.900244 9.061216
4180 250 1 -1.1794 9.699041 77.411705 19.617396
4181 250 2 0.5897 10.054171 78.059514 18.943433
4182 250 2 0.5897 10.458730 76.905847 20.026027
4183 251 1 -1.1794 6.495481 64.948162 28.889389
4184 251 2 0.5897 5.947704 64.135218 29.087031
4185 251 2 0.5897 7.377218 64.877432 29.355798
4186 252 1 -1.1794 0.294456 95.092280 27.208266
4187 252 2 0.5897 0.015982 94.167914 26.947496
4188 252 2 0.5897 0.045315 95.732836 26.481895
4189 253 1 -1.1794 17.747412 53.688011 26.747885
4190 253 2 0.5897 18.040727 52.914924 27.310293
4191 253 2 0.5897 17.413281 54.422281 27.338821
4192 254 1 -1.1794 9.023073 49.674209 0.490436
4193 254 2 0.5897 8.642943 50.469631 0.018414
4194 254 2 0.5897 8.764674 48.841286 0.001081
4195 255 1 -1.1794 12.257985 71.761341 7.293962
4196 255 2 0.5897 12.494767 70.869573 6.908366
4197 255 2 0.5897 12.938591 72.437649 7.012212
4198 256 1 -1.1794 11.849337 79.063493 14.069966
4199 256 2 0.5897 11.275022 78.851664 14.860719
4200 256 2 0.5897 11.293091 79.043797 13.239182
4201 257 1 -1.1794 12.942868 90.481815 15.612042
4202 257 2 0.5897 13.914652 90.560381 15.834447
4203 257 2 0.5897 12.411457 90.420631 16.456943
4204 258 1 -1.1794 4.871501 94.927461 9.718549
4205 258 2 0.5897 4.522621 94.888772 10.654918
4206 258 2 0.5897 5.403095 95.765442 9.595276
4207 259 1 -1.1794 9.855298 72.532906 0.805270
4208 259 2 0.5897 9.455531 71.678127 1.136238
4209 259 2 0.5897 10.196501 73.063662 1.581078
4210 260 1 -1.1794 6.442394 60.813334 4.722134
4211 260 2 0.5897 5.727034 60.322363 5.219334
4212 260 2 0.5897 7.154022 61.103370 5.362028
4213 261 1 -1.1794 20.895542 56.647363 26.380911
4214 261 2 0.5897 21.331626 57.300176 27.000319
4215 261 2 0.5897 20.780261 57.067736 25.480913
4216 262 1 -1.1794 0.752758 58.936599 28.739458
4217 262 2 0.5897 1.413645 58.188402 28.798031
4218 262 2 0.5897 0.005305 58.674085 28.129212
4219 263 1 -1.1794 4.398875 73.598539 10.893297
4220 263 2 0.5897 3.649089 73.342679 11.503507
4221 263 2 0.5897 5.208575 73.822308 11.435803
4222 264 1 -1.1794 13.963889 55.383325 22.743533
4223 264 2 0.5897 14.841619 55.177322 22.310921
4224 264 2 0.5897 14.087793 56.109812 23.419450
4225 265 1 -1.1794 20.654503 80.268019 14.985831
4226 265 2 0.5897 21.079108 79.819170 14.199545
4227 265 2 0.5897 20.862408 81.245919 14.963779
4228 266 1 -1.1794 4.270212 52.973322 33.662101
4229 266 2 0.5897 3.684870 53.653432 33.220710
4230 266 2 0.5897 4.855815 52.541872 32.975864
4231 267 1 -1.1794 13.369416 70.394733 10.503125
4232 267 2 0.5897 13.448212 69.477481 10.112689
4233 267 2 0.5897 12.609657 70.416236 11.152973
4234 268 1 -1.1794 0.562661 92.248694 2.069080
4235 268 2 0.5897 0.000578 92.555969 2.836964
4236 268 2 0.5897 0.521653 91.251659 2.003968
4237 269 1 -1.1794 8.246162 70.590670 2.643894
4238 269 2 0.5897 9.102655 70.769040 3.128254
4239 269 2 0.5897 7.549498 71.240212 2.948452
4240 270 1 -1.1794 20.493258 87.323908 4.065680
4241 270 2 0.5897 20.057550 86.423918 4.078955
4242 270 2 0.5897 20.370649 87.740330 3.164814
4243 271 1 -1.1794 11.032273 86.034453 19.658414
4244 271 2 0.5897 11.018216 85.206542 20.219096
4245 271 2 0.5897 11.134304 86.835120 20.248771
4246 272 1 -1.1794 6.191325 61.578868 13.687005
4247 272 2 0.5897 7.040536 61.673965 14.206425
4248 272 2 0.5897 5.992955 62.436532 13.212598
4249 273 1 -1.1794 17.849080 88.705143 6.550476
4250 273 2 0.5897 18.024189 89.280566 5.751586
4251 273 2 0.5897 16.900011 88.390556 6.533079
4252 274 1 -1.1794 17.771899 75.997736 16.529047
4253 274 2 0.5897 18.568960 75.537238 16.138363
4254 274 2 0.5897 16.969889 75.816142 15.960009
4255 275 1 -1.1794 13.464833 53.248619 9.804257
4256 275 2 0.5897 13.513165 53.660597 8.894346
4257 275 2 0.5897 13.709295 53.931449 10.492720
4258 276 1 -1.1794 16.635278 69.740117 1.437922
4259 276 2 0.5897 16.221550 69.530252 0.552041
4260 276 2 0.5897 17.330324 69.053812 1.652155
4261 277 1 -1.1794 18.346062 58.665822 13.802738
4262 277 2 0.5897 19.345868 58.667234 13.822429
4263 277 2 0.5897 18.000817 59.427760 14.350694
4264 278 1 -1.1794 17.940359 81.259736 28.079822
4265 278 2 0.5897 18.386186 82.049577 27.658645
4266 278 2 0.5897 16.956801 81.427948 28.145538
4267 279 1 -1.1794 11.721471 91.919506 32.494533
4268 279 2 0.5897 11.230099 91.078530 32.721055
4269 279 2 0.5897 12.658533 91.861055 32.838769
4270 280 1 -1.1794 20.529044 93.882915 18.344680
4271 280 2 0.5897 20.722789 93.255006 17.590895
4272 280 2 0.5897 20.033933 94.678935 17.996517
4273 281 1 -1.1794 15.204901 73.735254 7.698164
4274 281 2 0.5897 15.895991 73.040488 7.498927
4275 281 2 0.5897 15.453059 74.591675 7.245439
4276 282 1 -1.1794 0.222598 93.516452 16.907398
4277 282 2 0.5897 0.387885 94.207187 17.611362
4278 282 2 0.5897 0.005255 92.642624 17.342354
4279 283 1 -1.1794 2.872162 97.321858 1.870886
4280 283 2 0.5897 3.143598 96.624089 2.533789
4281 283 2 0.5897 2.169764 96.949815 1.264074
4282 284 1 -1.1794 4.139850 49.668804 6.273759
4283 284 2 0.5897 4.459079 48.825354 5.841688
4284 284 2 0.5897 4.668916 49.838282 7.105244
4285 285 1 -1.1794 17.544001 61.328701 7.777795
4286 285 2 0.5897 17.924248 60.927520 6.944449
4287 285 2 0.5897 16.545675 61.333097 7.720124
4288 286 1 -1.1794 7.681261 66.274099 14.447199
4289 286 2 0.5897 6.753221 65.908021 14.515965
4290 286 2 0.5897 8.082086 66.004026 13.571756
4291 287 1 -1.1794 16.563528 66.328873 3.170863
4292 287 2 0.5897 16.239395 65.567194 2.609809
4293 287 2 0.5897 16.866306 67.074697 2.577505
4294 288 1 -1.1794 13.945565 93.392378 8.459080
4295 288 2 0.5897 14.315956 92.487910 8.247542
4296 288 2 0.5897 12.946351 93.354093 8.448874
4297 289 1 -1.1794 7.118714 48.952129 6.288649
4298 289 2 0.5897 8.015742 48.550029 6.472105
4299 289 2 0.5897 6.441019 48.550149 6.904395
4300 290 1 -1.1794 5.777608 83.792792 31.356584
4301 290 2 0.5897 6.299997 82.940085 31.357597
4302 290 2 0.5897 4.802745 83.586356 31.272762
4303 291 1 -1.1794 16.702112 83.718339 2.212407
4304 291 2 0.5897 16.788985 84.528079 2.792730
4305 291 2 0.5897 17.356133 83.777056 1.458213
4306 292 1 -1.1794 13.718176 96.454697 1.704405
4307 292 2 0.5897 14.114049 95.674004 1.220875
4308 292 2 0.5897 13.313195 97.085955 1.042964
4309 293 1 -1.1794 1.235358 91.143225 25.201554
4310 293 2 0.5897 2.084497 90.665636 25.427101
4311 293 2 0.5897 1.427036 91.870900 24.542958
4312 294 1 -1.1794 15.869753 62.084909 10.740748
4313 294 2 0.5897 15.025312 61.644747 11.045999
4314 294 2 0.5897 15.921250 62.051183 9.742645
4315 295 1 -1.1794 21.774982 66.423021 6.580923
4316 295 2 0.5897 21.120086 66.188730 5.862439
4317 295 2 0.5897 21.757408 67.410306 6.738909
4318 296 1 -1.1794 18.804771 78.039151 27.371873
4319 296 2 0.5897 19.071454 78.415057 26.484419
4320 296 2 0.5897 18.526876 78.783413 27.979202
4321 297 1 -1.1794 1.753726 91.369752 5.128492
4322 297 2 0.5897 1.459623 91.455953 4.176613
4323 297 2 0.5897 2.634073 90.896740 5.163817
4324 298 1 -1.1794 17.168175 53.122522 17.102225
4325 298 2 0.5897 16.762564 52.514900 17.785067
4326 298 2 0.5897 17.670174 53.854197 17.563364
4327 299 1 -1.1794 10.099838 83.164705 16.521924
4328 299 2 0.5897 9.530903 82.917722 17.306343
4329 299 2 0.5897 10.991337 83.483354 16.843935
4330 300 1 -1.1794 8.278263 69.349510 33.293433
4331 300 2 0.5897 8.379512 68.420789 32.936747
4332 300 2 0.5897 8.740679 69.993066 32.683508
4333 301 1 -1.1794 5.114849 86.575847 16.960473
4334 301 2 0.5897 5.256912 87.467026 16.529640
4335 301 2 0.5897 4.968600 85.883536 16.253850
4336 302 1 -1.1794 18.706816 84.415315 18.523404
4337 302 2 0.5897 18.265598 83.633104 18.083550
4338 302 2 0.5897 18.082394 84.816931 19.193331
4339 303 1 -1.1794 11.071280 90.741977 29.657586
4340 303 2 0.5897 11.490425 90.052705 29.066636
4341 303 2 0.5897 10.832770 91.546654 29.113888
4342 304 1 -1.1794 15.606473 73.806619 3.433012
4343 304 2 0.5897 14.641181 73.705254 3.192311
4344 304 2 0.5897 15.824692 73.200522 4.197883
4345 305 1 -1.1794 11.004704 60.026148 19.136859
4346 305 2 0.5897 10.209355 59.532924 19.489210
4347 305 2 0.5897 11.189559 60.818842 19.717775
4348 306 1 -1.1794 4.016996 71.646809 19.014534
4349 306 2 0.5897 3.301939 71.365808 18.374431
4350 306 2 0.5897 4.046513 72.645148 19.064013
4351 307 1 -1.1794 3.796854 67.790550 19.041493
4352 307 2 0.5897 4.679002 67.518601 19.426017
4353 307 2 0.5897 3.405328 68.526728 19.593534
4354 308 1 -1.1794 15.451462 73.429412 11.601397
4355 308 2 0.5897 15.073994 74.301188 11.913683
4356 308 2 0.5897 16.443085 73.512007 11.502093
4357 309 1 -1.1794 2.007926 97.808070 27.252307
4358 309 2 0.5897 2.159804 98.517676 26.564272
4359 309 2 0.5897 1.056696 97.502309 27.211425
4360 310 1 -1.1794 14.384319 95.383195 18.203787
4361 310 2 0.5897 14.077813 94.446308 18.372001
4362 310 2 0.5897 15.371306 95.387205 18.043041
4363 311 1 -1.1794 0.821851 92.120032 27.287198
4364 311 2 0.5897 1.632251 92.231240 27.862424
4365 311 2 0.5897 0.003822 92.109400 27.862276
4366 312 1 -1.1794 7.807140 61.696743 25.955996
4367 312 2 0.5897 7.420814 60.957852 26.508077
4368 312 2 0.5897 7.067279 62.261385 25.590231
4369 313 1 -1.1794 12.685714 95.941913 4.403007
4370 313 2 0.5897 12.405551 96.305245 3.514469
4371 313 2 0.5897 13.398926 96.525183 4.791755
4372 314 1 -1.1794 7.708824 68.264806 4.751963
4373 314 2 0.5897 7.526909 68.431953 5.720967
4374 314 2 0.5897 8.657980 68.502216 4.545226
4375 315 1 -1.1794 0.657735 66.256650 1.802227
4376 315 2 0.5897 0.351986 66.947845 1.147424
4377 315 2 0.5897 0.000353 65.503381 1.823075
4378 316 1 -1.1794 4.707519 63.732223 11.985180
4379 316 2 0.5897 4.166840 64.544741 12.203082
4380 316 2 0.5897 4.118337 62.924479 12.005532
4381 317 1 -1.1794 16.231981 50.921092 25.772016
4382 317 2 0.5897 17.197849 51.019952 25.532589
4383 317 2 0.5897 16.128221 50.186072 26.442076
4384 318 1 -1.1794 14.713623 57.820014 18.393665
4385 318 2 0.5897 14.506311 56.946810 18.834728
4386 318 2 0.5897 13.860545 58.277701 18.143105
4387 319 1 -1.1794 16.153495 86.803457 19.303956
4388 319 2 0.5897 16.962767 86.691438 19.880611
4389 319 2 0.5897 15.512118 87.429383 19.747636
4390 320 1 -1.1794 18.411484 59.441257 9.721004
4391 320 2 0.5897 19.384335 59.335296 9.926755
4392 320 2 0.5897 17.869496 59.112797 10.494543
4393 321 1 -1.1794 15.193050 85.554453 26.474314
4394 321 2 0.5897 16.064610 85.287414 26.885500
4395 321 2 0.5897 14.961546 86.484818 26.758614
4396 322 1 -1.1794 14.912460 79.993796 21.611626
4397 322 2 0.5897 15.732654 79.943754 22.181517
4398 322 2 0.5897 14.115801 80.172566 22.189013
4399 323 1 -1.1794 20.217843 92.197104 23.192089
4400 323 2 0.5897 19.731521 92.299934 22.324381
4401 323 2 0.5897 21.197885 92.327966 23.042446
4402 324 1 -1.1794 7.562591 86.003275 0.842601
4403 324 2 0.5897 7.111498 85.113804 0.915787
4404 324 2 0.5897 8.100205 86.036031 0.000047
4405 325 1 -1.1794 2.743534 68.553215 22.473412
4406 325 2 0.5897 2.682834 68.850840 23.426163
4407 325 2 0.5897 1.869981 68.156111 22.191964
4408 326 1 -1.1794 8.506058 82.771677 13.849643
4409 326 2 0.5897 7.884003 82.573368 14.607086
4410 326 2 0.5897 9.421789 82.951795 14.208799
4411 327 1 -1.1794 19.554991 94.610992 21.803237
4412 327 2 0.5897 20.269546 94.866936 22.454316
4413 327 2 0.5897 18.725200 94.358852 22.301105
4414 328 1 -1.1794 5.723058 80.763660 2.503109
4415 328 2 0.5897 5.747574 81.083901 3.450128
4416 328 2 0.5897 4.914696 81.135159 2.046450
4417 329 1 -1.1794 11.144170 91.184771 13.834540
4418 329 2 0.5897 10.914058 91.593973 14.717491
4419 329 2 0.5897 12.057325 91.483087 13.556770
4420 330 1 -1.1794 21.774987 69.532803 25.501981
4421 330 2 0.5897 21.680292 68.661051 25.982691
4422 330 2 0.5897 21.036098 69.627536 24.834846
4423 331 1 -1.1794 18.776732 60.589920 16.051113
4424 331 2 0.5897 18.562914 59.833655 16.669454
4425 331 2 0.5897 18.612926 61.458843 16.518168
4426 332 1 -1.1794 0.737855 67.581700 10.238119
4427 332 2 0.5897 0.000359 67.843004 10.860871
4428 332 2 0.5897 1.556723 67.357750 10.766609
4429 333 1 -1.1794 11.767079 81.244448 13.990955
4430 333 2 0.5897 12.640153 81.070922 14.446620
4431 333 2 0.5897 11.016381 81.002264 14.605610
4432 334 1 -1.1794 0.197776 97.870147 12.237782
4433 334 2 0.5897 0.001755 96.995892 11.793650
4434 334 2 0.5897 0.441505 98.548749 11.544893
4435 335 1 -1.1794 21.329907 83.722931 31.866225
4436 335 2 0.5897 20.931102 84.492110 31.366908
4437 335 2 0.5897 21.774778 83.101563 31.221251
4438 336 1 -1.1794 20.879175 65.317130 22.135514
4439 336 2 0.5897 20.122834 65.648859 22.699344
4440 336 2 0.5897 21.625234 65.009560 22.726103
4441 337 1 -1.1794 21.395424 88.125557 13.403140
4442 337 2 0.5897 21.132252 88.862783 12.780856
4443 337 2 0.5897 21.775072 87.364719 12.876839
4444 338 1 -1.1794 19.757057 49.569648 17.900768
4445 338 2 0.5897 19.212415 48.828827 18.293895
4446 338 2 0.5897 19.281562 50.439360 18.033075
4447 339 1 -1.1794 17.859804 88.120036 17.369980
4448 339 2 0.5897 17.481637 88.186005 16.446596
4449 339 2 0.5897 17.632821 87.227714 17.760159
4450 340 1 -1.1794 1.205046 83.469199 1.001932
4451 340 2 0.5897 0.765739 84.186258 0.460789
4452 340 2 0.5897 1.106094 82.590833 0.534298
4453 341 1 -1.1794 5.410860 62.091785 8.789002
4454 341 2 0.5897 5.565141 62.133057 9.776167
4455 341 2 0.5897 6.244037 61.777045 8.334299
4456 342 1 -1.1794 13.753827 92.647072 31.069389
4457 342 2 0.5897 14.611156 92.189924 31.306037
4458 342 2 0.5897 13.359107 92.215924 30.258028
4459 343 1 -1.1794 11.611614 53.611441 32.151804
4460 343 2 0.5897 11.051061 52.811775 31.936594
4461 343 2 0.5897 11.080581 54.443555 31.991833
4462 344 1 -1.1794 1.854600 94.964509 33.280249
4463 344 2 0.5897 1.839818 94.045724 32.885768
4464 344 2 0.5897 1.905569 95.641646 32.546160
4465 345 1 -1.1794 6.954356 77.574927 18.924311
4466 345 2 0.5897 6.421874 78.418940 18.860241
4467 345 2 0.5897 6.657679 76.938774 18.212066
4468 346 1 -1.1794 11.674489 78.748446 7.842136
4469 346 2 0.5897 12.225598 78.512044 8.642382
4470 346 2 0.5897 11.969082 78.198833 7.060381
4471 347 1 -1.1794 15.540342 59.319410 32.824055
4472 347 2 0.5897 15.747941 59.827144 33.660183
4473 347 2 0.5897 15.089561 59.925868 32.169070
4474 348 1 -1.1794 6.852211 97.240399 31.622005
4475 348 2 0.5897 6.064121 96.856730 31.140639
4476 348 2 0.5897 7.427092 97.740663 30.974513
4477 349 1 -1.1794 6.689252 50.667034 4.828829
4478 349 2 0.5897 7.307067 50.023718 4.376667
4479 349 2 0.5897 6.448765 51.400804 4.193418
4480 350 1 -1.1794 1.017533 56.975310 5.649026
4481 350 2 0.5897 0.475028 56.834120 4.820924
4482 350 2 0.5897 0.471390 57.470139 6.324950
4483 351 1 -1.1794 20.808605 69.682906 28.145116
4484 351 2 0.5897 21.672644 69.179897 28.165560
4485 351 2 0.5897 20.784173 70.270711 27.336483
4486 352 1 -1.1794 12.323804 86.747269 22.214189
4487 352 2 0.5897 12.797572 87.560879 21.877168
4488 352 2 0.5897 11.420953 87.005675 22.557826
4489 353 1 -1.1794 6.808445 48.551440 2.289410
4490 353 2 0.5897 6.138023 48.769086 2.998751
4491 353 2 0.5897 7.727801 48.755349 2.625867
4492 354 1 -1.1794 1.284861 54.492986 5.568644
4493 354 2 0.5897 1.884322 54.936128 4.902106
4494 354 2 0.5897 1.834727 53.944563 6.198627
4495 355 1 -1.1794 19.280460 74.397924 9.254492
4496 355 2 0.5897 19.725793 75.060157 9.857092
4497 355 2 0.5897 18.896271 73.654631 9.802137
4498 356 1 -1.1794 3.636998 80.416453 16.916083
4499 356 2 0.5897 3.952333 79.805696 17.642402
4500 356 2 0.5897 2.896340 80.992012 17.262722
4501 357 1 -1.1794 11.237706 62.371089 26.875490
4502 357 2 0.5897 10.323028 62.573492 27.225343
4503 357 2 0.5897 11.179841 61.642486 26.193003
4504 358 1 -1.1794 19.276617 65.465843 25.055480
4505 358 2 0.5897 18.516962 65.785312 25.621927
4506 358 2 0.5897 19.420483 64.488568 25.211159
4507 359 1 -1.1794 12.580366 84.574312 29.779780
4508 359 2 0.5897 12.435994 85.550844 29.619962
4509 359 2 0.5897 11.695665 84.116909 29.869700
4510 360 1 -1.1794 8.625435 85.414391 23.651389
4511 360 2 0.5897 8.106543 85.766601 22.872480
4512 360 2 0.5897 9.602349 85.437633 23.439023
4513 361 1 -1.1794 6.344778 67.543303 12.979270
4514 361 2 0.5897 6.607113 68.212579 12.284108
4515 361 2 0.5897 5.980914 66.725255 12.533849
4516 362 1 -1.1794 0.039627 98.250401 6.394749
4517 362 2 0.5897 0.509963 97.643812 7.035713
4518 362 2 0.5897 0.665425 98.506698 5.658075
4519 363 1 -1.1794 9.355549 88.228637 23.615136
4520 363 2 0.5897 9.508380 87.469524 24.247900
4521 363 2 0.5897 9.316022 89.086642 24.127254
4522 364 1 -1.1794 16.613462 97.545124 23.862585
4523 364 2 0.5897 16.869361 98.333722 23.303453
4524 364 2 0.5897 15.860648 97.055123 23.423075
4525 365 1 -1.1794 8.205088 93.407619 32.352608
4526 365 2 0.5897 8.785911 92.731491 31.899292
4527 365 2 0.5897 7.858140 94.056545 31.675466
4528 366 1 -1.1794 7.584566 91.815356 19.629432
4529 366 2 0.5897 7.092754 91.797252 20.499946
4530 366 2 0.5897 7.447609 90.947910 19.151123
4531 367 1 -1.1794 4.126984 71.291498 29.688144
4532 367 2 0.5897 4.872768 70.641765 29.540995
4533 367 2 0.5897 4.460836 72.066026 30.225405
4534 368 1 -1.1794 16.953479 65.907582 22.908304
4535 368 2 0.5897 16.192900 65.712472 22.289069
4536 368 2 0.5897 17.818788 65.786341 22.421949
4537 369 1 -1.1794 5.748101 81.384421 19.693214
4538 369 2 0.5897 5.834562 80.626057 20.339285
4539 369 2 0.5897 6.183677 82.199333 20.075566
4540 370 1 -1.1794 14.781499 79.007536 10.658580
4541 370 2 0.5897 15.473952 79.440472 11.235707
4542 370 2 0.5897 14.905346 78.015400 10.676703
4543 371 1 -1.1794 16.749826 87.245786 33.478182
4544 371 2 0.5897 16.927586 87.755048 32.636129
4545 371 2 0.5897 15.783691 86.990483 33.515658
4546 372 1 -1.1794 0.533578 54.690139 13.698942
4547 372 2 0.5897 0.511270 53.695306 13.599895
4548 372 2 0.5897 0.749113 54.926007 14.646524
4549 373 1 -1.1794 12.257590 69.999128 31.318314
4550 373 2 0.5897 11.393751 70.499174 31.257188
4551 373 2 0.5897 12.073068 69.016560 31.340907
4552 374 1 -1.1794 5.622413 53.638558 12.707468
4553 374 2 0.5897 5.049571 53.794761 13.512112
4554 374 2 0.5897 5.282706 54.188670 11.944595
4555 375 1 -1.1794 9.266786 71.592024 16.883571
4556 375 2 0.5897 8.853913 70.840960 16.368364
4557 375 2 0.5897 8.556440 72.243447 17.150134
4558 376 1 -1.1794 20.977194 49.648448 23.839559
4559 376 2 0.5897 21.175518 50.610568 24.026621
4560 376 2 0.5897 20.011443 49.465341 24.023400
4561 377 1 -1.1794 9.423165 48.556006 26.181261
4562 377 2 0.5897 8.909162 48.763346 25.348908
4563 377 2 0.5897 9.994875 49.339763 26.423895
4564 378 1 -1.1794 21.538368 53.618240 31.419333
4565 378 2 0.5897 20.552707 53.781554 31.376881
4566 378 2 0.5897 21.768366 53.192974 32.294689
4567 379 1 -1.1794 15.440597 50.248811 3.355464
4568 379 2 0.5897 15.766660 51.193736 3.327177
4569 379 2 0.5897 16.206506 49.626897 3.192344
4570 380 1 -1.1794 12.314990 92.175038 2.668980
4571 380 2 0.5897 13.140876 92.221351 2.107047
4572 380 2 0.5897 11.694544 91.486514 2.293505
4573 381 1 -1.1794 21.557642 49.052116 26.321152
4574 381 2 0.5897 21.742458 49.589891 27.143734
4575 381 2 0.5897 20.700606 48.550000 26.436771
4576 382 1 -1.1794 3.040469 52.161192 6.645702
4577 382 2 0.5897 3.394804 52.842243 7.286495
4578 382 2 0.5897 2.612571 51.414812 7.155428
4579 383 1 -1.1794 13.170215 62.218302 24.624031
4580 383 2 0.5897 13.639959 63.099243 24.681337
4581 383 2 0.5897 12.210563 62.367175 24.385482
4582 384 1 -1.1794 11.378393 67.848466 5.924752
4583 384 2 0.5897 11.872168 67.200734 5.344553
4584 384 2 0.5897 10.837777 68.464305 5.351623
4585 385 1 -1.1794 13.080911 82.662328 12.943586
4586 385 2 0.5897 13.404550 83.608390 12.958554
4587 385 2 0.5897 12.732835 82.443506 12.032016
4588 386 1 -1.1794 1.691159 60.586217 30.347539
4589 386 2 0.5897 0.955555 60.457458 31.012603
4590 386 2 0.5897 2.385117 59.877898 30.476794
4591 387 1 -1.1794 19.464162 64.282085 5.649049
4592 387 2 0.5897 19.903536 64.657221 4.832824
4593 387 2 0.5897 19.315464 65.014173 6.313831
4594 388 1 -1.1794 0.423463 95.017100 12.646725
4595 388 2 0.5897 0.009523 95.345413 13.495762
4596 388 2 0.5897 1.336650 95.412151 12.546600
4597 389 1 -1.1794 5.670914 86.304811 6.696039
4598 389 2 0.5897 5.292595 85.429375 6.996848
4599 389 2 0.5897 5.421172 86.465360 5.741129
4600 390 1 -1.1794 1.302770 61.387380 6.861071
4601 390 2 0.5897 0.553815 61.181489 6.231250
4602 390 2 0.5897 2.026855 61.872383 6.370690
4603 391 1 -1.1794 10.129963 81.273096 26.247635
4604 391 2 0.5897 10.701462 81.571318 27.012130
4605 391 2 0.5897 9.168989 81.448404 26.461635
4606 392 1 -1.1794 11.802277 65.255913 16.714322
4607 392 2 0.5897 11.104632 64.609376 17.022997
4608 392 2 0.5897 11.848994 66.025234 17.351474
4609 393 1 -1.1794 16.815959 80.298700 31.628381
4610 393 2 0.5897 16.730474 79.790082 32.485119
4611 393 2 0.5897 16.713165 81.276737 31.809704
4612 394 1 -1.1794 18.214233 60.779141 12.301471
4613 394 2 0.5897 18.963447 60.623344 11.657727
4614 394 2 0.5897 17.352509 60.850311 11.799111
4615 395 1 -1.1794 14.334722 55.713535 2.293521
4616 395 2 0.5897 15.069077 55.328384 1.734609
4617 395 2 0.5897 13.459704 55.589683 1.825542
4618 396 1 -1.1794 13.790618 98.362937 8.262317
4619 396 2 0.5897 12.877460 98.548333 7.899315
4620 396 2 0.5897 14.474111 98.550169 7.556781
4621 397 1 -1.1794 16.422275 60.299210 18.695326
4622 397 2 0.5897 15.866480 59.674521 18.146822
4623 397 2 0.5897 16.106310 61.237482 18.554573
4624 398 1 -1.1794 5.850437 53.119489 25.205032
4625 398 2 0.5897 5.305330 53.738044 24.639129
4626 398 2 0.5897 6.310062 53.642416 25.922871
4627 399 1 -1.1794 11.791997 84.596303 32.015377
4628 399 2 0.5897 11.137840 84.273043 32.699177
4629 399 2 0.5897 12.702643 84.245126 32.233086
4630 400 1 -1.1794 19.304057 83.982826 23.478258
4631 400 2 0.5897 19.904312 84.590246 22.957936
4632 400 2 0.5897 19.228874 83.104296 23.006524
4633 401 1 -1.1794 17.077046 95.790641 26.857524
4634 401 2 0.5897 17.587426 96.279034 26.149722
4635 401 2 0.5897 16.172158 95.547484 26.508162
4636 402 1 -1.1794 20.916530 59.583531 32.992469
4637 402 2 0.5897 20.479277 58.983512 33.662385
4638 402 2 0.5897 21.774310 59.171232 32.685514
4639 403 1 -1.1794 11.246440 74.969941 17.673237
4640 403 2 0.5897 11.896548 75.607623 17.260053
4641 403 2 0.5897 10.746914 74.489445 16.952405
4642 404 1 -1.1794 8.895036 85.119212 28.537231
4643 404 2 0.5897 9.833614 84.783797 28.456187
4644 404 2 0.5897 8.455717 85.100630 27.639093
4645 405 1 -1.1794 17.530829 79.921548 8.033984
4646 405 2 0.5897 17.801218 80.312002 8.914004
4647 405 2 0.5897 16.970418 80.582079 7.534346
4648 406 1 -1.1794 15.038103 75.664682 27.635834
4649 406 2 0.5897 14.761015 75.034606 28.361248
4650 406 2 0.5897 14.668803 76.574436 27.825480
4651 407 1 -1.1794 8.356904 81.269023 11.543527
4652 407 2 0.5897 8.729813 80.923173 12.404530
4653 407 2 0.5897 8.202929 82.254224 11.618831
4654 408 1 -1.1794 16.927250 98.548711 20.968456
4655 408 2 0.5897 15.952427 98.409087 21.142309
4656 408 2 0.5897 17.196666 98.038186 20.151890
4657 409 1 -1.1794 3.682041 60.811060 14.902825
4658 409 2 0.5897 4.058955 61.097803 14.022079
4659 409 2 0.5897 2.807725 60.348301 14.756447
4660 410 1 -1.1794 5.101139 90.842752 3.167900
4661 410 2 0.5897 5.643511 91.615337 2.837834
4662 410 2 0.5897 4.993378 90.173061 2.433120
4663 411 1 -1.1794 14.155840 90.424289 24.266254
4664 411 2 0.5897 13.377114 90.069188 24.783447
4665 411 2 0.5897 14.943963 90.520144 24.874263
4666 412 1 -1.1794 2.782182 94.414266 29.057656
4667 412 2 0.5897 2.671000 95.029832 29.837859
4668 412 2 0.5897 2.661746 93.468530 29.359448
4669 413 1 -1.1794 21.464550 56.467340 9.584069
4670 413 2 0.5897 21.751311 57.070739 8.839974
4671 413 2 0.5897 21.772504 55.534989 9.394635
4672 414 1 -1.1794 9.706138 55.879037 19.116451
4673 414 2 0.5897 10.276876 55.068980 19.250864
4674 414 2 0.5897 8.791011 55.706174 19.480676
4675 415 1 -1.1794 7.552608 50.464872 23.707863
4676 415 2 0.5897 8.280962 51.112547 23.931508
4677 415 2 0.5897 7.469473 50.386784 22.714389
4678 416 1 -1.1794 11.213395 64.215924 22.103506
4679 416 2 0.5897 11.085477 63.699615 22.950302
4680 416 2 0.5897 10.949249 63.648186 21.323826
4681 417 1 -1.1794 14.113774 82.268864 20.883566
4682 417 2 0.5897 14.756425 81.761315 20.309637
4683 417 2 0.5897 13.493613 82.796636 20.303173
4684 418 1 -1.1794 2.172450 48.702604 8.302847
4685 418 2 0.5897 2.525573 48.647037 7.368921
4686 418 2 0.5897 2.918945 48.551952 8.950959
4687 419 1 -1.1794 3.102726 91.194458 18.341976
4688 419 2 0.5897 3.950013 91.293137 17.820088
4689 419 2 0.5897 3.212017 90.468316 19.020779
4690 420 1 -1.1794 6.209742 95.952259 7.492071
4691 420 2 0.5897 7.061002 96.306053 7.879609
4692 420 2 0.5897 6.181324 94.958670 7.601490
4693 421 1 -1.1794 2.277022 61.695695 19.676275
4694 421 2 0.5897 3.168539 61.863269 20.097127
4695 421 2 0.5897 2.168727 60.716705 19.503500
4696 422 1 -1.1794 9.952165 98.544126 0.233883
4697 422 2 0.5897 9.435346 98.419012 1.080786
4698 422 2 0.5897 10.424678 97.693579 0.003012
4699 423 1 -1.1794 10.073012 92.624841 5.279589
4700 423 2 0.5897 9.407883 92.021782 4.839221
4701 423 2 0.5897 10.991318 92.405238 4.950215
4702 424 1 -1.1794 1.463042 63.526991 23.900316
4703 424 2 0.5897 1.817617 64.228926 23.282607
4704 424 2 0.5897 0.626266 63.136796 23.516188
4705 425 1 -1.1794 17.285075 84.580724 21.562792
4706 425 2 0.5897 16.620127 84.738802 20.832822
4707 425 2 0.5897 18.099283 85.137506 21.398295
4708 426 1 -1.1794 13.489984 77.123232 2.552421
4709 426 2 0.5897 13.649815 78.098954 2.402689
4710 426 2 0.5897 13.141622 76.709607 1.711256
4711 427 1 -1.1794 7.407294 82.349625 17.190051
4712 427 2 0.5897 7.699872 81.579113 16.623740
4713 427 2 0.5897 7.102759 83.098852 16.601902
4714 428 1 -1.1794 3.067094 60.124925 3.375343
4715 428 2 0.5897 2.599506 59.784074 4.190930
4716 428 2 0.5897 3.968758 59.698202 3.305266
4717 429 1 -1.1794 10.577673 74.324923 3.874505
4718 429 2 0.5897 11.035509 74.034819 4.714877
4719 429 2 0.5897 9.841314 73.683979 3.657788
4720 430 1 -1.1794 9.906449 96.617230 2.213502
4721 430 2 0.5897 10.728712 96.298001 1.742358
4722 430 2 0.5897 9.096294 96.322207 1.706935
4723 431 1 -1.1794 1.182967 89.555772 21.273072
4724 431 2 0.5897 1.900492 89.642050 20.581903
4725 431 2 0.5897 1.178268 90.370994 21.852202
4726 432 1 -1.1794 21.116706 50.509918 14.767878
4727 432 2 0.5897 21.774941 50.085292 15.389504
4728 432 2 0.5897 20.771934 51.355896 15.174637
4729 433 1 -1.1794 17.471983 78.150789 9.389560
4730 433 2 0.5897 16.512163 78.374162 9.219708
4731 433 2 0.5897 17.647768 78.162446 10.373919
4732 434 1 -1.1794 13.254299 80.988852 4.736408
4733 434 2 0.5897 13.214755 80.043085 4.413980
4734 434 2 0.5897 13.246029 81.609042 3.952000
4735 435 1 -1.1794 1.124397 64.644509 14.227345
4736 435 2 0.5897 0.634481 65.042331 15.003051
4737 435 2 0.5897 0.477508 64.162881 13.636101
4738 436 1 -1.1794 3.950769 91.077656 29.854940
4739 436 2 0.5897 2.989861 91.140074 30.124680
4740 436 2 0.5897 4.255555 91.961650 29.500455
4741 437 1 -1.1794 0.724084 57.258788 30.689727
4742 437 2 0.5897 0.039188 57.983218 30.767957
4743 437 2 0.5897 0.672420 56.663267 31.491403
4744 438 1 -1.1794 6.286383 75.722978 4.802538
4745 438 2 0.5897 6.116436 76.622587 4.400266
4746 438 2 0.5897 6.879638 75.821793 5.601465
4747 439 1 -1.1794 2.974955 76.848669 33.678661
4748 439 2 0.5897 2.274220 77.440583 33.280405
4749 439 2 0.5897 3.507528 76.423597 32.946759
4750 440 1 -1.1794 8.052639 63.504785 12.740510
4751 440 2 0.5897 7.911983 62.691066 12.176526
4752 440 2 0.5897 7.275793 64.124820 12.630660
4753 441 1 -1.1794 16.092243 94.476703 11.634926
4754 441 2 0.5897 15.689724 95.380142 11.782493
4755 441 2 0.5897 16.924271 94.388997 12.182682
4756 442 1 -1.1794 15.315375 75.086079 19.121769
4757 442 2 0.5897 14.592333 74.498384 19.484846
4758 442 2 0.5897 15.008650 75.501557 18.265441
4759 443 1 -1.1794 13.675410 66.824349 23.837746
4760 443 2 0.5897 12.935321 66.859939 23.166180
4761 443 2 0.5897 14.423620 66.265662 23.479906
4762 444 1 -1.1794 15.745497 55.779485 13.093231
4763 444 2 0.5897 15.801518 56.743032 13.354837
4764 444 2 0.5897 14.929387 55.370233 13.501247
4765 445 1 -1.1794 13.948949 71.737125 18.070099
4766 445 2 0.5897 13.762815 70.811080 18.398421
4767 445 2 0.5897 13.086186 72.229056 17.953287
4768 446 1 -1.1794 6.268575 76.601102 12.443454
4769 446 2 0.5897 6.937351 76.864517 13.138690
4770 446 2 0.5897 6.277557 75.607384 12.331896
4771 447 1 -1.1794 10.310442 54.389982 16.547913
4772 447 2 0.5897 10.895736 53.792782 17.096351
4773 447 2 0.5897 10.104702 55.221029 17.064664
4774 448 1 -1.1794 18.169085 83.763476 30.407133
4775 448 2 0.5897 18.455312 84.594444 29.930094
4776 448 2 0.5897 17.930787 83.060034 29.737519
4777 449 1 -1.1794 10.732027 71.894308 10.008461
4778 449 2 0.5897 11.361977 72.132364 9.269210
4779 449 2 0.5897 9.818665 71.740484 9.631487
4780 450 1 -1.1794 6.106734 63.833895 2.330134
4781 450 2 0.5897 6.552804 63.119285 2.868980
4782 450 2 0.5897 5.621424 64.458632 2.941835
4783 451 1 -1.1794 7.309257 86.694812 16.942735
4784 451 2 0.5897 7.747044 87.592854 16.985898
4785 451 2 0.5897 7.132906 86.455516 15.987938
4786 452 1 -1.1794 20.713058 75.235906 19.121128
4787 452 2 0.5897 21.161062 75.235356 20.015159
4788 452 2 0.5897 20.492627 76.175523 18.859344
4789 453 1 -1.1794 18.506860 59.577230 24.924725
4790 453 2 0.5897 18.957060 59.274584 24.084651
4791 453 2 0.5897 17.636731 60.014606 24.697615
4792 454 1 -1.1794 9.568103 55.234698 28.022474
4793 454 2 0.5897 10.169258 55.945101 27.656495
4794 454 2 0.5897 9.110334 54.764238 27.268077
4795 455 1 -1.1794 8.778109 82.371160 28.752716
4796 455 2 0.5897 8.497522 82.913809 27.961007
4797 455 2 0.5897 8.007593 81.816325 29.066504
4798 456 1 -1.1794 18.486066 49.825723 15.841994
4799 456 2 0.5897 18.463327 48.887945 16.188484
4800 456 2 0.5897 17.837382 50.386848 16.356140
4801 457 1 -1.1794 16.523930 73.991401 17.110075
4802 457 2 0.5897 17.517912 73.912772 17.186339
4803 457 2 0.5897 16.225465 73.609196 16.235524
4804 458 1 -1.1794 21.749731 88.680838 18.986501
4805 458 2 0.5897 21.774055 89.119071 19.885033
4806 458 2 0.5897 21.775000 87.687544 19.099315
4807 459 1 -1.1794 4.297056 95.872751 6.412495
4808 459 2 0.5897 4.371748 94.939425 6.061318
4809 459 2 0.5897 4.365039 96.520750 5.653895
4810 460 1 -1.1794 4.667472 58.171156 5.814799
4811 460 2 0.5897 4.637348 57.778780 4.895487
4812 460 2 0.5897 3.913402 58.818507 5.925778
4813 461 1 -1.1794 21.759982 75.381236 7.039763
4814 461 2 0.5897 20.858373 75.109489 7.376296
4815 461 2 0.5897 21.773656 76.368849 6.883453
4816 462 1 -1.1794 16.105293 63.569370 12.952478
4817 462 2 0.5897 16.215024 63.936088 12.028640
4818 462 2 0.5897 16.903382 63.014724 13.187897
4819 463 1 -1.1794 3.138421 84.363977 5.514479
4820 463 2 0.5897 3.014185 85.250762 5.959653
4821 463 2 0.5897 3.451900 83.694134 6.187563
4822 464 1 -1.1794 19.060681 97.649137 5.450404
4823 464 2 0.5897 19.475245 98.549306 5.583939
4824 464 2 0.5897 19.776715 96.951218 5.436100
4825 465 1 -1.1794 15.082560 76.462462 21.873395
4826 465 2 0.5897 14.497590 75.885118 21.303760
4827 465 2 0.5897 15.242835 76.011222 22.751287
4828 466 1 -1.1794 7.720849 64.252821 10.080416
4829 466 2 0.5897 6.922367 64.369731 9.489859
4830 466 2 0.5897 8.551189 64.258139 9.523184
4831 467 1 -1.1794 13.886729 70.747341 2.562336
4832 467 2 0.5897 13.735743 70.359603 1.653016
4833 467 2 0.5897 13.930044 71.744239 2.496614
4834 468 1 -1.1794 12.341993 83.547934 3.443439
4835 468 2 0.5897 12.844054 83.801904 4.270139
4836 468 2 0.5897 12.147315 84.368681 2.906341
4837 469 1 -1.1794 16.486711 65.800609 18.528744
4838 469 2 0.5897 17.433102 65.557614 18.315908
4839 469 2 0.5897 15.907847 64.989279 18.447136
4840 470 1 -1.1794 21.166165 56.001555 3.321679
4841 470 2 0.5897 21.355974 55.163559 2.810078
4842 470 2 0.5897 20.343935 56.436896 2.955051
4843 471 1 -1.1794 11.241920 81.215545 3.089020
4844 471 2 0.5897 10.627024 81.172398 2.301593
4845 471 2 0.5897 11.199111 80.352898 3.593011
4846 472 1 -1.1794 10.511005 60.056390 0.930596
4847 472 2 0.5897 9.542306 60.028410 1.177250
4848 472 2 0.5897 10.607988 60.410052 0.000264
4849 473 1 -1.1794 7.342626 92.906200 11.936466
4850 473 2 0.5897 7.009001 93.790097 11.608718
4851 473 2 0.5897 8.130354 93.048660 12.535790
4852 474 1 -1.1794 18.622533 70.586131 4.788939
4853 474 2 0.5897 17.889510 70.274944 4.184092
4854 474 2 0.5897 19.391081 70.914330 4.239740
4855 475 1 -1.1794 12.018586 97.722937 17.654602
4856 475 2 0.5897 12.709925 97.220336 17.135523
4857 475 2 0.5897 11.294808 97.095026 17.940737
4858 476 1 -1.1794 3.908496 72.086291 7.452634
4859 476 2 0.5897 4.877406 72.215336 7.241541
4860 476 2 0.5897 3.818707 71.590853 8.316625
4861 477 1 -1.1794 19.165441 74.570915 29.480848
4862 477 2 0.5897 19.120139 73.597171 29.257755
4863 477 2 0.5897 18.276184 74.994266 29.307658
4864 478 1 -1.1794 4.301990 76.770275 17.783581
4865 478 2 0.5897 4.650459 77.707578 17.777753
4866 478 2 0.5897 3.989976 76.524960 16.865721
4867 479 1 -1.1794 3.886224 93.569010 19.597381
4868 479 2 0.5897 3.565871 93.440278 20.535891
4869 479 2 0.5897 4.823466 93.230043 19.515655
4870 480 1 -1.1794 6.334679 61.295045 17.102749
4871 480 2 0.5897 6.580478 60.889683 16.222258
4872 480 2 0.5897 5.914693 60.598641 17.684670
4873 481 1 -1.1794 5.466700 80.931521 24.615349
4874 481 2 0.5897 4.734415 80.324172 24.923383
4875 481 2 0.5897 6.244358 80.385047 24.304521
4876 482 1 -1.1794 16.792582 79.517986 26.843468
4877 482 2 0.5897 17.514234 79.959968 26.310673
4878 482 2 0.5897 16.482845 78.695178 26.366971
4879 483 1 -1.1794 7.693610 67.010088 8.272934
4880 483 2 0.5897 7.672058 66.392687 9.059288
4881 483 2 0.5897 7.081881 66.664805 7.561199
4882 484 1 -1.1794 9.582516 81.432057 33.659574
4883 484 2 0.5897 10.253445 81.661827 32.954549
4884 484 2 0.5897 8.691658 81.274888 33.233346
4885 485 1 -1.1794 15.577367 90.243175 29.774133
4886 485 2 0.5897 16.405869 90.087899 29.236105
4887 485 2 0.5897 15.025737 90.954677 29.338852
4888 486 1 -1.1794 10.466218 71.352660 5.605556
4889 486 2 0.5897 10.172592 71.796507 4.758926
4890 486 2 0.5897 10.033701 71.804190 6.385971
4891 487 1 -1.1794 3.655169 55.549130 15.140914
4892 487 2 0.5897 4.184273 56.182261 15.705887
4893 487 2 0.5897 3.186952 54.889414 15.728747
4894 488 1 -1.1794 5.953143 75.258491 32.324429
4895 488 2 0.5897 5.658975 75.997968 32.929936
4896 488 2 0.5897 6.345260 74.517433 32.869476
4897 489 1 -1.1794 12.881617 87.348023 15.803153
4898 489 2 0.5897 12.617642 88.312541 15.798547
4899 489 2 0.5897 13.037743 87.040695 14.864444
4900 490 1 -1.1794 5.427593 69.390169 2.848443
4901 490 2 0.5897 5.096221 68.569953 3.314746
4902 490 2 0.5897 5.167282 70.200321 3.373697
4903 491 1 -1.1794 3.921057 73.806805 1.884001
4904 491 2 0.5897 3.826706 73.691508 0.895161
4905 491 2 0.5897 3.149754 73.368761 2.345746
4906 492 1 -1.1794 13.455040 64.418459 22.837111
4907 492 2 0.5897 13.261223 63.476213 22.563967
4908 492 2 0.5897 13.345256 65.023406 22.048450
4909 493 1 -1.1794 6.921050 93.355648 25.703171
4910 493 2 0.5897 7.379958 94.199685 25.425675
4911 493 2 0.5897 5.980445 93.360550 25.363705
4912 494 1 -1.1794 7.518488 56.170523 32.308502
4913 494 2 0.5897 6.858359 56.899305 32.490451
4914 494 2 0.5897 8.103134 56.042718 33.109661
4915 495 1 -1.1794 1.753079 88.688993 10.567953
4916 495 2 0.5897 0.889498 88.884923 11.032539
4917 495 2 0.5897 1.628443 87.917309 9.944279
4918 496 1 -1.1794 0.973042 72.272766 13.962950
4919 496 2 0.5897 1.638000 71.532597 13.863047
4920 496 2 0.5897 0.985287 72.844786 13.142802
4921 497 1 -1.1794 15.303791 98.271358 18.544158
4922 497 2 0.5897 15.203902 97.563654 19.243569
4923 497 2 0.5897 14.698560 98.067321 17.774701
4924 498 1 -1.1794 21.050186 86.821637 32.787179
4925 498 2 0.5897 21.592657 85.983383 32.842453
4926 498 2 0.5897 21.090656 87.303185 33.662664
4927 499 1 -1.1794 14.664897 90.157589 8.914460
4928 499 2 0.5897 14.894978 89.228514 8.624836
4929 499 2 0.5897 15.496877 90.633474 9.199669
4930 500 1 -1.1794 8.044866 84.855980 18.602073
4931 500 2 0.5897 8.503581 84.092380 19.056490
4932 500 2 0.5897 7.356804 85.244043 19.215244
4933 501 1 -1.1794 18.005956 80.598525 13.145653
4934 501 2 0.5897 18.851976 80.322881 12.689287
4935 501 2 0.5897 17.245339 80.051160 12.796578
4936 502 1 -1.1794 15.282757 81.227378 9.896360
4937 502 2 0.5897 15.326508 80.553496 9.158817
4938 502 2 0.5897 15.525955 82.129067 9.538851
4939 503 1 -1.1794 3.572035 92.702476 33.070398
4940 503 2 0.5897 3.325946 91.920705 33.643351
4941 503 2 0.5897 3.815286 93.478619 33.652146
4942 504 1 -1.1794 11.008123 82.255775 19.556907
4943 504 2 0.5897 10.079784 82.602676 19.423311
4944 504 2 0.5897 11.658590 82.856819 19.092536
4945 505 1 -1.1794 12.441400 64.806507 28.894844
4946 505 2 0.5897 12.079184 65.209956 29.735099
4947 505 2 0.5897 13.291949 64.321339 29.097770
4948 506 1 -1.1794 0.000591 69.007249 7.731636
4949 506 2 0.5897 0.014184 68.142053 8.232886
4950 506 2 0.5897 0.823375 69.078763 7.167799
4951 507 1 -1.1794 16.305496 90.924394 13.819209
4952 507 2 0.5897 15.884587 90.649091 14.683526
4953 507 2 0.5897 16.820350 91.771015 13.953964
4954 508 1 -1.1794 16.756468 76.976640 20.465576
4955 508 2 0.5897 16.616916 77.942188 20.245935
4956 508 2 0.5897 17.223367 76.525853 19.704789
4957 509 1 -1.1794 0.002488 81.629460 25.660194
4958 509 2 0.5897 0.830575 81.487551 26.202535
4959 509 2 0.5897 0.245165 82.046002 24.784066
4960 510 1 -1.1794 7.676471 58.375706 23.483255
4961 510 2 0.5897 6.707993 58.132439 23.536834
4962 510 2 0.5897 7.960022 58.805781 24.340363
4963 511 1 -1.1794 5.217550 69.984534 10.927113
4964 511 2 0.5897 4.771210 69.098713 11.054006
4965 511 2 0.5897 6.201226 69.848318 10.809523
4966 512 1 -1.1794 12.244201 83.774594 27.769314
4967 512 2 0.5897 12.592663 84.692814 27.581042
4968 512 2 0.5897 11.373299 83.644903 27.295279
4969 513 1 -1.1794 14.167773 56.728077 10.373415
4970 513 2 0.5897 13.938294 56.436363 9.444845
4971 513 2 0.5897 13.717263 56.126191 11.032789
4972 514 1 -1.1794 17.346414 88.566542 21.339129
4973 514 2 0.5897 16.993896 87.752786 21.801224
4974 514 2 0.5897 18.162001 88.893807 21.816324
4975 515 1 -1.1794 8.548479 52.517978 32.145878
4976 515 2 0.5897 8.469944 53.368020 32.666705
4977 515 2 0.5897 9.063758 51.846882 32.678905
4978 516 1 -1.1794 12.923212 53.112374 15.087780
4979 516 2 0.5897 12.754679 53.789186 15.804384
4980 516 2 0.5897 12.184781 53.148946 14.414443
4981 517 1 -1.1794 11.371900 62.436270 16.561679
4982 517 2 0.5897 11.849156 62.070315 15.762740
4983 517 2 0.5897 10.827229 61.712357 16.985097
4984 518 1 -1.1794 17.578898 49.364094 22.231328
4985 518 2 0.5897 17.957876 49.843437 23.022913
4986 518 2 0.5897 17.084094 48.551467 22.539235
4987 519 1 -1.1794 18.176834 98.128274 8.190915
4988 519 2 0.5897 17.422080 97.566282 8.529309
4989 519 2 0.5897 19.042601 97.652985 8.347594
4990 520 1 -1.1794 11.584442 56.445039 18.140259
4991 520 2 0.5897 12.208331 56.019180 18.795550
4992 520 2 0.5897 11.457021 57.407822 18.378615
4993 521 1 -1.1794 9.624549 75.627452 26.285239
4994 521 2 0.5897 8.805521 75.702975 25.716479
4995 521 2 0.5897 10.434994 75.597256 25.700203
4996 522 1 -1.1794 12.560920 71.917187 4.909783
4997 522 2 0.5897 12.923555 72.806071 4.629817
4998 522 2 0.5897 12.430780 71.341130 4.102800
4999 523 1 -1.1794 0.214637 59.392194 11.068689
5000 523 2 0.5897 0.613832 60.307319 11.125165
5001 523 2 0.5897 0.000271 59.064688 11.988899
5002 524 1 -1.1794 20.033875 73.993070 23.786954
5003 524 2 0.5897 19.294034 73.583378 24.320610
5004 524 2 0.5897 20.668342 74.461633 24.401691
5005 525 1 -1.1794 8.825502 88.439214 2.977810
5006 525 2 0.5897 9.087474 88.910630 2.135707
5007 525 2 0.5897 8.863880 87.450626 2.832141
5008 526 1 -1.1794 3.394510 82.506956 3.173608
5009 526 2 0.5897 2.857234 83.183581 3.677110
5010 526 2 0.5897 3.583157 81.723510 3.765743
5011 527 1 -1.1794 19.829455 84.339665 4.746812
5012 527 2 0.5897 20.409628 84.208895 5.550739
5013 527 2 0.5897 18.953292 83.879292 4.889622
5014 528 1 -1.1794 5.590187 97.867464 8.298923
5015 528 2 0.5897 5.880753 98.244486 7.419477
5016 528 2 0.5897 4.718522 97.390660 8.185523
5017 529 1 -1.1794 9.790844 53.456026 1.140158
5018 529 2 0.5897 10.164998 52.646069 1.591799
5019 529 2 0.5897 9.152885 53.916866 1.757114
5020 530 1 -1.1794 16.015121 55.852412 7.528429
5021 530 2 0.5897 15.114834 56.047482 7.139288
5022 530 2 0.5897 16.691570 55.800170 6.793795
5023 531 1 -1.1794 18.759302 90.120570 25.795916
5024 531 2 0.5897 18.070303 90.559430 25.219130
5025 531 2 0.5897 19.470021 89.718350 25.218769
5026 532 1 -1.1794 1.240823 61.509719 16.596050
5027 532 2 0.5897 1.298187 61.386556 17.586777
5028 532 2 0.5897 1.270333 62.485480 16.379211
5029 533 1 -1.1794 4.521671 58.601012 10.517967
5030 533 2 0.5897 3.811552 58.020132 10.915849
5031 533 2 0.5897 5.194527 58.833341 11.220311
5032 534 1 -1.1794 9.513834 94.894349 25.738498
5033 534 2 0.5897 9.221672 95.255464 24.852926
5034 534 2 0.5897 10.022143 94.044295 25.600551
5035 535 1 -1.1794 16.840985 52.262521 6.586570
5036 535 2 0.5897 16.507161 52.388386 5.652375
5037 535 2 0.5897 16.776854 51.296278 6.836095
5038 536 1 -1.1794 17.242520 98.363686 3.148483
5039 536 2 0.5897 18.041310 98.548332 3.721057
5040 536 2 0.5897 17.134330 97.375962 3.035811
5041 537 1 -1.1794 12.785877 55.849780 27.404550
5042 537 2 0.5897 13.689404 55.423078 27.444121
5043 537 2 0.5897 12.632631 56.221514 26.488947
5044 538 1 -1.1794 1.646866 62.098134 33.653510
5045 538 2 0.5897 1.774641 63.051545 33.380232
5046 538 2 0.5897 0.810850 61.741138 33.236820
5047 539 1 -1.1794 8.621510 50.530930 8.190838
5048 539 2 0.5897 7.760060 50.026490 8.132148
5049 539 2 0.5897 9.382828 49.885004 8.247172
5050 540 1 -1.1794 7.889913 50.947776 17.646562
5051 540 2 0.5897 8.360440 51.358990 16.865853
5052 540 2 0.5897 8.098526 49.970513 17.684484
5053 541 1 -1.1794 5.859690 83.938449 24.807769
5054 541 2 0.5897 6.321933 84.630209 24.252973
5055 541 2 0.5897 5.456617 83.246030 24.209365
5056 542 1 -1.1794 5.674749 55.946026 24.933458
5057 542 2 0.5897 6.030039 56.091746 24.010130
5058 542 2 0.5897 5.501145 56.830187 25.367186
5059 543 1 -1.1794 18.587975 64.513623 11.084036
5060 543 2 0.5897 18.048854 65.355499 11.108378
5061 543 2 0.5897 18.407906 63.978528 11.909414
5062 544 1 -1.1794 17.828807 83.200361 15.977061
5063 544 2 0.5897 18.770341 83.472539 15.778481
5064 544 2 0.5897 17.210150 83.641527 15.326956
5065 545 1 -1.1794 18.691760 68.101742 4.207301
5066 545 2 0.5897 19.426065 68.538354 4.727076
5067 545 2 0.5897 19.078312 67.398365 3.610779
5068 546 1 -1.1794 21.249010 90.961040 14.669498
5069 546 2 0.5897 21.772352 90.135926 14.456658
5070 546 2 0.5897 20.272365 90.771789 14.567770
5071 547 1 -1.1794 9.292644 53.703190 10.349760
5072 547 2 0.5897 8.620200 53.034480 10.667009
5073 547 2 0.5897 9.002314 54.621404 10.619185
5074 548 1 -1.1794 20.204947 90.969477 17.131541
5075 548 2 0.5897 20.757574 90.177818 17.392079
5076 548 2 0.5897 19.714647 91.312001 17.932966
5077 549 1 -1.1794 3.925861 80.529762 11.831048
5078 549 2 0.5897 4.597270 80.636239 12.564445
5079 549 2 0.5897 4.164751 79.734892 11.273273
5080 550 1 -1.1794 10.304622 83.268965 9.125522
5081 550 2 0.5897 10.237869 82.384096 8.664489
5082 550 2 0.5897 11.211392 83.659733 8.967192
5083 551 1 -1.1794 18.892770 89.982042 19.535006
5084 551 2 0.5897 18.266466 90.740183 19.716571
5085 551 2 0.5897 18.366732 89.150049 19.358731
5086 552 1 -1.1794 12.004710 64.361784 6.402982
5087 552 2 0.5897 11.837572 64.699061 7.329431
5088 552 2 0.5897 11.228734 63.805441 6.105754
5089 553 1 -1.1794 16.013081 82.115007 26.268366
5090 553 2 0.5897 15.906287 83.109277 26.263523
5091 553 2 0.5897 16.412653 81.818466 25.400954
5092 554 1 -1.1794 17.966805 71.842138 15.978196
5093 554 2 0.5897 17.356063 71.734052 16.762614
5094 554 2 0.5897 18.554182 71.036649 15.899616
5095 555 1 -1.1794 18.081641 49.007541 30.013484
5096 555 2 0.5897 18.787258 49.223851 30.688255
5097 555 2 0.5897 18.298583 49.458964 29.147948
5098 556 1 -1.1794 7.649600 54.577497 3.230444
5099 556 2 0.5897 7.647468 53.651791 3.608682
5100 556 2 0.5897 6.896867 54.673162 2.579107
5101 557 1 -1.1794 9.206447 82.053840 24.356358
5102 557 2 0.5897 8.686588 82.417122 23.583200
5103 557 2 0.5897 9.979121 82.657832 24.551726
5104 558 1 -1.1794 15.058268 51.419490 28.812392
5105 558 2 0.5897 14.821075 51.974054 28.014772
5106 558 2 0.5897 15.710244 50.710538 28.543479
5107 559 1 -1.1794 15.268467 50.792149 21.639618
5108 559 2 0.5897 16.128400 50.621036 21.158748
5109 559 2 0.5897 15.309990 50.384828 22.551959
5110 560 1 -1.1794 14.654292 71.138238 6.578121
5111 560 2 0.5897 14.576645 71.697344 5.752668
5112 560 2 0.5897 15.493695 70.596369 6.535931
5113 561 1 -1.1794 15.104243 57.906277 20.750436
5114 561 2 0.5897 15.548140 58.476574 21.441608
5115 561 2 0.5897 14.803921 57.048930 21.168482
5116 562 1 -1.1794 20.914388 89.060183 10.030134
5117 562 2 0.5897 20.706763 88.104140 10.237196
5118 562 2 0.5897 20.488923 89.313024 9.161197
5119 563 1 -1.1794 0.872125 56.423290 0.768918
5120 563 2 0.5897 0.935665 56.937692 1.624110
5121 563 2 0.5897 1.083592 57.027033 0.000299
5122 564 1 -1.1794 18.346902 86.414949 1.427734
5123 564 2 0.5897 19.312155 86.534966 1.659859
5124 564 2 0.5897 17.800842 86.409248 2.265461
5125 565 1 -1.1794 2.431478 67.529545 27.075901
5126 565 2 0.5897 1.770174 67.049517 27.652313
5127 565 2 0.5897 2.173755 67.425481 26.115303
5128 566 1 -1.1794 11.866656 56.278708 30.314955
5129 566 2 0.5897 11.473021 56.000140 29.438912
5130 566 2 0.5897 12.844144 56.067883 30.323252
5131 567 1 -1.1794 0.243382 92.958174 10.127805
5132 567 2 0.5897 0.197927 93.017667 11.124998
5133 567 2 0.5897 0.000002 92.032651 9.837677
5134 568 1 -1.1794 0.033922 74.023790 16.322407
5135 568 2 0.5897 0.524422 74.177999 15.464719
5136 568 2 0.5897 -0.004896 73.042780 16.512443
5137 569 1 -1.1794 19.719391 58.557731 31.457370
5138 569 2 0.5897 20.254664 57.714074 31.498903
5139 569 2 0.5897 19.230159 58.599524 30.586218
5140 570 1 -1.1794 11.029465 89.071304 3.522412
5141 570 2 0.5897 11.207085 89.310263 2.567766
5142 570 2 0.5897 11.485027 88.208169 3.740269
5143 571 1 -1.1794 16.431129 55.648897 19.246094
5144 571 2 0.5897 17.414864 55.827350 19.266599
5145 571 2 0.5897 16.141990 55.483346 18.303230
5146 572 1 -1.1794 9.138363 66.592471 0.501475
5147 572 2 0.5897 8.550960 66.320915 1.263850
5148 572 2 0.5897 10.078469 66.697128 0.825893
5149 573 1 -1.1794 12.135035 82.265685 22.022492
5150 573 2 0.5897 12.741550 82.881695 22.525156
5151 573 2 0.5897 12.253599 81.332043 22.360510
5152 574 1 -1.1794 6.977227 51.612634 20.127283
5153 574 2 0.5897 7.884269 51.898337 20.436553
5154 574 2 0.5897 6.710554 50.775547 20.604954
5155 575 1 -1.1794 16.853586 79.411137 17.509514
5156 575 2 0.5897 17.174785 80.072241 18.187580
5157 575 2 0.5897 16.298043 78.713251 17.961539
5158 576 1 -1.1794 21.147366 94.728997 11.766224
5159 576 2 0.5897 20.856644 94.441049 10.853773
5160 576 2 0.5897 21.173703 93.935073 12.373671
5161 577 1 -1.1794 21.225435 93.847735 0.532064
5162 577 2 0.5897 21.329784 93.473629 1.453560
5163 577 2 0.5897 20.384029 94.386011 0.484162
5164 578 1 -1.1794 15.803242 89.980083 22.021877
5165 578 2 0.5897 16.568347 90.234810 22.613256
5166 578 2 0.5897 15.019675 90.569596 22.218083
5167 579 1 -1.1794 4.786228 56.734879 9.241628
5168 579 2 0.5897 5.723848 57.066020 9.347528
5169 579 2 0.5897 4.791311 55.737645 9.167474
5170 580 1 -1.1794 12.596017 58.574594 15.325613
5171 580 2 0.5897 12.981783 58.139607 16.139229
5172 580 2 0.5897 11.801260 58.053625 15.014240
5173 581 1 -1.1794 18.559474 82.827030 33.229147
5174 581 2 0.5897 18.715695 83.714725 33.662267
5175 581 2 0.5897 19.438110 82.384859 33.048917
5176 582 1 -1.1794 7.908197 55.632973 16.443693
5177 582 2 0.5897 8.500424 55.931496 15.695261
5178 582 2 0.5897 8.045544 54.656193 16.608121
5179 583 1 -1.1794 20.641079 87.143254 22.691988
5180 583 2 0.5897 21.046080 86.760597 21.861598
5181 583 2 0.5897 20.011784 87.880678 22.446643
5182 584 1 -1.1794 20.859864 69.364825 15.642129
5183 584 2 0.5897 20.544283 68.447277 15.884028
5184 584 2 0.5897 21.541687 69.668978 16.307417
5185 585 1 -1.1794 10.898431 77.421137 24.548565
5186 585 2 0.5897 9.927527 77.648055 24.625083
5187 585 2 0.5897 11.073286 77.000622 23.658288
5188 586 1 -1.1794 8.151831 55.436906 7.573879
5189 586 2 0.5897 8.787112 55.558260 6.811192
5190 586 2 0.5897 8.664360 55.398367 8.431684
5191 587 1 -1.1794 2.933591 59.848572 27.164399
5192 587 2 0.5897 3.641294 59.142286 27.146660
5193 587 2 0.5897 2.660173 60.022769 28.110390
5194 588 1 -1.1794 16.088098 65.944723 15.968558
5195 588 2 0.5897 15.954262 64.955108 15.916112
5196 588 2 0.5897 15.248295 66.409939 15.688730
5197 589 1 -1.1794 19.127467 81.387840 25.675443
5198 589 2 0.5897 19.372440 80.764318 24.933008
5199 589 2 0.5897 18.601710 82.154543 25.307007
5200 590 1 -1.1794 4.137114 75.438047 21.904944
5201 590 2 0.5897 3.459879 76.173411 21.929307
5202 590 2 0.5897 4.809928 75.580361 22.630938
5203 591 1 -1.1794 9.766222 68.629931 21.789392
5204 591 2 0.5897 9.452102 69.357334 22.399485
5205 591 2 0.5897 10.763056 68.662879 21.717018
5206 592 1 -1.1794 13.955828 62.343276 17.891394
5207 592 2 0.5897 13.493545 62.800708 17.131756
5208 592 2 0.5897 13.306391 61.751691 18.369158
5209 593 1 -1.1794 2.909171 98.394614 6.466900
5210 593 2 0.5897 3.891196 98.569154 6.538753
5211 593 2 0.5897 2.480697 98.527792 7.360585
5212 594 1 -1.1794 5.071175 55.667012 19.095186
5213 594 2 0.5897 5.388794 55.763451 20.038488
5214 594 2 0.5897 4.629305 56.515475 18.803878
5215 595 1 -1.1794 6.775562 53.663410 19.245210
5216 595 2 0.5897 6.784034 53.489511 18.260483
5217 595 2 0.5897 5.871968 53.445974 19.614317
5218 596 1 -1.1794 1.506349 66.916440 32.065991
5219 596 2 0.5897 0.774269 66.301287 31.773337
5220 596 2 0.5897 1.847735 66.626629 32.960119
5221 597 1 -1.1794 2.583494 93.702849 5.731049
5222 597 2 0.5897 1.841885 93.268579 6.242346
5223 597 2 0.5897 3.242229 93.007409 5.443940
5224 598 1 -1.1794 9.520833 57.859449 32.796840
5225 598 2 0.5897 8.584285 58.177077 32.945129
5226 598 2 0.5897 10.022759 57.886430 33.661330
5227 599 1 -1.1794 12.842656 79.830049 24.889387
5228 599 2 0.5897 13.487077 80.560006 24.661608
5229 599 2 0.5897 11.957237 80.023170 24.466613
5230 600 1 -1.1794 18.233681 86.517634 10.989211
5231 600 2 0.5897 19.144868 86.858565 11.220522
5232 600 2 0.5897 17.594384 86.751615 11.721707
5233 601 1 -1.1794 9.330298 68.683270 28.324169
5234 601 2 0.5897 9.222768 69.453165 27.695123
5235 601 2 0.5897 8.944603 68.924157 29.214794
5236 602 1 -1.1794 10.657372 64.574852 14.216551
5237 602 2 0.5897 9.934775 65.196417 14.519055
5238 602 2 0.5897 10.495730 64.313870 13.264836
5239 603 1 -1.1794 8.929701 51.414439 5.882056
5240 603 2 0.5897 9.108755 50.488522 5.549464
5241 603 2 0.5897 8.780376 52.024937 5.104242
5242 604 1 -1.1794 11.242289 89.303373 23.069629
5243 604 2 0.5897 12.067481 88.898205 23.463198
5244 604 2 0.5897 11.209341 90.277233 23.294374
5245 605 1 -1.1794 13.816392 85.803028 1.279038
5246 605 2 0.5897 13.243008 85.090964 0.873827
5247 605 2 0.5897 13.599212 85.892881 2.251025
5248 606 1 -1.1794 4.675796 87.229436 19.640203
5249 606 2 0.5897 3.794248 87.555387 19.981714
5250 606 2 0.5897 5.162344 86.754469 20.373468
5251 607 1 -1.1794 11.723905 51.551538 10.309189
5252 607 2 0.5897 11.342665 50.751118 9.846604
5253 607 2 0.5897 12.663545 51.357524 10.591033
5254 608 1 -1.1794 19.448784 62.990815 22.301557
5255 608 2 0.5897 20.411772 63.198801 22.473012
5256 608 2 0.5897 18.893814 63.800513 22.492337
5257 609 1 -1.1794 1.302980 56.316575 17.615281
5258 609 2 0.5897 2.228164 56.254660 17.240847
5259 609 2 0.5897 0.641684 56.350212 16.865910
5260 610 1 -1.1794 16.633157 54.029900 33.033493
5261 610 2 0.5897 17.186420 54.576035 33.662489
5262 610 2 0.5897 16.982192 53.093086 33.009972
5263 611 1 -1.1794 6.609101 89.336976 11.917487
5264 611 2 0.5897 7.267852 89.190474 11.179528
5265 611 2 0.5897 6.156105 90.219271 11.789626
5266 612 1 -1.1794 14.270809 71.421957 26.556383
5267 612 2 0.5897 14.440791 72.211661 27.145851
5268 612 2 0.5897 14.135749 70.607619 27.120841
5269 613 1 -1.1794 14.900506 71.995018 14.258417
5270 613 2 0.5897 13.908863 71.875674 14.307422
5271 613 2 0.5897 15.109428 72.891251 13.867113
5272 614 1 -1.1794 14.502943 88.001406 4.466685
5273 614 2 0.5897 14.444466 87.246003 3.814038
5274 614 2 0.5897 13.750794 87.934464 5.122269
5275 615 1 -1.1794 9.997214 87.216660 6.083113
5276 615 2 0.5897 10.695997 86.502890 6.035832
5277 615 2 0.5897 9.466377 87.108268 6.923627
5278 616 1 -1.1794 9.137572 83.333659 31.320280
5279 616 2 0.5897 9.577470 83.534355 30.444945
5280 616 2 0.5897 8.428347 84.015115 31.500887
5281 617 1 -1.1794 16.735845 73.004460 19.065539
5282 617 2 0.5897 15.967570 72.720618 19.639287
5283 617 2 0.5897 17.479015 73.338781 19.645132
5284 618 1 -1.1794 18.263522 59.488943 28.491270
5285 618 2 0.5897 17.595132 59.442346 27.748920
5286 618 2 0.5897 18.895753 58.717499 28.419448
5287 619 1 -1.1794 0.328871 65.650379 24.923525
5288 619 2 0.5897 0.000008 65.158923 24.117100
5289 619 2 0.5897 0.738473 66.517842 24.641155
5290 620 1 -1.1794 9.348992 66.150280 5.402932
5291 620 2 0.5897 10.094433 65.752760 5.937999
5292 620 2 0.5897 8.694369 66.589424 6.018254
5293 621 1 -1.1794 10.876065 84.501286 14.777409
5294 621 2 0.5897 11.595897 84.575407 14.087229
5295 621 2 0.5897 10.079794 85.031875 14.486846
5296 622 1 -1.1794 16.970923 97.562490 6.281767
5297 622 2 0.5897 16.159986 97.112562 6.655861
5298 622 2 0.5897 16.910354 98.547378 6.444018
5299 623 1 -1.1794 18.876840 52.328991 4.776755
5300 623 2 0.5897 19.225587 52.628001 3.888517
5301 623 2 0.5897 18.271970 51.542840 4.649874
5302 624 1 -1.1794 13.862982 57.647519 32.721037
5303 624 2 0.5897 14.055141 57.931070 33.660545
5304 624 2 0.5897 13.281796 58.330725 32.278937
5305 625 1 -1.1794 0.916630 59.041531 22.425490
5306 625 2 0.5897 1.476932 59.821502 22.146729
5307 625 2 0.5897 0.811270 59.045285 23.419917
5308 626 1 -1.1794 12.119027 74.024351 0.744425
5309 626 2 0.5897 11.643848 73.555325 -0.000034
5310 626 2 0.5897 12.840827 74.603994 0.366247
5311 627 1 -1.1794 19.828061 85.840611 28.145034
5312 627 2 0.5897 19.930368 84.846235 28.117680
5313 627 2 0.5897 20.636604 86.247298 28.570315
5314 628 1 -1.1794 17.166007 91.503465 30.863911
5315 628 2 0.5897 18.130518 91.295541 31.026656
5316 628 2 0.5897 16.870241 92.224752 31.490225
5317 629 1 -1.1794 7.400325 76.123122 28.480585
5318 629 2 0.5897 7.974151 76.505707 27.756464
5319 629 2 0.5897 7.970269 75.886255 29.267387
5320 630 1 -1.1794 6.914294 54.840311 22.419342
5321 630 2 0.5897 6.885293 54.835404 21.419775
5322 630 2 0.5897 7.721430 54.339436 22.731841
5323 631 1 -1.1794 19.001902 93.516761 15.547232
5324 631 2 0.5897 19.830440 92.974417 15.407992
5325 631 2 0.5897 18.397674 93.411023 14.757468
5326 632 1 -1.1794 9.333381 65.900988 22.129372
5327 632 2 0.5897 8.883792 65.025448 21.952459
5328 632 2 0.5897 9.020280 66.577205 21.462515
5329 633 1 -1.1794 12.388657 66.377617 19.795849
5330 633 2 0.5897 12.692034 67.097312 20.420350
5331 633 2 0.5897 11.825584 65.718858 20.294833
5332 634 1 -1.1794 16.140787 93.298578 29.475718
5333 634 2 0.5897 16.755057 92.702069 28.959144
5334 634 2 0.5897 15.228033 93.270341 29.068186
5335 635 1 -1.1794 16.262850 50.199549 30.829741
5336 635 2 0.5897 16.283610 50.638429 31.728047
5337 635 2 0.5897 15.742947 49.347253 30.887111
5338 636 1 -1.1794 12.301098 71.332527 23.610737
5339 636 2 0.5897 12.143611 70.691779 22.859312
5340 636 2 0.5897 12.625572 70.831838 24.413250
5341 637 1 -1.1794 17.408229 64.940585 5.217541
5342 637 2 0.5897 17.501516 64.664308 4.261002
5343 637 2 0.5897 17.084766 65.885807 5.261444
5344 638 1 -1.1794 7.021204 96.564194 20.311303
5345 638 2 0.5897 7.258002 97.533865 20.371844
5346 638 2 0.5897 7.729351 96.019476 20.760535
5347 639 1 -1.1794 20.840125 83.573752 20.202732
5348 639 2 0.5897 19.840189 83.581967 20.210545
5349 639 2 0.5897 21.184105 84.260475 20.843114
5350 640 1 -1.1794 2.859023 83.706934 25.616161
5351 640 2 0.5897 3.340733 83.432345 24.783961
5352 640 2 0.5897 1.873192 83.613427 25.476898
5353 641 1 -1.1794 17.939983 68.295094 14.952032
5354 641 2 0.5897 17.648932 68.279803 13.995447
5355 641 2 0.5897 18.206493 67.373465 15.234117
5356 642 1 -1.1794 5.321782 67.719484 32.713395
5357 642 2 0.5897 5.134499 67.461406 33.661193
5358 642 2 0.5897 6.308899 67.708457 32.553773
5359 643 1 -1.1794 20.299910 75.443804 27.477875
5360 643 2 0.5897 20.901659 75.192955 28.236145
5361 643 2 0.5897 19.557856 76.021309 27.818234
5362 644 1 -1.1794 12.467556 59.708706 7.872306
5363 644 2 0.5897 12.330459 59.925955 8.838746
5364 644 2 0.5897 12.633280 58.727705 7.771450
5365 645 1 -1.1794 7.695757 95.581755 12.962837
5366 645 2 0.5897 8.230340 96.117025 13.616830
5367 645 2 0.5897 7.039462 95.011241 13.456588
5368 646 1 -1.1794 7.937300 61.092417 31.430104
5369 646 2 0.5897 7.560332 60.408868 32.055129
5370 646 2 0.5897 8.265611 61.878231 31.954231
5371 647 1 -1.1794 6.433380 92.172205 33.332574
5372 647 2 0.5897 5.604262 91.712288 33.650443
5373 647 2 0.5897 6.358651 93.153658 33.509110
5374 648 1 -1.1794 7.552131 79.026567 28.595643
5375 648 2 0.5897 8.271419 78.384878 28.861838
5376 648 2 0.5897 7.189046 79.477297 29.411125
5377 649 1 -1.1794 20.381806 95.575687 28.324884
5378 649 2 0.5897 19.542085 96.072020 28.104606
5379 649 2 0.5897 21.034031 96.199031 28.756213
5380 650 1 -1.1794 3.912164 68.604975 25.467080
5381 650 2 0.5897 4.082182 69.568678 25.672918
5382 650 2 0.5897 4.768486 68.166217 25.194676
5383 651 1 -1.1794 19.540969 86.784683 19.401934
5384 651 2 0.5897 19.246591 87.181558 20.271320
5385 651 2 0.5897 19.958722 85.891388 19.567787
5386 652 1 -1.1794 2.333890 76.863787 31.159767
5387 652 2 0.5897 2.028970 77.815604 31.127090
5388 652 2 0.5897 2.313440 76.475422 30.238488
5389 653 1 -1.1794 11.174190 73.138434 11.813473
5390 653 2 0.5897 10.352804 72.618938 12.048950
5391 653 2 0.5897 11.950869 72.514112 11.729844
5392 654 1 -1.1794 0.477452 91.235821 32.899617
5393 654 2 0.5897 0.009569 91.141559 32.020867
5394 654 2 0.5897 1.332336 91.738151 32.769860
5395 655 1 -1.1794 21.043286 72.137100 17.352649
5396 655 2 0.5897 21.766111 72.328938 16.688780
5397 655 2 0.5897 20.416522 71.455357 16.975297
5398 656 1 -1.1794 0.852234 69.893947 10.183044
5399 656 2 0.5897 1.529631 69.513884 9.553215
5400 656 2 0.5897 0.115298 70.323037 9.660734
5401 657 1 -1.1794 9.182211 67.868556 13.976431
5402 657 2 0.5897 9.982103 68.344826 14.341588
5403 657 2 0.5897 8.553936 68.533524 13.572590
5404 658 1 -1.1794 16.933912 53.048412 23.584455
5405 658 2 0.5897 16.403421 52.741403 24.374596
5406 658 2 0.5897 16.355023 53.608024 22.991393
5407 659 1 -1.1794 2.093080 91.947554 8.648060
5408 659 2 0.5897 2.582405 91.878049 7.778733
5409 659 2 0.5897 2.404410 92.759526 9.141796
5410 660 1 -1.1794 8.106628 60.586881 3.244554
5411 660 2 0.5897 7.739480 60.851415 2.352800
5412 660 2 0.5897 7.917144 59.618899 3.409194
5413 661 1 -1.1794 12.867267 73.014997 15.908853
5414 661 2 0.5897 12.032188 72.498137 15.720441
5415 661 2 0.5897 12.655765 73.992022 15.935115
5416 662 1 -1.1794 17.979901 84.237528 26.601744
5417 662 2 0.5897 18.651459 84.927204 26.330901
5418 662 2 0.5897 17.880818 84.241492 27.596815
5419 663 1 -1.1794 2.914957 65.965006 14.358613
5420 663 2 0.5897 3.890095 66.138116 14.220274
5421 663 2 0.5897 2.666685 66.190874 15.300603
5422 664 1 -1.1794 3.674428 89.389252 11.591625
5423 664 2 0.5897 3.985754 90.141040 12.172909
5424 664 2 0.5897 3.353521 88.635435 12.165018
5425 665 1 -1.1794 13.475678 94.657464 28.694289
5426 665 2 0.5897 12.978431 94.247297 29.458820
5427 665 2 0.5897 13.387019 94.073503 27.887363
5428 666 1 -1.1794 7.405444 96.372095 5.674642
5429 666 2 0.5897 7.664864 97.148620 5.100437
5430 666 2 0.5897 7.178498 95.589761 5.094600
5431 667 1 -1.1794 7.631499 65.793896 33.657783
5432 667 2 0.5897 8.465981 66.344932 33.658431
5433 667 2 0.5897 7.865557 64.834744 33.498901
5434 668 1 -1.1794 19.079638 68.284792 6.884831
5435 668 2 0.5897 19.632429 68.861585 7.486273
5436 668 2 0.5897 18.308994 67.908901 7.399431
5437 669 1 -1.1794 13.809602 90.581778 0.351019
5438 669 2 0.5897 12.987645 91.037911 0.009949
5439 669 2 0.5897 13.610881 89.615531 0.514961
5440 670 1 -1.1794 4.542018 98.548669 2.684822
5441 670 2 0.5897 4.003384 98.394102 3.513062
5442 670 2 0.5897 5.515383 98.540907 2.913951
5443 671 1 -1.1794 6.508148 98.348308 23.604707
5444 671 2 0.5897 7.178603 98.549906 24.318743
5445 671 2 0.5897 5.589257 98.549992 23.943769
5446 672 1 -1.1794 6.151354 49.191483 25.439530
5447 672 2 0.5897 6.325580 49.081772 26.418105
5448 672 2 0.5897 6.723208 48.552196 24.925433
5449 673 1 -1.1794 20.055456 62.289002 24.445710
5450 673 2 0.5897 19.667266 61.369720 24.380676
5451 673 2 0.5897 20.303652 62.479584 25.395487
5452 674 1 -1.1794 7.646510 65.626009 26.415447
5453 674 2 0.5897 7.757434 66.442858 26.981533
5454 674 2 0.5897 7.610402 64.816634 27.001629
5455 675 1 -1.1794 4.511101 58.009546 13.210846
5456 675 2 0.5897 4.769518 57.483660 14.021195
5457 675 2 0.5897 4.176683 58.909595 13.490269
5458 676 1 -1.1794 12.243259 56.619337 22.184716
5459 676 2 0.5897 12.084381 56.950738 23.114733
5460 676 2 0.5897 11.550249 55.937362 21.950946
5461 677 1 -1.1794 15.720219 82.636439 4.151684
5462 677 2 0.5897 15.124368 83.289028 3.683614
5463 677 2 0.5897 16.126366 82.015590 3.481168
5464 678 1 -1.1794 5.719629 88.379442 33.598939
5465 678 2 0.5897 6.326347 87.851799 33.004392
5466 678 2 0.5897 4.929768 88.695277 33.073233
5467 679 1 -1.1794 19.481273 84.197540 10.510973
5468 679 2 0.5897 18.502544 84.027553 10.625835
5469 679 2 0.5897 19.942561 84.098167 11.392641
5470 680 1 -1.1794 8.422292 63.101910 22.966917
5471 680 2 0.5897 9.155381 62.879808 23.609763
5472 680 2 0.5897 7.721327 63.640874 23.433999
5473 681 1 -1.1794 19.627683 61.751219 0.730520
5474 681 2 0.5897 19.112870 62.201535 0.001011
5475 681 2 0.5897 19.733481 62.379982 1.500886
5476 682 1 -1.1794 16.265706 76.783676 32.426280
5477 682 2 0.5897 16.855097 77.579349 32.286555
5478 682 2 0.5897 16.144420 76.302183 31.558263
5479 683 1 -1.1794 16.469572 77.895464 23.865408
5480 683 2 0.5897 17.006548 78.575891 23.366733
5481 683 2 0.5897 17.004551 77.056505 23.965137
5482 684 1 -1.1794 16.872054 84.495319 24.464718
5483 684 2 0.5897 17.099803 83.609252 24.060964
5484 684 2 0.5897 17.499229 85.191680 24.115815
5485 685 1 -1.1794 10.349885 67.167582 19.564031
5486 685 2 0.5897 10.204256 66.655139 18.717749
5487 685 2 0.5897 9.601645 67.818446 19.692533
5488 686 1 -1.1794 3.319420 88.314080 22.237572
5489 686 2 0.5897 3.907643 87.505491 22.224300
5490 686 2 0.5897 2.364904 88.030409 22.329385
5491 687 1 -1.1794 6.402285 94.628817 29.731751
5492 687 2 0.5897 7.228729 94.090191 29.567823
5493 687 2 0.5897 5.600047 94.034763 29.672465
5494 688 1 -1.1794 17.403440 89.055821 14.192497
5495 688 2 0.5897 18.347780 89.282854 14.430568
5496 688 2 0.5897 17.358686 88.109488 13.872418
5497 689 1 -1.1794 12.050192 56.115929 33.480040
5498 689 2 0.5897 12.909505 55.638031 33.662237
5499 689 2 0.5897 12.007963 56.368966 32.513506
5500 690 1 -1.1794 7.635530 69.432026 21.152317
5501 690 2 0.5897 7.621250 70.353537 21.540407
5502 690 2 0.5897 6.801726 68.946639 21.415320
5503 691 1 -1.1794 12.097777 94.331134 2.289601
5504 691 2 0.5897 11.107991 94.217631 2.375861
5505 691 2 0.5897 12.374732 94.137340 1.348464
5506 692 1 -1.1794 4.719119 88.463295 3.975613
5507 692 2 0.5897 4.399343 88.611358 4.911466
5508 692 2 0.5897 4.961746 87.500747 3.854644
5509 693 1 -1.1794 5.450655 54.418716 16.743935
5510 693 2 0.5897 5.782100 55.336964 16.960650
5511 693 2 0.5897 5.567583 54.244267 15.766236
5512 694 1 -1.1794 18.265963 91.578745 16.321441
5513 694 2 0.5897 18.257349 90.583168 16.227891
5514 694 2 0.5897 17.335680 91.931160 16.219574
5515 695 1 -1.1794 17.435590 51.802061 10.163892
5516 695 2 0.5897 16.635617 51.578642 10.720783
5517 695 2 0.5897 17.246332 52.620939 9.622024
5518 696 1 -1.1794 7.707125 74.775822 23.591275
5519 696 2 0.5897 7.822305 75.631778 23.087218
5520 696 2 0.5897 8.414476 74.126598 23.311701
5521 697 1 -1.1794 8.142618 74.336508 27.437618
5522 697 2 0.5897 7.394945 73.980524 27.998207
5523 697 2 0.5897 8.972435 74.402556 27.991732
5524 698 1 -1.1794 8.324867 74.085750 0.361909
5525 698 2 0.5897 8.167948 73.865712 1.324697
5526 698 2 0.5897 9.199098 74.561897 0.267019
5527 699 1 -1.1794 12.549723 58.057189 29.168058
5528 699 2 0.5897 12.034411 57.835856 28.340130
5529 699 2 0.5897 12.939519 58.974144 29.082898
5530 700 1 -1.1794 19.937644 64.272743 30.733789
5531 700 2 0.5897 20.709511 64.092389 30.124122
5532 700 2 0.5897 20.182736 64.999092 31.375930
5533 701 1 -1.1794 20.641139 51.343221 31.283252
5534 701 2 0.5897 20.036331 51.196610 30.500492
5535 701 2 0.5897 20.116825 51.730384 32.041671
5536 702 1 -1.1794 8.118781 78.430960 0.001093
5537 702 2 0.5897 7.484423 78.984335 0.540877
5538 702 2 0.5897 8.850370 78.090912 0.591979
5539 703 1 -1.1794 8.469760 56.517759 29.877336
5540 703 2 0.5897 9.247550 56.920459 29.394764
5541 703 2 0.5897 7.815121 56.157844 29.212574
5542 704 1 -1.1794 10.490546 75.435677 1.819000
5543 704 2 0.5897 9.640703 75.769975 2.226445
5544 704 2 0.5897 11.268406 75.760049 2.357253
5545 705 1 -1.1794 10.090208 57.264013 24.076351
5546 705 2 0.5897 9.625821 57.496993 24.930790
5547 705 2 0.5897 9.413672 56.986534 23.394218
5548 706 1 -1.1794 7.192353 80.270674 5.238742
5549 706 2 0.5897 7.936654 79.934502 4.661677
5550 706 2 0.5897 6.980228 79.589567 5.939525
5551 707 1 -1.1794 14.197148 85.252597 24.075948
5552 707 2 0.5897 14.675993 84.524087 24.565827
5553 707 2 0.5897 13.516284 84.850816 23.463579
5554 708 1 -1.1794 13.682161 97.836814 10.845425
5555 708 2 0.5897 14.245988 97.225070 11.400284
5556 708 2 0.5897 13.231108 98.503816 11.438434
5557 709 1 -1.1794 2.597411 84.410452 27.682467
5558 709 2 0.5897 2.911390 84.854888 28.521451
5559 709 2 0.5897 2.658665 83.417928 27.788033
5560 710 1 -1.1794 6.151853 98.531916 28.963958
5561 710 2 0.5897 5.658300 98.496197 28.094976
5562 710 2 0.5897 5.497399 98.515947 29.719890
5563 711 1 -1.1794 10.107729 51.970173 25.624646
5564 711 2 0.5897 9.381784 52.515822 25.205992
5565 711 2 0.5897 10.917929 51.987695 25.038755
5566 712 1 -1.1794 0.560730 65.136159 28.408093
5567 712 2 0.5897 0.761667 65.252271 29.380792
5568 712 2 0.5897 1.400746 64.898727 27.920241
5569 713 1 -1.1794 17.226728 68.246959 11.836515
5570 713 2 0.5897 17.293974 67.414092 11.287141
5571 713 2 0.5897 17.900180 68.913033 11.515876
5572 714 1 -1.1794 18.364438 92.605035 10.500701
5573 714 2 0.5897 17.440746 92.949647 10.333260
5574 714 2 0.5897 18.520820 91.787611 9.946299
5575 715 1 -1.1794 17.128196 89.611414 11.631895
5576 715 2 0.5897 17.729345 90.084324 12.276082
5577 715 2 0.5897 16.435134 89.098123 12.138053
5578 716 1 -1.1794 5.881950 95.501106 26.344559
5579 716 2 0.5897 5.060421 94.963712 26.535081
5580 716 2 0.5897 5.656874 96.240441 25.709954
5581 717 1 -1.1794 15.071233 89.570890 6.124986
5582 717 2 0.5897 14.135769 89.923652 6.103368
5583 717 2 0.5897 15.715240 90.326482 6.005251
5584 718 1 -1.1794 20.822132 55.120876 33.662178
5585 718 2 0.5897 21.630644 55.248288 33.087656
5586 718 2 0.5897 20.008845 55.057549 33.083771
5587 719 1 -1.1794 10.751053 73.901236 14.178454
5588 719 2 0.5897 10.526987 74.862823 14.019879
5589 719 2 0.5897 10.003667 73.462771 14.677616
5590 720 1 -1.1794 0.937646 75.104921 25.706857
5591 720 2 0.5897 0.966966 74.122893 25.520411
5592 720 2 0.5897 1.003669 75.609718 24.846148
5593 721 1 -1.1794 13.438577 77.143200 19.771385
5594 721 2 0.5897 14.136098 77.577993 19.201806
5595 721 2 0.5897 12.753904 76.708553 19.186317
5596 722 1 -1.1794 7.338013 48.708211 15.604846
5597 722 2 0.5897 6.691402 48.973477 16.320058
5598 722 2 0.5897 8.238038 48.550307 16.011075
5599 723 1 -1.1794 16.900020 89.241786 0.920138
5600 723 2 0.5897 17.182383 89.569588 0.018574
5601 723 2 0.5897 17.695086 88.880963 1.407659
5602 724 1 -1.1794 1.345824 77.057550 15.162564
5603 724 2 0.5897 1.814172 77.207725 14.291876
5604 724 2 0.5897 1.934333 76.523877 15.769894
5605 725 1 -1.1794 8.848622 65.860610 31.550393
5606 725 2 0.5897 9.266203 65.350986 30.798123
5607 725 2 0.5897 8.424769 66.693310 31.194079
5608 726 1 -1.1794 17.306542 48.636255 32.360856
5609 726 2 0.5897 16.435613 48.640467 32.852247
5610 726 2 0.5897 18.057959 48.550444 33.015080
5611 727 1 -1.1794 5.324022 78.443583 1.766400
5612 727 2 0.5897 4.513952 78.173780 1.245829
5613 727 2 0.5897 5.056824 78.677576 2.701201
5614 728 1 -1.1794 5.683269 50.876798 15.023265
5615 728 2 0.5897 5.111944 50.493115 14.297748
5616 728 2 0.5897 6.524456 51.243835 14.626163
5617 729 1 -1.1794 16.160471 57.781576 29.275111
5618 729 2 0.5897 15.419399 57.302630 29.745666
5619 729 2 0.5897 16.668995 58.337054 29.933023
5620 730 1 -1.1794 6.792782 59.624684 8.924315
5621 730 2 0.5897 6.065677 59.580023 8.239243
5622 730 2 0.5897 7.649334 59.894128 8.484180
5623 731 1 -1.1794 17.635521 49.395447 7.531102
5624 731 2 0.5897 17.922568 48.684394 6.889223
5625 731 2 0.5897 18.405297 50.005550 7.718768
5626 732 1 -1.1794 15.349498 89.951757 32.007492
5627 732 2 0.5897 16.320431 89.872746 32.233424
5628 732 2 0.5897 15.002157 89.061299 31.713488
5629 733 1 -1.1794 12.210974 53.427258 3.011638
5630 733 2 0.5897 12.436000 52.456662 3.097118
5631 733 2 0.5897 12.188650 53.680312 2.044443
5632 734 1 -1.1794 2.743772 72.692970 27.799273
5633 734 2 0.5897 2.582397 73.377668 27.088536
5634 734 2 0.5897 2.730945 71.779943 27.391577
5635 735 1 -1.1794 14.622426 66.884873 17.802957
5636 735 2 0.5897 13.774980 67.088151 17.312536
5637 735 2 0.5897 14.422742 66.756242 18.774338
5638 736 1 -1.1794 13.922016 95.445740 7.118157
5639 736 2 0.5897 13.027722 95.443011 6.670686
5640 736 2 0.5897 14.158522 96.380103 7.384672
5641 737 1 -1.1794 18.712973 86.489179 31.017540
5642 737 2 0.5897 19.087861 87.056580 31.750695
5643 737 2 0.5897 19.183697 86.698270 30.160394
5644 738 1 -1.1794 12.653244 80.935075 30.131103
5645 738 2 0.5897 13.106698 80.168002 29.677256
5646 738 2 0.5897 13.342414 81.558308 30.500732
5647 739 1 -1.1794 15.923306 94.861656 23.383822
5648 739 2 0.5897 16.494293 94.616771 22.600237
5649 739 2 0.5897 14.997648 95.071614 23.069062
5650 740 1 -1.1794 14.961927 71.318720 30.733822
5651 740 2 0.5897 15.872868 71.550971 31.074771
5652 740 2 0.5897 14.346540 71.162960 31.506504
5653 741 1 -1.1794 10.103297 71.804610 28.569420
5654 741 2 0.5897 9.603334 71.411743 29.341231
5655 741 2 0.5897 11.075163 71.863997 28.797345
5656 742 1 -1.1794 3.480509 70.482157 21.247187
5657 742 2 0.5897 2.856244 70.470300 20.466064
5658 742 2 0.5897 3.204864 71.202882 21.883249
5659 743 1 -1.1794 3.292693 97.804653 31.066043
5660 743 2 0.5897 3.970676 98.116642 31.731627
5661 743 2 0.5897 3.490958 96.859543 30.806317
5662 744 1 -1.1794 14.444391 59.772882 16.297188
5663 744 2 0.5897 14.308690 60.757851 16.404063
5664 744 2 0.5897 15.257386 59.607054 15.739029
5665 745 1 -1.1794 6.716053 55.987619 14.152464
5666 745 2 0.5897 6.525816 56.370525 13.248477
5667 745 2 0.5897 7.178027 55.106575 14.050773
5668 746 1 -1.1794 16.877218 60.059719 2.188121
5669 746 2 0.5897 17.606931 60.645005 2.541617
5670 746 2 0.5897 16.750214 59.279023 2.799991
5671 747 1 -1.1794 7.646556 90.815831 6.248669
5672 747 2 0.5897 6.862335 90.891523 6.864517
5673 747 2 0.5897 8.481421 91.063859 6.740077
5674 748 1 -1.1794 10.993796 97.096691 7.510136
5675 748 2 0.5897 10.718514 96.262271 7.032682
5676 748 2 0.5897 10.748937 97.023720 8.476945
5677 749 1 -1.1794 4.565955 49.810543 22.742761
5678 749 2 0.5897 3.793603 49.570455 23.330834
5679 749 2 0.5897 4.318648 50.592318 22.170338
5680 750 1 -1.1794 1.549779 94.355258 3.299433
5681 750 2 0.5897 0.733014 94.631223 2.792739
5682 750 2 0.5897 2.069230 93.693121 2.759298
5683 751 1 -1.1794 18.531559 88.587142 29.207040
5684 751 2 0.5897 18.861955 89.181283 28.473667
5685 751 2 0.5897 18.438083 89.117886 30.049402
5686 752 1 -1.1794 0.862443 97.529062 3.264961
5687 752 2 0.5897 1.292935 98.409771 3.067406
5688 752 2 0.5897 0.020393 97.678459 3.783259
5689 753 1 -1.1794 15.663903 88.681480 23.881108
5690 753 2 0.5897 16.629974 88.427426 23.927608
5691 753 2 0.5897 15.116962 88.003550 24.372297
5692 754 1 -1.1794 6.279068 84.268352 28.352890
5693 754 2 0.5897 6.824921 83.853520 29.080873
5694 754 2 0.5897 6.544977 83.876272 27.472227
5695 755 1 -1.1794 8.838531 65.638601 17.226173
5696 755 2 0.5897 8.534589 66.250102 16.495634
5697 755 2 0.5897 8.161936 65.636926 17.962526
5698 756 1 -1.1794 5.928069 97.735023 17.772501
5699 756 2 0.5897 6.109523 96.751846 17.751591
5700 756 2 0.5897 5.070337 97.905422 18.257538
5701 757 1 -1.1794 3.451499 63.837333 28.391827
5702 757 2 0.5897 3.139432 63.075780 28.959851
5703 757 2 0.5897 3.815198 64.562280 28.976785
5704 758 1 -1.1794 19.691884 71.594481 7.272055
5705 758 2 0.5897 19.993067 72.407703 6.774100
5706 758 2 0.5897 19.753505 71.764065 8.255642
5707 759 1 -1.1794 9.520524 61.037601 21.554509
5708 759 2 0.5897 9.473351 60.951307 22.549661
5709 759 2 0.5897 8.653927 61.398394 21.209779
5710 760 1 -1.1794 20.933352 66.922118 24.859312
5711 760 2 0.5897 21.363664 66.044264 24.649064
5712 760 2 0.5897 20.883613 67.476414 24.028481
5713 761 1 -1.1794 12.755128 94.658617 14.556488
5714 761 2 0.5897 13.101972 93.722767 14.618807
5715 761 2 0.5897 13.521576 95.291561 14.447218
5716 762 1 -1.1794 11.734547 61.924990 8.143605
5717 762 2 0.5897 12.218247 62.283840 7.345319
5718 762 2 0.5897 10.978340 61.344352 7.841926
5719 763 1 -1.1794 2.458148 81.443170 24.439894
5720 763 2 0.5897 2.856131 81.368202 25.354218
5721 763 2 0.5897 2.009604 80.582207 24.199995
5722 764 1 -1.1794 13.856321 52.725482 24.868260
5723 764 2 0.5897 14.380744 52.093834 25.439226
5724 764 2 0.5897 13.336417 53.349160 25.451976
5725 765 1 -1.1794 0.242521 85.378281 26.748859
5726 765 2 0.5897 0.011791 84.441833 26.484606
5727 765 2 0.5897 0.006626 85.521091 27.710087
5728 766 1 -1.1794 8.218894 91.523623 3.058509
5729 766 2 0.5897 7.593880 91.102940 3.716068
5730 766 2 0.5897 8.275182 90.952383 2.239658
5731 767 1 -1.1794 17.649116 55.546425 22.066108
5732 767 2 0.5897 18.517164 55.196776 21.713634
5733 767 2 0.5897 16.936450 55.427328 21.374788
5734 768 1 -1.1794 17.307343 68.860754 32.825545
5735 768 2 0.5897 17.964441 69.569810 33.081399
5736 768 2 0.5897 17.781397 67.985295 32.731494
5737 769 1 -1.1794 12.939686 68.293159 26.339783
5738 769 2 0.5897 12.733696 67.571854 25.678507
5739 769 2 0.5897 13.061515 69.161397 25.858825
5740 770 1 -1.1794 5.717384 86.216148 27.511135
5741 770 2 0.5897 4.992026 86.355253 26.836965
5742 770 2 0.5897 6.593886 86.112329 27.041065
5743 771 1 -1.1794 15.272672 68.764696 19.068099
5744 771 2 0.5897 15.063400 69.318265 19.874181
5745 771 2 0.5897 16.149913 68.302964 19.199438
5746 772 1 -1.1794 12.886189 51.582804 21.493624
5747 772 2 0.5897 13.044664 50.597923 21.423662
5748 772 2 0.5897 11.907537 51.769817 21.408378
5749 773 1 -1.1794 15.912011 90.038400 17.973577
5750 773 2 0.5897 15.694935 89.413443 18.723449
5751 773 2 0.5897 16.230077 90.909695 18.347312
5752 774 1 -1.1794 19.000827 70.616366 25.839447
5753 774 2 0.5897 18.079917 70.243293 25.952320
5754 774 2 0.5897 19.137877 70.882844 24.885399
5755 775 1 -1.1794 18.897417 77.327026 11.979821
5756 775 2 0.5897 18.536058 78.161457 12.395925
5757 775 2 0.5897 19.221326 76.710146 12.697136
5758 776 1 -1.1794 5.456459 65.096983 19.377817
5759 776 2 0.5897 5.232372 64.279511 18.847227
5760 776 2 0.5897 6.062601 65.685686 18.843008
5761 777 1 -1.1794 12.075384 74.857249 27.087933
5762 777 2 0.5897 11.410738 75.341222 27.657156
5763 777 2 0.5897 12.729390 74.378143 27.673368
5764 778 1 -1.1794 10.448294 83.586065 22.620151
5765 778 2 0.5897 9.892819 83.150407 21.911878
5766 778 2 0.5897 11.060340 84.255428 22.199019
5767 779 1 -1.1794 10.002504 58.129847 21.259159
5768 779 2 0.5897 10.291465 57.309583 20.765532
5769 779 2 0.5897 10.719128 58.402259 21.901221
5770 780 1 -1.1794 4.023655 53.660284 5.313690
5771 780 2 0.5897 3.589122 53.521868 4.423733
5772 780 2 0.5897 4.748484 52.982969 5.439654
5773 781 1 -1.1794 14.139506 68.421440 0.256065
5774 781 2 0.5897 13.289387 68.389899 0.781710
5775 781 2 0.5897 14.779007 67.741816 0.615438
5776 782 1 -1.1794 15.158704 68.761463 11.290831
5777 782 2 0.5897 14.556063 69.157576 11.983592
5778 782 2 0.5897 15.646016 69.493637 10.814964
5779 783 1 -1.1794 10.624744 81.704180 11.603217
5780 783 2 0.5897 10.888761 80.774819 11.861255
5781 783 2 0.5897 10.523253 82.262594 12.426548
5782 784 1 -1.1794 7.605822 80.908699 31.024045
5783 784 2 0.5897 7.314404 80.348169 31.799212
5784 784 2 0.5897 8.604732 80.922239 30.979380
5785 785 1 -1.1794 2.887223 78.699012 26.163498
5786 785 2 0.5897 2.449281 79.456563 26.647567
5787 785 2 0.5897 2.188447 78.058171 25.845639
5788 786 1 -1.1794 17.602871 87.091190 25.504992
5789 786 2 0.5897 16.656845 86.787642 25.391439
5790 786 2 0.5897 17.632443 87.856591 26.147866
5791 787 1 -1.1794 5.527733 93.066981 17.413766
5792 787 2 0.5897 5.821125 92.178610 17.060612
5793 787 2 0.5897 5.586429 93.750713 16.686396
5794 788 1 -1.1794 6.180904 88.369944 27.520409
5795 788 2 0.5897 5.338095 88.349604 28.058237
5796 788 2 0.5897 6.949201 88.610151 28.113722
5797 789 1 -1.1794 2.516083 94.554483 25.969169
5798 789 2 0.5897 1.752639 94.016374 25.611969
5799 789 2 0.5897 2.930305 95.079673 25.225801
5800 790 1 -1.1794 3.785922 87.996569 25.822522
5801 790 2 0.5897 4.556605 87.882060 25.195677
5802 790 2 0.5897 3.283053 88.827432 25.584215
5803 791 1 -1.1794 8.684517 61.627579 9.768997
5804 791 2 0.5897 9.272633 61.521903 10.570840
5805 791 2 0.5897 9.223491 61.981516 9.004645
5806 792 1 -1.1794 13.201087 96.148445 27.029884
5807 792 2 0.5897 12.585387 96.290766 26.254862
5808 792 2 0.5897 13.808749 96.937273 27.122065
5809 793 1 -1.1794 5.698044 62.648737 31.334887
5810 793 2 0.5897 5.839500 63.033342 32.247066
5811 793 2 0.5897 4.718058 62.600740 31.141692
5812 794 1 -1.1794 2.768296 55.152473 20.682153
5813 794 2 0.5897 1.868016 54.927946 21.055093
5814 794 2 0.5897 3.049235 56.054573 21.009702
5815 795 1 -1.1794 10.293777 71.293294 21.861137
5816 795 2 0.5897 9.831299 71.005556 21.022495
5817 795 2 0.5897 10.920547 72.044768 21.655111
5818 796 1 -1.1794 2.688205 85.096522 31.634069
5819 796 2 0.5897 3.205132 85.933649 31.455167
5820 796 2 0.5897 3.143591 84.570690 32.352487
5821 797 1 -1.1794 14.598251 75.420583 4.866318
5822 797 2 0.5897 14.386719 74.510142 5.221775
5823 797 2 0.5897 14.625875 76.075210 5.621765
5824 798 1 -1.1794 16.764473 61.927870 30.683488
5825 798 2 0.5897 15.872658 61.633979 31.027428
5826 798 2 0.5897 17.165088 62.588878 31.317976
5827 799 1 -1.1794 7.005148 86.783779 29.336481
5828 799 2 0.5897 7.448896 86.079192 29.890236
5829 799 2 0.5897 6.556553 87.446012 29.936656
5830 800 1 -1.1794 5.756359 92.768364 22.628042
5831 800 2 0.5897 5.341204 92.953575 21.737344
5832 800 2 0.5897 5.037388 92.599532 23.302264
5833 801 1 -1.1794 4.004356 51.545070 1.102582
5834 801 2 0.5897 3.177216 52.030483 1.385802
5835 801 2 0.5897 4.693822 51.612479 1.823757
5836 802 1 -1.1794 5.630769 75.031489 0.380717
5837 802 2 0.5897 6.111277 75.890798 0.205506
5838 802 2 0.5897 6.162992 74.270395 0.009939
5839 803 1 -1.1794 5.992359 90.415808 24.876122
5840 803 2 0.5897 6.515207 91.014586 25.482830
5841 803 2 0.5897 5.284976 89.943763 25.402225
5842 804 1 -1.1794 16.160632 85.409273 10.403402
5843 804 2 0.5897 16.337462 84.438412 10.565139
5844 804 2 0.5897 15.662321 85.791472 11.181612
5845 805 1 -1.1794 20.238084 62.050055 7.882911
5846 805 2 0.5897 19.799421 62.804586 7.394794
5847 805 2 0.5897 21.035198 61.737502 7.366269
5848 806 1 -1.1794 6.354949 62.944265 21.168804
5849 806 2 0.5897 5.676982 62.336373 21.582118
5850 806 2 0.5897 6.862447 62.447762 20.464580
5851 807 1 -1.1794 11.862851 58.039739 10.696136
5852 807 2 0.5897 12.133093 57.631919 9.823982
5853 807 2 0.5897 10.872558 57.958947 10.809238
5854 808 1 -1.1794 19.421651 62.717880 27.823107
5855 808 2 0.5897 19.494611 61.845010 27.340639
5856 808 2 0.5897 19.412503 63.465825 27.159410
5857 809 1 -1.1794 3.479142 71.698387 15.668829
5858 809 2 0.5897 3.638103 70.828782 16.136289
5859 809 2 0.5897 3.565337 72.449362 16.323510
5860 810 1 -1.1794 9.829391 73.578489 18.996572
5861 810 2 0.5897 9.149965 73.970521 18.376338
5862 810 2 0.5897 10.271643 72.797380 18.555797
5863 811 1 -1.1794 8.639375 88.016922 9.839877
5864 811 2 0.5897 9.260759 87.429391 9.321525
5865 811 2 0.5897 8.196357 88.663548 9.218901
5866 812 1 -1.1794 19.854838 97.436277 17.088211
5867 812 2 0.5897 19.131181 97.026339 17.643432
5868 812 2 0.5897 20.516297 97.890246 17.685191
5869 813 1 -1.1794 14.995440 64.850945 4.275451
5870 813 2 0.5897 14.583372 65.486418 4.928424
5871 813 2 0.5897 15.264625 64.013057 4.750302
5872 814 1 -1.1794 8.726684 71.553013 14.290841
5873 814 2 0.5897 8.747696 72.119531 13.467059
5874 814 2 0.5897 7.959847 70.913509 14.236106
5875 815 1 -1.1794 9.126525 63.488571 2.625767
5876 815 2 0.5897 8.453236 63.950543 2.048476
5877 815 2 0.5897 8.702340 62.695791 3.063451
5878 816 1 -1.1794 1.249477 83.457153 32.471044
5879 816 2 0.5897 0.990844 83.430020 31.505450
5880 816 2 0.5897 0.862644 84.275101 32.896862
5881 817 1 -1.1794 3.392516 97.644764 11.064318
5882 817 2 0.5897 3.343512 96.829766 10.486930
5883 817 2 0.5897 2.605084 98.232564 10.878733
5884 818 1 -1.1794 14.699267 88.374350 28.749191
5885 818 2 0.5897 14.071192 87.629720 28.523253
5886 818 2 0.5897 15.534500 88.281955 28.207112
5887 819 1 -1.1794 2.859683 80.166452 30.793421
5888 819 2 0.5897 2.509898 80.822151 30.124310
5889 819 2 0.5897 3.657887 80.554283 31.254352
5890 820 1 -1.1794 5.435296 81.356407 33.650122
5891 820 2 0.5897 4.958632 82.176567 33.333691
5892 820 2 0.5897 6.419445 81.469169 33.513246
5893 821 1 -1.1794 7.514558 92.352930 0.726167
5894 821 2 0.5897 6.690868 92.765924 0.337616
5895 821 2 0.5897 8.188268 92.207814 0.001559
5896 822 1 -1.1794 5.017481 58.987407 29.650265
5897 822 2 0.5897 4.100546 58.592184 29.705290
5898 822 2 0.5897 5.233946 59.195763 28.696467
5899 823 1 -1.1794 10.344683 83.398930 0.699618
5900 823 2 0.5897 11.029536 83.185284 0.002960
5901 823 2 0.5897 9.432193 83.200397 0.341921
5902 824 1 -1.1794 0.806917 84.308042 5.434283
5903 824 2 0.5897 0.731304 85.249142 5.763848
5904 824 2 0.5897 0.000163 83.789706 5.717964
5905 825 1 -1.1794 8.138799 81.328869 9.364218
5906 825 2 0.5897 7.785239 80.641176 8.730126
5907 825 2 0.5897 8.064501 82.235238 8.948314
5908 826 1 -1.1794 8.250361 76.388409 15.580751
5909 826 2 0.5897 8.399007 77.350827 15.808029
5910 826 2 0.5897 8.452134 76.239524 14.612701
5911 827 1 -1.1794 15.722793 78.785489 29.457074
5912 827 2 0.5897 15.637959 77.802574 29.620415
5913 827 2 0.5897 15.239819 79.026382 28.615227
5914 828 1 -1.1794 7.498226 77.093510 10.062119
5915 828 2 0.5897 6.929351 76.328762 10.364675
5916 828 2 0.5897 7.825623 77.601117 10.859080
5917 829 1 -1.1794 10.284904 76.400241 12.010828
5918 829 2 0.5897 9.346945 76.707372 12.171777
5919 829 2 0.5897 10.836973 77.169516 11.689214
5920 830 1 -1.1794 2.318111 75.393953 0.820189
5921 830 2 0.5897 2.309146 76.362793 0.572663
5922 830 2 0.5897 2.178277 74.839098 0.000079
5923 831 1 -1.1794 17.997506 93.945703 20.267100
5924 831 2 0.5897 17.693179 94.725046 19.719369
5925 831 2 0.5897 18.840101 93.573495 19.877877
5926 832 1 -1.1794 20.372435 89.666654 0.000244
5927 832 2 0.5897 21.053541 90.207428 0.493862
5928 832 2 0.5897 19.723449 89.273272 0.651449
5929 833 1 -1.1794 4.947731 72.864047 4.702952
5930 833 2 0.5897 4.763296 72.297807 3.899612
5931 833 2 0.5897 4.493852 73.748948 4.598336
5932 834 1 -1.1794 7.308845 92.061091 30.414473
5933 834 2 0.5897 6.413118 92.014180 29.972351
5934 834 2 0.5897 8.012983 91.753638 29.774425
5935 835 1 -1.1794 7.497482 71.280441 11.861162
5936 835 2 0.5897 8.030849 70.434753 11.879372
5937 835 2 0.5897 7.676914 71.769357 11.007484
5938 836 1 -1.1794 20.250718 77.014965 20.943651
5939 836 2 0.5897 20.602689 77.539872 21.718628
5940 836 2 0.5897 19.533607 77.539086 20.484250
5941 837 1 -1.1794 7.623725 91.077213 10.105204
5942 837 2 0.5897 8.605920 90.892681 10.069997
5943 837 2 0.5897 7.172081 90.626442 9.335254
5944 838 1 -1.1794 16.044304 75.534453 10.311625
5945 838 2 0.5897 16.830156 75.766025 10.885046
5946 838 2 0.5897 15.859403 76.287166 9.679776
5947 839 1 -1.1794 1.656232 65.870886 12.384486
5948 839 2 0.5897 0.701356 65.824343 12.091150
5949 839 2 0.5897 2.241981 65.476052 11.676669
5950 840 1 -1.1794 19.824860 90.201268 3.186395
5951 840 2 0.5897 19.840978 89.727492 4.066893
5952 840 2 0.5897 20.567983 89.860171 2.610704
5953 841 1 -1.1794 19.630950 49.991175 33.543957
5954 841 2 0.5897 20.569725 50.314694 33.662439
5955 841 2 0.5897 18.997422 50.755704 33.662861
5956 842 1 -1.1794 9.921285 87.997311 18.125540
5957 842 2 0.5897 10.482723 88.716788 18.534368
5958 842 2 0.5897 9.222686 87.707463 18.779717
5959 843 1 -1.1794 1.141478 92.768282 30.845765
5960 843 2 0.5897 0.926514 92.281595 29.999050
5961 843 2 0.5897 0.330846 93.261149 31.161925
5962 844 1 -1.1794 15.348160 84.377993 0.609035
5963 844 2 0.5897 15.764016 85.054145 0.000857
5964 844 2 0.5897 14.918228 83.658668 0.063389
5965 845 1 -1.1794 20.566292 94.568668 25.541876
5966 845 2 0.5897 20.996874 93.810610 26.031722
5967 845 2 0.5897 20.023682 95.113355 26.181321
5968 846 1 -1.1794 15.075807 68.928952 14.231778
5969 846 2 0.5897 15.643467 68.967685 15.054130
5970 846 2 0.5897 14.648578 69.820162 14.079396
5971 847 1 -1.1794 14.559198 60.459286 20.755002
5972 847 2 0.5897 15.076609 61.273245 20.490887
5973 847 2 0.5897 13.951388 60.193370 20.006767
5974 848 1 -1.1794 9.525898 75.721640 6.394907
5975 848 2 0.5897 10.475172 76.029621 6.331451
5976 848 2 0.5897 9.133457 75.659905 5.477204
5977 849 1 -1.1794 5.559020 54.316292 29.666942
5978 849 2 0.5897 5.095049 54.472316 30.538944
5979 849 2 0.5897 4.888520 54.331681 28.925193
5980 850 1 -1.1794 15.826920 78.696567 15.702166
5981 850 2 0.5897 16.470771 77.958358 15.903422
5982 850 2 0.5897 16.240492 79.330670 15.048812
5983 851 1 -1.1794 4.876955 75.430953 29.647604
5984 851 2 0.5897 4.131185 75.247506 30.288052
5985 851 2 0.5897 5.746536 75.436585 30.141363
5986 852 1 -1.1794 14.083810 69.297875 23.831916
5987 852 2 0.5897 15.082571 69.250818 23.848091
5988 852 2 0.5897 13.745135 68.899795 22.979373
5989 853 1 -1.1794 11.677348 77.854227 0.546317
5990 853 2 0.5897 10.924907 77.475015 0.007772
5991 853 2 0.5897 11.768792 78.830501 0.350034
5992 854 1 -1.1794 0.752083 69.210566 30.493892
5993 854 2 0.5897 1.599734 68.748292 30.754257
5994 854 2 0.5897 0.001431 68.876064 31.063656
5995 855 1 -1.1794 8.723623 93.179160 21.020349
5996 855 2 0.5897 9.433238 93.424219 20.359750
5997 855 2 0.5897 9.129555 93.097237 21.930573
5998 856 1 -1.1794 15.176255 85.544640 29.248263
5999 856 2 0.5897 14.399504 85.459696 28.624209
6000 856 2 0.5897 15.824216 86.213976 28.884757
6001 857 1 -1.1794 4.837525 74.790725 26.771871
6002 857 2 0.5897 4.855141 74.415365 27.698583
6003 857 2 0.5897 5.633631 74.461872 26.263864
6004 858 1 -1.1794 1.725020 94.904891 9.444674
6005 858 2 0.5897 1.661541 94.874261 10.442187
6006 858 2 0.5897 2.639406 95.209558 9.178074
6007 859 1 -1.1794 17.992710 64.804365 32.973497
6008 859 2 0.5897 17.962819 65.794638 32.837613
6009 859 2 0.5897 18.211142 64.355474 32.107018
6010 860 1 -1.1794 12.015982 82.804972 25.345963
6011 860 2 0.5897 12.807728 82.659708 25.939290
6012 860 2 0.5897 12.241681 83.486539 24.649883
6013 861 1 -1.1794 4.897228 95.075758 31.693875
6014 861 2 0.5897 5.454307 95.102384 32.523908
6015 861 2 0.5897 3.929959 95.027705 31.943036
6016 862 1 -1.1794 2.389636 51.485467 20.993877
6017 862 2 0.5897 2.007120 50.590794 21.224618
6018 862 2 0.5897 2.555490 52.003521 21.832991
6019 863 1 -1.1794 3.240156 79.979494 14.683021
6020 863 2 0.5897 3.311160 80.918591 14.346783
6021 863 2 0.5897 4.149980 79.642479 14.925181
6022 864 1 -1.1794 15.297189 58.768983 9.494366
6023 864 2 0.5897 15.954824 59.387958 9.064965
6024 864 2 0.5897 14.563872 58.560643 8.847187
6025 865 1 -1.1794 15.383489 94.819854 15.909897
6026 865 2 0.5897 15.541120 94.580798 14.951771
6027 865 2 0.5897 14.511737 94.433213 16.210825
6028 866 1 -1.1794 12.407988 96.634821 29.204964
6029 866 2 0.5897 12.872670 96.466040 30.074207
6030 866 2 0.5897 11.608058 97.214105 29.361620
6031 867 1 -1.1794 12.083418 73.484683 20.254304
6032 867 2 0.5897 12.515380 72.587752 20.159843
6033 867 2 0.5897 12.193857 73.999049 19.403874
6034 868 1 -1.1794 15.948590 75.554031 2.154412
6035 868 2 0.5897 14.998644 75.503972 1.846035
6036 868 2 0.5897 16.559687 75.405325 1.376950
6037 869 1 -1.1794 4.975381 50.339082 27.811050
6038 869 2 0.5897 5.317077 50.143350 28.730252
6039 869 2 0.5897 5.518752 51.072526 27.402629
6040 870 1 -1.1794 0.060086 59.969474 4.461635
6041 870 2 0.5897 0.112356 60.557060 3.654163
6042 870 2 0.5897 0.001381 59.013289 4.174820
6043 871 1 -1.1794 13.336839 87.417628 18.681182
6044 871 2 0.5897 13.307208 87.363040 19.679251
6045 871 2 0.5897 12.483574 87.815121 18.343633
6046 872 1 -1.1794 20.504796 50.362691 11.095978
6047 872 2 0.5897 19.728086 50.964575 10.910352
6048 872 2 0.5897 20.208801 49.607192 11.680451
6049 873 1 -1.1794 7.772572 48.591847 28.047778
6050 873 2 0.5897 8.567501 49.197018 28.090851
6051 873 2 0.5897 7.107537 48.865170 28.742777
6052 874 1 -1.1794 0.044570 86.879675 11.690607
6053 874 2 0.5897 0.070455 87.078220 12.670357
6054 874 2 0.5897 0.887113 86.412309 11.422856
6055 875 1 -1.1794 16.916913 91.855958 21.173189
6056 875 2 0.5897 16.559951 92.754230 21.429479
6057 875 2 0.5897 16.324328 91.447494 20.478927
6058 876 1 -1.1794 3.394707 83.190739 8.400762
6059 876 2 0.5897 2.960700 82.411210 7.949128
6060 876 2 0.5897 4.359099 83.232681 8.139631
6061 877 1 -1.1794 1.839376 84.421274 14.960411
6062 877 2 0.5897 0.873600 84.217482 15.120867
6063 877 2 0.5897 1.969689 85.412148 14.925955
6064 878 1 -1.1794 9.819866 89.467937 21.355849
6065 878 2 0.5897 10.495360 89.537467 20.621769
6066 878 2 0.5897 8.904248 89.395064 20.960458
6067 879 1 -1.1794 17.764973 71.958624 28.667930
6068 879 2 0.5897 17.137879 72.499884 29.228100
6069 879 2 0.5897 17.996303 71.112991 29.148961
6070 880 1 -1.1794 11.385591 70.731594 13.354852
6071 880 2 0.5897 12.380398 70.632643 13.331006
6072 880 2 0.5897 10.979632 70.197437 12.613317
6073 881 1 -1.1794 3.999770 76.973960 14.213153
6074 881 2 0.5897 3.844038 77.829729 13.719790
6075 881 2 0.5897 4.420109 76.306561 13.598422
6076 882 1 -1.1794 10.651571 54.219351 25.797098
6077 882 2 0.5897 11.146720 54.194594 26.665553
6078 882 2 0.5897 10.438906 55.167669 25.561582
6079 883 1 -1.1794 11.682235 69.468348 8.678769
6080 883 2 0.5897 12.262182 68.785017 8.235237
6081 883 2 0.5897 10.970672 69.765484 8.042068
6082 884 1 -1.1794 9.748714 48.944208 29.927729
6083 884 2 0.5897 8.917852 48.550238 30.320737
6084 884 2 0.5897 10.365294 49.224007 30.663624
6085 885 1 -1.1794 12.855685 66.000239 1.759473
6086 885 2 0.5897 12.323736 66.382752 1.004016
6087 885 2 0.5897 12.643129 66.496135 2.601439
6088 886 1 -1.1794 10.364441 52.185147 19.505906
6089 886 2 0.5897 9.609484 52.769169 19.207647
6090 886 2 0.5897 10.052713 51.589545 20.246233
6091 887 1 -1.1794 19.431481 83.513150 2.181731
6092 887 2 0.5897 19.838182 83.344888 1.283799
6093 887 2 0.5897 18.960716 82.688119 2.494309
6094 888 1 -1.1794 10.673242 63.653942 0.005821
6095 888 2 0.5897 10.456185 64.048869 0.898524
6096 888 2 0.5897 10.533386 62.664239 0.036279
6097 889 1 -1.1794 11.967363 53.271808 29.085991
6098 889 2 0.5897 12.378991 53.116299 29.983977
6099 889 2 0.5897 12.371842 54.086520 28.670491
6100 890 1 -1.1794 6.772289 80.475039 26.437034
6101 890 2 0.5897 6.778792 80.930825 27.327099
6102 890 2 0.5897 6.723916 79.485079 26.569846
6103 891 1 -1.1794 11.498812 50.845370 6.684468
6104 891 2 0.5897 11.590306 51.139253 7.635920
6105 891 2 0.5897 11.552492 49.847937 6.637071
6106 892 1 -1.1794 13.938710 89.052463 13.705549
6107 892 2 0.5897 13.774282 90.035397 13.623062
6108 892 2 0.5897 14.497168 88.874781 14.515829
6109 893 1 -1.1794 13.862368 92.772658 21.175432
6110 893 2 0.5897 14.449615 93.393157 21.695163
6111 893 2 0.5897 13.481532 92.081472 21.789619
6112 894 1 -1.1794 0.000059 95.604897 0.214145
6113 894 2 0.5897 0.088878 96.359840 0.863893
6114 894 2 0.5897 0.045096 94.735142 0.705569
6115 895 1 -1.1794 8.113633 80.518609 21.333370
6116 895 2 0.5897 7.336810 80.223887 21.889863
6117 895 2 0.5897 8.427567 81.414684 21.647212
6118 896 1 -1.1794 2.654699 85.813362 8.918882
6119 896 2 0.5897 1.916084 85.664290 8.261444
6120 896 2 0.5897 3.531380 85.594184 8.490640
6121 897 1 -1.1794 17.157906 63.566319 20.752460
6122 897 2 0.5897 16.842306 63.399154 21.686512
6123 897 2 0.5897 16.925864 64.501405 20.484560
6124 898 1 -1.1794 18.975082 97.158761 12.784003
6125 898 2 0.5897 18.489939 96.395864 13.211347
6126 898 2 0.5897 19.312069 97.778430 13.492840
6127 899 1 -1.1794 12.968106 48.552028 10.390382
6128 899 2 0.5897 13.330727 48.922512 9.535252
6129 899 2 0.5897 13.017151 49.251041 11.103807
6130 900 1 -1.1794 5.924419 93.355261 6.129291
6131 900 2 0.5897 6.888996 93.508926 5.914866
6132 900 2 0.5897 5.439647 93.073661 5.301222
6133 901 1 -1.1794 0.527288 54.506111 19.153696
6134 901 2 0.5897 0.785411 53.575224 19.412195
6135 901 2 0.5897 -0.000579 54.923245 19.893530
6136 902 1 -1.1794 0.278179 69.488106 27.778069
6137 902 2 0.5897 0.951214 68.979758 28.315290
6138 902 2 0.5897 0.088581 68.995298 26.928838
6139 903 1 -1.1794 12.421856 76.766206 5.149031
6140 903 2 0.5897 12.359594 77.437775 4.410709
6141 903 2 0.5897 12.276346 75.848903 4.778381
6142 904 1 -1.1794 21.625641 68.568048 4.702859
6143 904 2 0.5897 21.774586 67.648025 4.340404
6144 904 2 0.5897 21.774559 69.240184 3.977561
6145 905 1 -1.1794 11.343231 80.707470 5.868629
6146 905 2 0.5897 12.067491 80.454161 6.509942
6147 905 2 0.5897 10.454751 80.457753 6.253655
6148 906 1 -1.1794 13.203614 54.433178 19.961425
6149 906 2 0.5897 13.455118 55.139747 20.622867
6150 906 2 0.5897 12.938094 53.600709 20.447733
6151 907 1 -1.1794 11.406026 50.297964 4.483418
6152 907 2 0.5897 10.861301 51.126800 4.355726
6153 907 2 0.5897 10.799205 49.504693 4.533325
6154 908 1 -1.1794 4.685823 89.408977 14.246970
6155 908 2 0.5897 5.332692 89.953651 14.780721
6156 908 2 0.5897 5.186920 88.740652 13.697203
6157 909 1 -1.1794 17.335333 60.187470 20.805425
6158 909 2 0.5897 18.082381 60.054299 21.456720
6159 909 2 0.5897 17.312849 61.144119 20.515052
6160 910 1 -1.1794 17.030816 92.447181 26.788955
6161 910 2 0.5897 17.920312 92.604514 26.359954
6162 910 2 0.5897 16.535977 93.313450 26.857598
6163 911 1 -1.1794 6.158174 96.442423 28.283252
6164 911 2 0.5897 5.399835 96.420094 28.934729
6165 911 2 0.5897 7.022844 96.513358 28.780559
6166 912 1 -1.1794 15.280515 48.762777 16.250355
6167 912 2 0.5897 15.892864 48.550088 15.488914
6168 912 2 0.5897 14.338694 48.550088 15.990092
6169 913 1 -1.1794 17.340904 51.850767 1.938189
6170 913 2 0.5897 16.882807 51.852680 1.049289
6171 913 2 0.5897 18.330957 51.812314 1.802853
6172 914 1 -1.1794 4.607775 93.225670 14.780108
6173 914 2 0.5897 4.235460 94.134882 14.966431
6174 914 2 0.5897 4.461270 92.996273 13.817864
6175 915 1 -1.1794 8.249711 61.555269 18.181133
6176 915 2 0.5897 8.657435 62.425509 17.904650
6177 915 2 0.5897 8.815702 60.801207 17.847900
6178 916 1 -1.1794 15.680625 54.390453 25.766572
6179 916 2 0.5897 14.999899 54.749435 25.128024
6180 916 2 0.5897 15.217709 53.916200 26.515433
6181 917 1 -1.1794 17.708097 57.514405 20.645796
6182 917 2 0.5897 18.459346 57.895021 21.185014
6183 917 2 0.5897 17.498659 58.129239 19.885457
6184 918 1 -1.1794 0.639718 71.994306 19.473899
6185 918 2 0.5897 0.017380 71.683652 18.755436
6186 918 2 0.5897 1.456978 72.392789 19.057609
6187 919 1 -1.1794 3.328951 67.681701 12.422279
6188 919 2 0.5897 4.190811 67.961219 12.845442
6189 919 2 0.5897 2.594997 68.287570 12.729254
6190 920 1 -1.1794 7.070458 88.503073 25.011725
6191 920 2 0.5897 6.768173 87.682232 25.496332
6192 920 2 0.5897 7.575877 89.094143 25.640364
6193 921 1 -1.1794 11.963596 69.330012 28.987276
6194 921 2 0.5897 11.832091 69.141897 28.013972
6195 921 2 0.5897 11.074131 69.366837 29.442792
6196 922 1 -1.1794 21.728104 69.185159 10.775389
6197 922 2 0.5897 21.774860 68.346827 11.318541
6198 922 2 0.5897 21.762237 69.978477 11.383239
6199 923 1 -1.1794 13.811909 91.283908 17.917524
6200 923 2 0.5897 13.976899 92.266645 18.001233
6201 923 2 0.5897 14.015867 90.836333 18.788200
6202 924 1 -1.1794 18.904680 61.867608 30.002158
6203 924 2 0.5897 19.376930 61.940881 30.880572
6204 924 2 0.5897 19.354608 61.174802 29.438612
6205 925 1 -1.1794 3.823440 92.757170 25.615352
6206 925 2 0.5897 3.385391 92.855375 24.721781
6207 925 2 0.5897 3.147063 92.453997 26.286620
6208 926 1 -1.1794 21.630486 68.203572 21.538233
6209 926 2 0.5897 21.774995 67.335855 22.013823
6210 926 2 0.5897 20.808369 68.646696 21.895676
6211 927 1 -1.1794 9.766964 93.682009 10.052393
6212 927 2 0.5897 8.988652 93.265787 10.522489
6213 927 2 0.5897 10.288016 94.238959 10.699163
6214 928 1 -1.1794 13.060806 76.649612 9.496184
6215 928 2 0.5897 13.692897 75.913107 9.737058
6216 928 2 0.5897 12.861518 77.196972 10.309007
6217 929 1 -1.1794 17.101971 95.213068 8.156256
6218 929 2 0.5897 17.312139 95.215554 9.133918
6219 929 2 0.5897 16.127865 95.396634 8.024264
6220 930 1 -1.1794 3.091633 71.515189 24.332372
6221 930 2 0.5897 3.365485 71.627230 25.287595
6222 930 2 0.5897 2.344181 70.853324 24.275352
6223 931 1 -1.1794 3.959730 49.230191 25.569256
6224 931 2 0.5897 3.435549 48.556738 26.090500
6225 931 2 0.5897 3.802535 50.141676 25.949368
6226 932 1 -1.1794 12.669729 55.967161 15.501241
6227 932 2 0.5897 11.759132 56.054216 15.905265
6228 932 2 0.5897 13.353928 55.918122 16.228885
6229 933 1 -1.1794 6.745875 71.351635 8.345798
6230 933 2 0.5897 6.254911 71.987141 8.941689
6231 933 2 0.5897 6.964333 70.518893 8.854540
6232 934 1 -1.1794 8.841854 69.033141 0.583837
6233 934 2 0.5897 9.587958 68.691082 0.012589
6234 934 2 0.5897 8.106191 69.377262 0.000415
6235 935 1 -1.1794 20.297917 60.720270 4.916381
6236 935 2 0.5897 19.624985 61.089381 5.557411
6237 935 2 0.5897 21.173379 60.600283 5.384536
6238 936 1 -1.1794 10.036431 54.397212 21.328017
6239 936 2 0.5897 9.157545 54.047343 21.003746
6240 936 2 0.5897 10.737165 53.692474 21.217042
6241 937 1 -1.1794 21.639484 63.501660 9.757421
6242 937 2 0.5897 21.770929 62.592086 9.363218
6243 937 2 0.5897 21.193363 64.094292 9.086776
6244 938 1 -1.1794 21.326426 90.511819 29.414157
6245 938 2 0.5897 21.774868 91.402113 29.334927
6246 938 2 0.5897 20.873401 90.444735 30.303126
6247 939 1 -1.1794 7.767045 91.058912 13.991880
6248 939 2 0.5897 8.167653 90.781949 13.118493
6249 939 2 0.5897 6.980104 91.652733 13.824248
6250 940 1 -1.1794 7.632159 62.858683 28.538641
6251 940 2 0.5897 8.498534 63.308940 28.322624
6252 940 2 0.5897 7.074851 62.793643 27.710886
6253 941 1 -1.1794 3.607410 97.232900 23.639455
6254 941 2 0.5897 3.454894 98.036230 24.215127
6255 941 2 0.5897 4.142695 96.556790 24.145760
6256 942 1 -1.1794 6.872785 97.571107 11.516171
6257 942 2 0.5897 6.865429 96.610970 11.236738
6258 942 2 0.5897 7.131094 97.635753 12.480067
6259 943 1 -1.1794 15.079170 59.810034 6.563423
6260 943 2 0.5897 14.167907 59.447112 6.368777
6261 943 2 0.5897 15.215547 60.659445 6.053617
6262 944 1 -1.1794 11.475981 98.524375 22.918013
6263 944 2 0.5897 11.693162 98.454243 23.891621
6264 944 2 0.5897 10.515683 98.286223 22.772721
6265 945 1 -1.1794 19.176934 78.445321 18.437446
6266 945 2 0.5897 19.376348 77.728800 17.768990
6267 945 2 0.5897 18.275971 78.283990 18.840234
6268 946 1 -1.1794 1.827532 95.858196 5.200581
6269 946 2 0.5897 2.571826 95.910088 4.534747
6270 946 2 0.5897 0.950000 95.919825 4.725041
6271 947 1 -1.1794 5.329570 56.978379 28.217518
6272 947 2 0.5897 5.613991 56.398133 28.980681
6273 947 2 0.5897 6.023232 56.946393 27.497928
6274 948 1 -1.1794 20.362328 85.587640 8.638134
6275 948 2 0.5897 20.330438 85.988240 9.553832
6276 948 2 0.5897 19.921505 86.206538 7.988027
6277 949 1 -1.1794 12.485551 63.364003 14.099215
6278 949 2 0.5897 12.181429 62.909600 13.261941
6279 949 2 0.5897 13.169580 64.057351 13.872558
6280 950 1 -1.1794 11.136829 89.351649 7.515613
6281 950 2 0.5897 10.808298 88.639976 8.136570
6282 950 2 0.5897 11.600791 90.064590 8.041404
6283 951 1 -1.1794 6.387080 59.994092 20.788139
6284 951 2 0.5897 7.040904 59.504986 20.210826
6285 951 2 0.5897 5.732063 60.481491 20.210735
6286 952 1 -1.1794 1.006796 97.795379 24.836384
6287 952 2 0.5897 0.548145 98.465951 24.253313
6288 952 2 0.5897 1.459892 97.111251 24.264830
6289 953 1 -1.1794 2.612834 60.977315 24.203892
6290 953 2 0.5897 2.902235 60.149724 24.684872
6291 953 2 0.5897 2.205511 61.616658 24.856064
6292 954 1 -1.1794 9.869422 66.328280 11.028240
6293 954 2 0.5897 10.504780 65.718951 10.553858
6294 954 2 0.5897 9.286388 65.792126 11.638658
6295 955 1 -1.1794 9.375282 52.624283 27.690409
6296 955 2 0.5897 8.381161 52.727624 27.658086
6297 955 2 0.5897 9.615705 51.920983 28.359413
6298 956 1 -1.1794 8.334314 93.376375 7.852908
6299 956 2 0.5897 7.574750 92.726073 7.865964
6300 956 2 0.5897 8.835467 93.286291 6.992251
6301 957 1 -1.1794 2.580127 86.139202 24.866365
6302 957 2 0.5897 3.214713 85.878918 25.594069
6303 957 2 0.5897 1.641171 86.076083 25.204561
6304 958 1 -1.1794 10.825228 63.233738 18.726154
6305 958 2 0.5897 10.236591 62.790354 19.402111
6306 958 2 0.5897 11.770583 63.227405 19.052136
6307 959 1 -1.1794 0.942166 75.629362 33.110730
6308 959 2 0.5897 1.152522 75.327909 32.180742
6309 959 2 0.5897 0.323589 76.414264 33.074794
6310 960 1 -1.1794 20.807638 53.583116 6.462803
6311 960 2 0.5897 21.393748 52.789500 6.626050
6312 960 2 0.5897 20.944354 53.911857 5.528331
6313 961 1 -1.1794 5.130863 95.922576 3.290237
6314 961 2 0.5897 5.640112 96.564100 3.863921
6315 961 2 0.5897 4.645740 95.268799 3.870954
6316 962 1 -1.1794 8.643910 93.404508 27.323834
6317 962 2 0.5897 8.116726 94.231257 27.520209
6318 962 2 0.5897 9.451612 93.376500 27.912759
6319 963 1 -1.1794 1.010321 87.429365 27.290534
6320 963 2 0.5897 1.103167 87.867583 26.396473
6321 963 2 0.5897 1.770975 86.795759 27.431776
6322 964 1 -1.1794 9.823536 68.178144 17.172575
6323 964 2 0.5897 9.180487 68.676430 16.591027
6324 964 2 0.5897 10.445998 67.644430 16.600133
6325 965 1 -1.1794 9.902264 66.824955 7.849264
6326 965 2 0.5897 10.234021 67.625471 8.348376
6327 965 2 0.5897 9.840970 66.045371 8.472555
6328 966 1 -1.1794 15.495107 85.839318 14.665284
6329 966 2 0.5897 15.583567 86.807908 14.432885
6330 966 2 0.5897 15.728732 85.282591 13.868117
6331 967 1 -1.1794 15.451260 53.138762 12.615404
6332 967 2 0.5897 14.590439 52.745561 12.292324
6333 967 2 0.5897 16.024789 53.375277 11.831105
6334 968 1 -1.1794 8.395887 74.961582 8.337809
6335 968 2 0.5897 7.683030 75.658955 8.412007
6336 968 2 0.5897 8.265272 74.274106 9.052174
6337 969 1 -1.1794 10.538051 89.075223 26.374246
6338 969 2 0.5897 9.961068 89.837868 26.081906
6339 969 2 0.5897 11.183393 88.846970 25.645250
6340 970 1 -1.1794 19.606194 86.845850 13.378678
6341 970 2 0.5897 18.925386 86.113927 13.350583
6342 970 2 0.5897 19.502765 87.364879 14.227154
6343 971 1 -1.1794 17.185261 69.526674 16.746194
6344 971 2 0.5897 17.762620 69.185981 17.488208
6345 971 2 0.5897 16.254382 69.664428 17.084557
6346 972 1 -1.1794 20.917318 79.518287 28.674714
6347 972 2 0.5897 20.702616 79.060606 27.811910
6348 972 2 0.5897 21.772774 80.027100 28.578250
6349 973 1 -1.1794 2.784219 70.035228 6.892655
6350 973 2 0.5897 2.885476 69.554024 7.763396
6351 973 2 0.5897 2.168604 70.814195 7.011938
6352 974 1 -1.1794 13.680288 93.942734 11.451770
6353 974 2 0.5897 13.051593 94.546898 11.941390
6354 974 2 0.5897 14.216825 93.415429 12.110616
6355 975 1 -1.1794 15.797886 74.035528 30.693737
6356 975 2 0.5897 15.011329 73.532169 30.336026
6357 975 2 0.5897 16.215770 74.567883 29.957551
6358 976 1 -1.1794 5.073563 78.430248 22.137362
6359 976 2 0.5897 4.647049 77.799402 22.785528
6360 976 2 0.5897 5.594684 79.121138 22.638465
6361 977 1 -1.1794 1.913127 72.282534 10.622848
6362 977 2 0.5897 2.021264 71.831419 9.736958
6363 977 2 0.5897 1.154485 71.862132 11.120569
6364 978 1 -1.1794 15.561427 82.014517 12.923012
6365 978 2 0.5897 15.757479 81.850162 11.956290
6366 978 2 0.5897 15.410315 81.140954 13.385670
6367 979 1 -1.1794 15.487139 83.213704 30.947856
6368 979 2 0.5897 15.989367 83.998974 30.585755
6369 979 2 0.5897 14.508650 83.419750 30.958048
6370 980 1 -1.1794 13.584050 87.269660 10.464103
6371 980 2 0.5897 13.642378 88.260276 10.340501
6372 980 2 0.5897 13.192041 86.853877 9.643461
6373 981 1 -1.1794 11.578484 97.038822 32.056577
6374 981 2 0.5897 11.572283 97.849716 31.471415
6375 981 2 0.5897 11.232797 96.253984 31.542252
6376 982 1 -1.1794 15.272517 72.102060 0.787388
6377 982 2 0.5897 16.066393 72.076007 0.179867
6378 982 2 0.5897 14.440565 71.943482 0.255683
6379 983 1 -1.1794 0.543052 75.288663 13.567452
6380 983 2 0.5897 0.002325 76.120291 13.693979
6381 983 2 0.5897 1.330002 75.488366 12.983648
6382 984 1 -1.1794 18.216017 49.161556 26.554427
6383 984 2 0.5897 18.567957 48.550001 25.845809
6384 984 2 0.5897 18.888781 49.877485 26.741067
6385 985 1 -1.1794 10.861863 75.808633 9.924810
6386 985 2 0.5897 11.057195 74.917484 10.334320
6387 985 2 0.5897 11.108977 75.791614 8.955973
6388 986 1 -1.1794 4.823950 76.821291 6.197276
6389 986 2 0.5897 4.295786 77.615049 6.498922
6390 986 2 0.5897 4.215623 76.033601 6.099896
6391 987 1 -1.1794 14.983519 98.100059 4.442561
6392 987 2 0.5897 15.502254 97.247322 4.503822
6393 987 2 0.5897 14.974395 98.549554 5.335796
6394 988 1 -1.1794 11.362647 80.557553 17.480949
6395 988 2 0.5897 12.141866 81.160530 17.651940
6396 988 2 0.5897 10.527564 80.986134 17.825848
6397 989 1 -1.1794 4.667098 95.899870 20.083423
6398 989 2 0.5897 5.224475 95.519899 19.345214
6399 989 2 0.5897 3.888988 96.392578 19.693828
6400 990 1 -1.1794 7.069564 58.203005 29.670685
6401 990 2 0.5897 7.673646 58.950723 29.946371
6402 990 2 0.5897 6.658686 57.789585 30.483251
6403 991 1 -1.1794 4.834676 83.605970 14.900679
6404 991 2 0.5897 5.704195 83.758041 14.430773
6405 991 2 0.5897 4.589110 82.638340 14.842453
6406 992 1 -1.1794 12.110424 50.544166 12.646817
6407 992 2 0.5897 11.312224 49.949565 12.550243
6408 992 2 0.5897 11.894781 51.292291 13.274358
6409 993 1 -1.1794 4.517469 54.221257 0.640667
6410 993 2 0.5897 4.960482 54.856472 0.008021
6411 993 2 0.5897 3.775155 53.744910 0.169431
6412 994 1 -1.1794 5.413882 50.861280 17.901327
6413 994 2 0.5897 5.774446 51.693810 17.480747
6414 994 2 0.5897 4.959682 50.305770 17.204828
6415 995 1 -1.1794 11.692064 50.071870 32.291324
6416 995 2 0.5897 12.313987 50.379366 33.011503
6417 995 2 0.5897 10.834217 50.582253 32.351393
6418 996 1 -1.1794 0.602823 55.573929 23.233366
6419 996 2 0.5897 0.001054 55.125363 22.572561
6420 996 2 0.5897 1.235962 56.178908 22.750526
6421 997 1 -1.1794 18.049603 56.927132 27.328869
6422 997 2 0.5897 17.905852 56.419336 26.479469
6423 997 2 0.5897 17.530272 56.496166 28.066814
6424 998 1 -1.1794 19.324722 65.480338 0.000090
6425 998 2 0.5897 20.323716 65.455903 0.037712
6426 998 2 0.5897 18.973898 65.988848 0.786436
6427 999 1 -1.1794 4.958396 66.193184 27.786270
6428 999 2 0.5897 4.653874 66.264659 26.836450
6429 999 2 0.5897 5.759479 66.775631 27.924186
6430 1000 1 -1.1794 3.700725 65.485552 17.116534
6431 1000 2 0.5897 3.409536 64.727833 17.700545
6432 1000 2 0.5897 4.254004 66.124625 17.650827
6433 1001 1 -1.1794 2.473709 90.619245 15.590605
6434 1001 2 0.5897 3.431732 90.471028 15.836012
6435 1001 2 0.5897 2.424382 91.173410 14.759661
6436 1002 1 -1.1794 7.976249 55.449586 0.708546
6437 1002 2 0.5897 7.540740 54.601657 0.406309
6438 1002 2 0.5897 8.605239 55.771800 0.001051
6439 1003 1 -1.1794 18.383212 95.110409 2.800330
6440 1003 2 0.5897 19.144601 95.107336 2.152042
6441 1003 2 0.5897 17.536441 95.336693 2.318901
6442 1004 1 -1.1794 4.420782 78.538283 28.861396
6443 1004 2 0.5897 4.335891 77.652592 29.317843
6444 1004 2 0.5897 4.502979 79.260607 29.548049
6445 1005 1 -1.1794 0.566339 58.240521 14.788275
6446 1005 2 0.5897 0.771233 57.463212 14.193456
6447 1005 2 0.5897 0.363654 59.044118 14.228677
6448 1006 1 -1.1794 2.825694 57.670482 3.623929
6449 1006 2 0.5897 2.737140 56.709306 3.885270
6450 1006 2 0.5897 3.194429 57.731085 2.696372
6451 1007 1 -1.1794 21.774682 95.938786 21.262550
6452 1007 2 0.5897 21.733281 95.822089 20.270246
6453 1007 2 0.5897 21.144525 96.664210 21.539429
6454 1008 1 -1.1794 10.649719 97.726391 5.011651
6455 1008 2 0.5897 11.051985 98.548292 4.608337
6456 1008 2 0.5897 10.379855 97.095835 4.283934
6457 1009 1 -1.1794 20.844573 52.260663 18.364830
6458 1009 2 0.5897 20.801570 53.157447 18.805205
6459 1009 2 0.5897 21.390221 51.639125 18.926932
6460 1010 1 -1.1794 6.591660 80.598444 13.493858
6461 1010 2 0.5897 6.860075 79.804953 14.040049
6462 1010 2 0.5897 6.115072 81.257654 14.075500
6463 1011 1 -1.1794 13.347092 91.878386 10.771303
6464 1011 2 0.5897 12.652030 91.992649 11.481114
6465 1011 2 0.5897 13.055399 91.168353 10.130390
6466 1012 1 -1.1794 3.289533 82.651009 20.049475
6467 1012 2 0.5897 3.588985 82.947797 19.142697
6468 1012 2 0.5897 2.304057 82.481715 20.036204
6469 1013 1 -1.1794 7.595552 90.315742 23.317888
6470 1013 2 0.5897 7.444802 89.374488 23.015703
6471 1013 2 0.5897 6.889647 90.907758 22.929024
6472 1014 1 -1.1794 21.167335 65.729124 10.957464
6473 1014 2 0.5897 20.306930 66.224329 11.077777
6474 1014 2 0.5897 21.660228 66.103280 10.171930
6475 1015 1 -1.1794 10.597268 92.225622 0.536010
6476 1015 2 0.5897 10.342206 91.416372 0.006804
6477 1015 2 0.5897 11.241379 92.779498 0.008429
6478 1016 1 -1.1794 1.237164 67.264703 17.444658
6479 1016 2 0.5897 1.711835 67.926876 16.864818
6480 1016 2 0.5897 0.818837 66.559714 16.871950
6481 1017 1 -1.1794 8.352272 57.845089 8.103861
6482 1017 2 0.5897 7.482244 57.607211 7.672044
6483 1017 2 0.5897 8.236943 57.865296 9.096982
6484 1018 1 -1.1794 20.844195 69.522554 18.680067
6485 1018 2 0.5897 21.486310 70.262818 18.480825
6486 1018 2 0.5897 19.996125 69.671012 18.171405
6487 1019 1 -1.1794 5.170754 83.688067 2.373748
6488 1019 2 0.5897 4.735731 84.212896 1.642099
6489 1019 2 0.5897 6.143424 83.575841 2.170480
6490 1020 1 -1.1794 16.662885 97.672210 27.920124
6491 1020 2 0.5897 16.910764 98.103067 28.787833
6492 1020 2 0.5897 16.287917 98.361889 27.300655
6493 1021 1 -1.1794 19.992703 61.140176 18.200506
6494 1021 2 0.5897 20.114928 62.121107 18.049393
6495 1021 2 0.5897 19.106556 60.977652 18.634476
6496 1022 1 -1.1794 5.731414 61.085240 33.273586
6497 1022 2 0.5897 4.912149 61.514966 33.653243
6498 1022 2 0.5897 6.545109 61.519525 33.659975
6499 1023 1 -1.1794 17.851264 56.654317 8.977296
6500 1023 2 0.5897 17.199611 57.405598 8.872769
6501 1023 2 0.5897 18.308157 56.730270 9.863569
6502 1024 1 -1.1794 6.610785 98.526099 0.953563
6503 1024 2 0.5897 7.320666 98.550665 1.657457
6504 1024 2 0.5897 6.973982 98.092525 0.128881
6505 1025 1 -1.1794 4.003671 66.588305 21.343513
6506 1025 2 0.5897 3.245712 66.212833 21.876917
6507 1025 2 0.5897 4.662361 67.020898 21.959134
6508 1026 1 -1.1794 4.572416 52.029765 11.571479
6509 1026 2 0.5897 5.033846 51.917124 10.691482
6510 1026 2 0.5897 4.158186 51.161410 11.844193
6511 1027 1 -1.1794 0.823669 57.050914 11.664536
6512 1027 2 0.5897 0.028965 56.763886 11.129690
6513 1027 2 0.5897 1.520458 57.424226 11.052062
6514 1028 1 -1.1794 10.694491 93.947905 31.260545
6515 1028 2 0.5897 9.935849 94.298289 30.711280
6516 1028 2 0.5897 11.326782 93.443645 30.672388
6517 1029 1 -1.1794 0.779382 61.761187 21.280753
6518 1029 2 0.5897 0.002659 61.769412 21.910543
6519 1029 2 0.5897 1.525208 62.305880 21.664226
6520 1030 1 -1.1794 3.319751 56.611006 30.477888
6521 1030 2 0.5897 3.485355 56.425338 29.509331
6522 1030 2 0.5897 3.244580 55.746517 30.974888
6523 1031 1 -1.1794 8.841890 78.881392 14.291064
6524 1031 2 0.5897 9.257057 79.697665 14.692731
6525 1031 2 0.5897 8.944197 78.910307 13.296732
6526 1032 1 -1.1794 1.386065 58.107968 33.662432
6527 1032 2 0.5897 1.593994 57.152641 33.452394
6528 1032 2 0.5897 0.997873 58.550148 32.853863
6529 1033 1 -1.1794 15.985950 71.272301 12.487197
6530 1033 2 0.5897 16.739654 71.097700 11.853599
6531 1033 2 0.5897 15.122463 71.283684 11.982953
6532 1034 1 -1.1794 3.711017 73.609387 32.838165
6533 1034 2 0.5897 4.133279 73.990805 33.660488
6534 1034 2 0.5897 3.507404 74.347552 32.195006
6535 1035 1 -1.1794 13.484976 72.629418 22.180121
6536 1035 2 0.5897 13.623542 73.560571 21.842849
6537 1035 2 0.5897 14.035964 71.993664 21.639540
6538 1036 1 -1.1794 13.272418 57.231402 12.886256
6539 1036 2 0.5897 13.665454 57.865642 13.552036
6540 1036 2 0.5897 12.774065 56.509973 13.367071
6541 1037 1 -1.1794 14.737183 52.143170 19.591170
6542 1037 2 0.5897 15.221490 52.984381 19.350734
6543 1037 2 0.5897 15.156512 51.369681 19.115903
6544 1038 1 -1.1794 15.323446 63.362446 23.295497
6545 1038 2 0.5897 15.459633 62.434099 23.641367
6546 1038 2 0.5897 15.853634 64.005254 23.848396
6547 1039 1 -1.1794 14.372197 52.043262 31.936747
6548 1039 2 0.5897 13.490579 52.357710 32.288701
6549 1039 2 0.5897 15.042785 52.781473 32.009939
6550 1040 1 -1.1794 10.904247 74.896495 21.618472
6551 1040 2 0.5897 11.774672 74.826706 22.105800
6552 1040 2 0.5897 10.218432 74.332733 22.078722
6553 1041 1 -1.1794 17.372320 90.927662 2.554581
6554 1041 2 0.5897 16.686862 90.468680 3.119810
6555 1041 2 0.5897 17.977173 91.469372 3.138280
6556 1042 1 -1.1794 16.768651 74.866775 13.198497
6557 1042 2 0.5897 16.345252 74.801918 14.102115
6558 1042 2 0.5897 17.327558 75.694640 13.150933
6559 1043 1 -1.1794 2.215791 73.077409 6.458179
6560 1043 2 0.5897 2.885761 73.733867 6.111476
6561 1043 2 0.5897 1.498132 72.941385 5.775198
6562 1044 1 -1.1794 13.111310 68.956534 16.359517
6563 1044 2 0.5897 12.842531 69.103996 17.311364
6564 1044 2 0.5897 13.798017 69.634861 16.098163
6565 1045 1 -1.1794 14.497288 82.293992 28.256781
6566 1045 2 0.5897 13.715715 81.842649 27.826160
6567 1045 2 0.5897 14.256929 83.239613 28.475933
6568 1046 1 -1.1794 8.147663 78.669913 7.861032
6569 1046 2 0.5897 8.748811 79.269743 7.332994
6570 1046 2 0.5897 7.923773 77.860590 7.318013
6571 1047 1 -1.1794 13.730567 50.709219 14.567378
6572 1047 2 0.5897 14.606635 51.190541 14.596252
6573 1047 2 0.5897 13.189677 50.952921 15.372392
6574 1048 1 -1.1794 12.703896 73.402481 30.150803
6575 1048 2 0.5897 12.984353 72.714763 29.481186
6576 1048 2 0.5897 13.013758 74.304927 29.851509
6577 1049 1 -1.1794 2.022824 64.722462 20.626055
6578 1049 2 0.5897 2.620872 64.202269 21.235758
6579 1049 2 0.5897 1.375371 65.256318 21.169932
6580 1050 1 -1.1794 5.907673 74.528132 2.496253
6581 1050 2 0.5897 6.499171 75.334192 2.516181
6582 1050 2 0.5897 6.191781 73.888483 3.210488
6583 1051 1 -1.1794 2.895997 75.558812 3.248083
6584 1051 2 0.5897 3.765493 75.655540 3.732458
6585 1051 2 0.5897 2.151601 75.884045 3.831262
6586 1052 1 -1.1794 13.344014 84.459996 18.734604
6587 1052 2 0.5897 13.054273 85.205533 19.334790
6588 1052 2 0.5897 14.313074 84.266332 18.887634
6589 1053 1 -1.1794 6.845725 91.537410 27.860294
6590 1053 2 0.5897 7.592381 91.056409 27.400790
6591 1053 2 0.5897 6.129852 90.883997 28.106418
6592 1054 1 -1.1794 6.299856 64.763922 0.343403
6593 1054 2 0.5897 5.720799 64.024478 0.000015
6594 1054 2 0.5897 5.724206 65.503714 0.691735
6595 1055 1 -1.1794 15.300704 71.772802 9.844607
6596 1055 2 0.5897 16.148616 72.275230 9.675458
6597 1055 2 0.5897 14.897821 71.495651 8.972326
6598 1056 1 -1.1794 21.342918 72.418889 30.796450
6599 1056 2 0.5897 21.283970 71.434145 30.632726
6600 1056 2 0.5897 21.087326 72.911021 29.964297
6601 1057 1 -1.1794 11.624216 56.068420 7.955536
6602 1057 2 0.5897 10.769725 56.072367 8.474987
6603 1057 2 0.5897 12.273939 55.442847 8.387413
6604 1058 1 -1.1794 10.294734 58.950964 27.579387
6605 1058 2 0.5897 10.335121 59.814177 27.076165
6606 1058 2 0.5897 10.208777 58.192350 26.933542
6607 1059 1 -1.1794 16.637036 93.044827 18.770924
6608 1059 2 0.5897 17.490536 92.711854 18.370091
6609 1059 2 0.5897 15.967163 93.202254 18.045330
6610 1060 1 -1.1794 5.078698 89.652949 22.315261
6611 1060 2 0.5897 5.129647 90.434522 21.693533
6612 1060 2 0.5897 5.594119 88.887079 21.930834
6613 1061 1 -1.1794 21.774882 77.681621 25.952832
6614 1061 2 0.5897 21.339827 77.233961 26.734067
6615 1061 2 0.5897 21.144616 78.350330 25.558381
6616 1062 1 -1.1794 6.346517 96.683273 14.699124
6617 1062 2 0.5897 7.094068 96.929127 15.316152
6618 1062 2 0.5897 5.545501 96.417224 15.235399
6619 1063 1 -1.1794 21.323762 73.420961 11.817017
6620 1063 2 0.5897 21.544580 74.373260 12.027651
6621 1063 2 0.5897 20.969392 73.359507 10.883934
6622 1064 1 -1.1794 8.288686 89.016016 30.960302
6623 1064 2 0.5897 7.796799 89.257743 30.123872
6624 1064 2 0.5897 8.889552 88.237184 30.780358
6625 1065 1 -1.1794 6.241466 74.281851 7.483853
6626 1065 2 0.5897 6.990778 73.976678 6.896145
6627 1065 2 0.5897 5.397779 74.331855 6.949352
6628 1066 1 -1.1794 11.693178 48.983604 23.567973
6629 1066 2 0.5897 11.644343 49.502106 22.714292
6630 1066 2 0.5897 12.594418 48.557781 23.648227
6631 1067 1 -1.1794 0.611216 62.930432 4.241695
6632 1067 2 0.5897 1.557094 62.957972 3.918345
6633 1067 2 0.5897 0.000802 62.746606 3.471238
6634 1068 1 -1.1794 19.995596 66.667277 19.277012
6635 1068 2 0.5897 20.423038 67.536970 19.523848
6636 1068 2 0.5897 19.763125 66.162350 20.108280
6637 1069 1 -1.1794 20.090316 54.283148 24.216699
6638 1069 2 0.5897 20.323754 53.311588 24.256436
6639 1069 2 0.5897 20.503367 54.757265 24.994260
6640 1070 1 -1.1794 10.286901 58.908640 8.252803
6641 1070 2 0.5897 10.490770 58.120738 7.671728
6642 1070 2 0.5897 9.709044 59.552259 7.750970
6643 1071 1 -1.1794 6.312308 84.497642 5.148357
6644 1071 2 0.5897 5.995638 84.742389 4.231941
6645 1071 2 0.5897 5.697101 83.814746 5.542276
6646 1072 1 -1.1794 13.508449 48.971425 4.877332
6647 1072 2 0.5897 14.382047 49.408841 5.090623
6648 1072 2 0.5897 13.135838 48.550353 5.704290
6649 1073 1 -1.1794 18.730637 77.799136 14.901154
6650 1073 2 0.5897 18.921929 78.722676 14.568768
6651 1073 2 0.5897 17.969365 77.409394 14.382920
6652 1074 1 -1.1794 7.648724 57.595825 21.106470
6653 1074 2 0.5897 6.757127 57.386994 20.704668
6654 1074 2 0.5897 7.925594 56.848250 21.710186
6655 1075 1 -1.1794 16.403009 79.520590 1.927139
6656 1075 2 0.5897 16.632744 79.696236 0.969867
6657 1075 2 0.5897 15.681086 78.830302 1.975418
6658 1076 1 -1.1794 21.408047 96.396610 23.821851
6659 1076 2 0.5897 21.771306 95.472100 23.937280
6660 1076 2 0.5897 20.724974 96.577105 24.529547
6661 1077 1 -1.1794 11.608837 78.614604 28.991848
6662 1077 2 0.5897 11.911103 78.279486 28.099474
6663 1077 2 0.5897 10.741367 78.180362 29.234603
6664 1078 1 -1.1794 9.541404 89.354182 5.833335
6665 1078 2 0.5897 8.940093 88.995493 5.119356
6666 1078 2 0.5897 10.152767 90.040998 5.440244
6667 1079 1 -1.1794 8.094009 63.506964 16.076285
6668 1079 2 0.5897 7.886577 64.334801 15.555077
6669 1079 2 0.5897 8.490478 62.820142 15.467116
6670 1080 1 -1.1794 8.341862 80.282599 18.579118
6671 1080 2 0.5897 7.776832 81.036347 18.914683
6672 1080 2 0.5897 8.744684 79.796966 19.354937
6673 1081 1 -1.1794 3.739966 68.027325 6.133321
6674 1081 2 0.5897 3.444820 67.073623 6.191128
6675 1081 2 0.5897 3.778879 68.306622 5.173905
6676 1082 1 -1.1794 13.630663 98.185841 32.501839
6677 1082 2 0.5897 14.243196 98.005366 31.732273
6678 1082 2 0.5897 13.942598 97.675133 33.303010
6679 1083 1 -1.1794 10.814245 89.832640 12.031509
6680 1083 2 0.5897 10.075638 90.506777 12.031860
6681 1083 2 0.5897 10.434827 88.922595 11.864594
6682 1084 1 -1.1794 1.534794 56.504898 24.994756
6683 1084 2 0.5897 1.463569 57.489067 24.832464
6684 1084 2 0.5897 2.430210 56.295849 25.387857
6685 1085 1 -1.1794 5.305312 79.009426 8.383812
6686 1085 2 0.5897 4.694397 79.109490 9.169160
6687 1085 2 0.5897 6.109751 78.479710 8.652657
6688 1086 1 -1.1794 9.842788 59.776404 4.475116
6689 1086 2 0.5897 10.727295 59.324032 4.589157
6690 1086 2 0.5897 9.235570 59.515101 5.225455
6691 1087 1 -1.1794 3.967301 49.789449 19.289379
6692 1087 2 0.5897 3.856073 50.764995 19.478953
6693 1087 2 0.5897 3.689181 49.260290 20.091027
6694 1088 1 -1.1794 7.817453 70.904252 5.102827
6695 1088 2 0.5897 7.862350 70.576210 6.046423
6696 1088 2 0.5897 7.882047 71.902119 5.093425
6697 1089 1 -1.1794 1.391491 73.001645 32.203816
6698 1089 2 0.5897 1.142260 72.082606 32.509188
6699 1089 2 0.5897 2.009323 72.936404 31.420217
6700 1090 1 -1.1794 6.398352 52.674699 30.868485
6701 1090 2 0.5897 5.497751 52.240067 30.871987
6702 1090 2 0.5897 6.502586 53.232238 31.692066
6703 1091 1 -1.1794 17.506518 52.433890 30.851717
6704 1091 2 0.5897 17.765474 51.738686 30.181171
6705 1091 2 0.5897 18.328745 52.796359 31.290531
6706 1092 1 -1.1794 16.552046 69.978060 22.346626
6707 1092 2 0.5897 16.497059 70.791355 21.767378
6708 1092 2 0.5897 16.174020 69.193089 21.855794
6709 1093 1 -1.1794 13.285841 60.817360 31.280772
6710 1093 2 0.5897 12.579180 60.365467 31.825219
6711 1093 2 0.5897 12.961845 61.719905 30.997154
6712 1094 1 -1.1794 21.357339 83.434210 27.218542
6713 1094 2 0.5897 21.775242 82.526043 27.242791
6714 1094 2 0.5897 21.773211 83.973034 26.485930
6715 1095 1 -1.1794 20.340713 57.318841 11.896772
6716 1095 2 0.5897 20.573624 58.059892 11.267013
6717 1095 2 0.5897 19.938102 56.560246 11.384485
6718 1096 1 -1.1794 7.131232 72.430929 30.190194
6719 1096 2 0.5897 6.754080 71.572666 30.538246
6720 1096 2 0.5897 6.412150 72.946177 29.723890
6721 1097 1 -1.1794 12.972411 67.875008 12.812530
6722 1097 2 0.5897 13.534587 67.277373 13.384185
6723 1097 2 0.5897 12.371758 68.423828 13.393918
6724 1098 1 -1.1794 19.702663 68.980835 9.776354
6725 1098 2 0.5897 19.738830 68.279428 10.488196
6726 1098 2 0.5897 19.482791 69.864381 10.189879
6727 1099 1 -1.1794 10.245392 60.537096 33.181518
6728 1099 2 0.5897 10.465897 61.439174 32.810528
6729 1099 2 0.5897 9.673341 60.039329 32.529609
6730 1100 1 -1.1794 4.307677 78.583736 32.249174
6731 1100 2 0.5897 4.948899 77.889673 31.921896
6732 1100 2 0.5897 4.752103 79.145545 32.946925
6733 1101 1 -1.1794 13.191336 49.498322 18.304191
6734 1101 2 0.5897 12.355755 49.662034 18.828598
6735 1101 2 0.5897 13.557951 50.370553 17.980452
6736 1102 1 -1.1794 20.311241 91.846735 8.657650
6737 1102 2 0.5897 21.100890 92.445328 8.522962
6738 1102 2 0.5897 19.667134 91.969721 7.902666
6739 1103 1 -1.1794 2.508949 90.300253 2.383805
6740 1103 2 0.5897 2.917130 89.511798 2.843942
6741 1103 2 0.5897 2.803560 90.317917 1.428351
6742 1104 1 -1.1794 12.936374 69.517304 5.221324
6743 1104 2 0.5897 13.227442 69.237372 4.306492
6744 1104 2 0.5897 13.651624 69.290913 5.882509
6745 1105 1 -1.1794 20.780886 94.098076 7.083619
6746 1105 2 0.5897 20.337172 93.862829 6.218878
6747 1105 2 0.5897 21.772426 94.116856 6.955181
6748 1106 1 -1.1794 11.129227 94.328051 13.104805
6749 1106 2 0.5897 10.735471 93.442409 13.350965
6750 1106 2 0.5897 10.409071 95.021791 13.094755
6751 1107 1 -1.1794 14.526036 82.245127 15.696115
6752 1107 2 0.5897 13.949050 82.080016 16.496006
6753 1107 2 0.5897 15.473379 82.010836 15.914403
6754 1108 1 -1.1794 12.167117 81.784655 9.570698
6755 1108 2 0.5897 12.111776 81.163079 8.789300
6756 1108 2 0.5897 12.939261 82.407906 9.446798
6757 1109 1 -1.1794 14.439311 76.532148 14.085961
6758 1109 2 0.5897 15.242006 76.609148 14.677360
6759 1109 2 0.5897 14.655662 75.946243 13.304995
6760 1110 1 -1.1794 16.380570 65.078268 29.575078
6761 1110 2 0.5897 15.381077 65.054187 29.554250
6762 1110 2 0.5897 16.684894 65.943079 29.974439
6763 1111 1 -1.1794 5.365291 81.441923 28.937443
6764 1111 2 0.5897 5.363995 81.260552 29.920856
6765 1111 2 0.5897 5.192487 82.413810 28.777525
6766 1112 1 -1.1794 12.892559 75.307935 7.762111
6767 1112 2 0.5897 12.544227 76.084100 7.236534
6768 1112 2 0.5897 13.246054 74.613071 7.135848
6769 1113 1 -1.1794 1.252317 81.847942 16.065024
6770 1113 2 0.5897 1.945458 82.285993 15.492602
6771 1113 2 0.5897 0.488330 81.548834 15.493309
6772 1114 1 -1.1794 10.494662 94.482145 33.662486
6773 1114 2 0.5897 10.064777 95.113409 33.016959
6774 1114 2 0.5897 11.478593 94.445491 33.487741
6775 1115 1 -1.1794 18.944418 75.216283 21.088568
6776 1115 2 0.5897 19.519434 74.780527 21.781009
6777 1115 2 0.5897 18.411839 75.949700 21.511014
6778 1116 1 -1.1794 11.911785 71.514672 0.839353
6779 1116 2 0.5897 11.839491 71.623453 1.830786
6780 1116 2 0.5897 11.718529 70.564883 0.593279
6781 1117 1 -1.1794 14.470937 65.666588 10.064686
6782 1117 2 0.5897 14.973018 64.837557 10.310903
6783 1117 2 0.5897 14.452094 66.289497 10.846754
6784 1118 1 -1.1794 9.332169 49.173290 20.989704
6785 1118 2 0.5897 8.739913 48.554327 21.505569
6786 1118 2 0.5897 9.663608 48.709768 20.167940
6787 1119 1 -1.1794 13.055283 87.804537 25.088861
6788 1119 2 0.5897 12.916537 87.099484 24.393413
6789 1119 2 0.5897 13.084137 87.379306 25.993486
6790 1120 1 -1.1794 11.808925 59.822096 24.638401
6791 1120 2 0.5897 11.243169 59.128531 25.084368
6792 1120 2 0.5897 12.342905 59.397107 23.907477
6793 1121 1 -1.1794 21.162879 85.208551 14.157080
6794 1121 2 0.5897 21.771379 85.824466 14.657457
6795 1121 2 0.5897 20.537472 84.764177 14.798483
6796 1122 1 -1.1794 15.311545 86.192496 21.866363
6797 1122 2 0.5897 15.479308 86.509899 22.799696
6798 1122 2 0.5897 14.336587 86.003810 21.748654
6799 1123 1 -1.1794 16.675965 63.935818 0.400742
6800 1123 2 0.5897 15.877091 64.412960 0.766989
6801 1123 2 0.5897 17.306490 64.600536 0.000008
6802 1124 1 -1.1794 9.503569 82.342185 3.978353
6803 1124 2 0.5897 9.638748 81.996855 4.907047
6804 1124 2 0.5897 10.201411 83.028375 3.773027
6805 1125 1 -1.1794 13.100721 91.653508 26.959868
6806 1125 2 0.5897 12.205066 91.697224 27.402463
6807 1125 2 0.5897 13.818364 91.692433 27.655190
6808 1126 1 -1.1794 15.278463 64.910187 6.967130
6809 1126 2 0.5897 15.958577 65.592956 7.234099
6810 1126 2 0.5897 15.023787 64.363735 7.764958
6811 1127 1 -1.1794 0.732322 84.416099 12.334363
6812 1127 2 0.5897 0.116775 84.773437 13.036796
6813 1127 2 0.5897 1.666716 84.393986 12.689915
6814 1128 1 -1.1794 4.831047 65.065071 8.297646
6815 1128 2 0.5897 5.127477 64.143521 8.046894
6816 1128 2 0.5897 4.261332 65.442190 7.567437
6817 1129 1 -1.1794 8.257369 55.842655 25.472731
6818 1129 2 0.5897 7.600576 56.463348 25.900941
6819 1129 2 0.5897 7.772712 55.054428 25.093513
6820 1130 1 -1.1794 2.017810 83.975713 9.947646
6821 1130 2 0.5897 1.131125 84.380432 10.171239
6822 1130 2 0.5897 2.623458 84.040904 10.740703
6823 1131 1 -1.1794 0.000594 77.340546 30.015575
6824 1131 2 0.5897 0.006721 78.267688 30.390234
6825 1131 2 0.5897 0.202219 76.685460 30.743730
6826 1132 1 -1.1794 16.766144 85.024404 33.226447
6827 1132 2 0.5897 16.116753 84.374077 32.832283
6828 1132 2 0.5897 17.490924 85.214568 32.564229
6829 1133 1 -1.1794 10.863675 95.439488 16.211538
6830 1133 2 0.5897 11.707442 95.307772 16.731833
6831 1133 2 0.5897 10.093050 95.526978 16.842793
6832 1134 1 -1.1794 21.714909 69.177338 8.121188
6833 1134 2 0.5897 21.645082 68.385383 8.727762
6834 1134 2 0.5897 21.772314 70.012319 8.668464
6835 1135 1 -1.1794 3.740823 69.056494 28.351086
6836 1135 2 0.5897 3.028184 69.617914 27.930428
6837 1135 2 0.5897 4.269054 68.597879 27.636492
6838 1136 1 -1.1794 7.208545 63.914600 5.762223
6839 1136 2 0.5897 6.583082 63.243598 5.364037
6840 1136 2 0.5897 7.730468 64.357456 5.033200
6841 1137 1 -1.1794 12.712216 75.035224 13.787757
6842 1137 2 0.5897 12.372150 75.453490 12.945493
6843 1137 2 0.5897 13.075628 74.125885 13.585189
6844 1138 1 -1.1794 20.030684 73.269918 26.383821
6845 1138 2 0.5897 20.739644 73.321026 27.087216
6846 1138 2 0.5897 19.234031 72.787485 26.747967
6847 1139 1 -1.1794 15.105534 93.050067 24.968718
6848 1139 2 0.5897 15.181331 94.001994 25.265519
6849 1139 2 0.5897 14.316274 92.624688 25.411575
6850 1140 1 -1.1794 19.484726 74.538109 32.369547
6851 1140 2 0.5897 18.973120 74.981271 31.633431
6852 1140 2 0.5897 20.464961 74.614436 32.187027
6853 1141 1 -1.1794 7.853797 93.676322 3.364088
6854 1141 2 0.5897 8.390171 94.027412 4.131577
6855 1141 2 0.5897 6.937685 93.431870 3.681866
6856 1142 1 -1.1794 3.439492 84.277179 16.462633
6857 1142 2 0.5897 3.374613 84.800200 17.312480
6858 1142 2 0.5897 3.575151 83.309713 16.676193
6859 1143 1 -1.1794 4.255096 85.166820 23.784057
6860 1143 2 0.5897 4.709502 86.046549 23.924026
6861 1143 2 0.5897 3.533202 85.269696 23.099743
6862 1144 1 -1.1794 8.122948 74.299280 12.357346
6863 1144 2 0.5897 8.500138 74.452191 13.270771
6864 1144 2 0.5897 8.826863 74.482490 11.671097
6865 1145 1 -1.1794 5.532719 65.498875 24.000644
6866 1145 2 0.5897 5.490529 66.495288 23.927288
6867 1145 2 0.5897 6.106685 65.134670 23.267215
6868 1146 1 -1.1794 21.615405 72.795456 22.267672
6869 1146 2 0.5897 21.774994 73.777762 22.365681
6870 1146 2 0.5897 20.829202 72.643636 21.668643
6871 1147 1 -1.1794 11.229663 73.854267 7.902380
6872 1147 2 0.5897 10.317299 73.843192 8.311610
6873 1147 2 0.5897 11.147834 73.894447 6.906544
6874 1148 1 -1.1794 11.009761 62.149929 29.472205
6875 1148 2 0.5897 10.196692 62.729776 29.524120
6876 1148 2 0.5897 11.812686 62.717327 29.289530
6877 1149 1 -1.1794 5.741175 81.655422 22.383840
6878 1149 2 0.5897 6.559299 82.176544 22.626952
6879 1149 2 0.5897 5.057148 82.271731 21.993621
6880 1150 1 -1.1794 9.520921 79.208819 2.751491
6881 1150 2 0.5897 8.684118 79.522962 2.303078
6882 1150 2 0.5897 10.211296 78.998657 2.059238
6883 1151 1 -1.1794 0.624903 79.699255 4.298469
6884 1151 2 0.5897 0.161091 80.527949 3.985188
6885 1151 2 0.5897 0.000074 78.921491 4.230121
6886 1152 1 -1.1794 14.307130 54.402051 30.088179
6887 1152 2 0.5897 14.717529 54.039171 29.251584
6888 1152 2 0.5897 14.985441 54.944118 30.584221
6889 1153 1 -1.1794 5.787384 58.936206 26.110309
6890 1153 2 0.5897 5.493825 59.082813 25.165677
6891 1153 2 0.5897 6.696174 58.518991 26.115987
6892 1154 1 -1.1794 5.554157 54.938015 32.800472
6893 1154 2 0.5897 5.917144 55.295439 33.660988
6894 1154 2 0.5897 4.891557 55.585352 32.423754
6895 1155 1 -1.1794 0.979653 59.173543 1.432102
6896 1155 2 0.5897 0.000354 59.206953 1.631743
6897 1155 2 0.5897 1.438876 59.936237 1.887528
6898 1156 1 -1.1794 20.924418 61.975238 33.033596
6899 1156 2 0.5897 20.166650 61.574138 33.548287
6900 1156 2 0.5897 21.538544 62.452532 33.662117
6901 1157 1 -1.1794 1.482764 66.351261 4.607035
6902 1157 2 0.5897 0.961719 65.710792 5.171226
6903 1157 2 0.5897 2.315553 65.905276 4.279074
6904 1158 1 -1.1794 0.086144 96.967178 9.601792
6905 1158 2 0.5897 0.735832 97.625635 9.221873
6906 1158 2 0.5897 0.004017 96.185376 8.983697
6907 1159 1 -1.1794 9.447490 54.188949 30.141254
6908 1159 2 0.5897 8.458006 54.046068 30.163752
6909 1159 2 0.5897 9.909338 53.307627 30.041419
6910 1160 1 -1.1794 19.693030 67.713501 29.203717
6911 1160 2 0.5897 20.206612 67.543027 28.362782
6912 1160 2 0.5897 20.211894 68.334653 29.791042
6913 1161 1 -1.1794 15.075628 88.513210 16.628644
6914 1161 2 0.5897 14.985531 87.539467 16.419580
6915 1161 2 0.5897 14.278801 88.817119 17.150856
6916 1162 1 -1.1794 19.928574 68.712294 0.077196
6917 1162 2 0.5897 20.003701 69.166926 0.964701
6918 1162 2 0.5897 20.638640 68.012398 0.000054
6919 1163 1 -1.1794 5.986509 68.749225 30.640326
6920 1163 2 0.5897 4.989429 68.673476 30.650052
6921 1163 2 0.5897 6.270377 69.490954 31.247992
6922 1164 1 -1.1794 7.548257 95.493332 23.423254
6923 1164 2 0.5897 8.355969 95.557218 22.837149
6924 1164 2 0.5897 6.728068 95.429725 22.854709
6925 1165 1 -1.1794 0.799967 89.200580 23.978320
6926 1165 2 0.5897 0.001457 89.802510 23.970520
6927 1165 2 0.5897 0.544698 88.303528 23.617576
6928 1166 1 -1.1794 17.951514 85.639124 15.815059
6929 1166 2 0.5897 17.252662 85.471128 16.510316
6930 1166 2 0.5897 17.592154 86.269192 15.126674
6931 1167 1 -1.1794 20.680982 59.670126 19.876693
6932 1167 2 0.5897 19.778509 59.383511 20.198240
6933 1167 2 0.5897 20.849765 60.615289 20.156298
6934 1168 1 -1.1794 7.220351 53.524177 6.880011
6935 1168 2 0.5897 8.202338 53.397830 6.739514
6936 1168 2 0.5897 6.806635 53.879070 6.041625
6937 1169 1 -1.1794 18.077612 83.901143 12.777649
6938 1169 2 0.5897 18.576271 83.961544 13.642340
6939 1169 2 0.5897 17.098371 83.818370 12.962678
6940 1170 1 -1.1794 15.059723 48.959971 13.311344
6941 1170 2 0.5897 14.584649 48.550014 12.532730
6942 1170 2 0.5897 15.482785 49.820670 13.028120
6943 1171 1 -1.1794 12.751500 79.622488 11.517061
6944 1171 2 0.5897 12.063898 79.135677 10.978341
6945 1171 2 0.5897 13.109411 80.390062 10.985337
6946 1172 1 -1.1794 11.511596 91.718848 19.423082
6947 1172 2 0.5897 12.225512 91.304690 19.987703
6948 1172 2 0.5897 10.624015 91.600624 19.868304
6949 1173 1 -1.1794 14.673854 48.615846 20.477009
6950 1173 2 0.5897 15.171552 48.555008 21.342222
6951 1173 2 0.5897 13.690708 48.635966 20.658722
6952 1174 1 -1.1794 15.637370 82.450496 22.885584
6953 1174 2 0.5897 15.154191 83.305280 22.696156
6954 1174 2 0.5897 16.061370 82.113903 22.044794
6955 1175 1 -1.1794 19.812101 81.351346 19.537966
6956 1175 2 0.5897 20.777524 81.243762 19.775420
6957 1175 2 0.5897 19.730601 81.935018 18.730076
6958 1176 1 -1.1794 8.829729 97.000813 26.159689
6959 1176 2 0.5897 9.451553 97.686047 25.780493
6960 1176 2 0.5897 7.995820 96.966316 25.608867
6961 1177 1 -1.1794 15.236986 91.045951 11.855714
6962 1177 2 0.5897 15.510530 91.821723 11.287075
6963 1177 2 0.5897 14.831807 90.336497 11.279081
6964 1178 1 -1.1794 13.621878 66.423686 7.575059
6965 1178 2 0.5897 12.666342 66.715438 7.617858
6966 1178 2 0.5897 14.011598 66.687081 6.692595
6967 1179 1 -1.1794 3.294826 85.275045 20.712969
6968 1179 2 0.5897 4.068996 84.669295 20.529314
6969 1179 2 0.5897 2.557073 84.752747 21.140667
6970 1180 1 -1.1794 2.526335 82.442078 22.216980
6971 1180 2 0.5897 2.967192 81.548551 22.302154
6972 1180 2 0.5897 3.125049 83.146796 22.597656
6973 1181 1 -1.1794 6.305213 83.976961 21.388704
6974 1181 2 0.5897 5.775491 84.494441 22.060723
6975 1181 2 0.5897 7.273878 84.003775 21.635622
6976 1182 1 -1.1794 20.502404 82.568686 29.049397
6977 1182 2 0.5897 20.190777 83.258687 29.702687
6978 1182 2 0.5897 20.952929 81.823540 29.541114
6979 1183 1 -1.1794 20.917357 73.866020 15.376324
6980 1183 2 0.5897 20.058105 73.460265 15.687852
6981 1183 2 0.5897 21.295722 74.442363 16.100664
6982 1184 1 -1.1794 18.159052 54.278460 14.196003
6983 1184 2 0.5897 17.736889 54.361133 15.098746
6984 1184 2 0.5897 17.532502 53.804670 13.577167
6985 1185 1 -1.1794 7.601511 86.753825 5.742708
6986 1185 2 0.5897 8.140824 86.826872 4.903776
6987 1185 2 0.5897 7.477727 87.663293 6.139628
6988 1186 1 -1.1794 8.502507 57.276456 12.922370
6989 1186 2 0.5897 9.263636 57.841499 12.603923
6990 1186 2 0.5897 8.471054 57.292166 13.921751
6991 1187 1 -1.1794 10.765147 60.873313 12.433093
6992 1187 2 0.5897 10.472008 60.116395 11.849017
6993 1187 2 0.5897 11.052731 61.642568 11.862530
6994 1188 1 -1.1794 1.804791 97.836454 14.520928
6995 1188 2 0.5897 1.536524 98.549982 13.873695
6996 1188 2 0.5897 1.679118 96.938839 14.098443
6997 1189 1 -1.1794 20.948459 53.136525 29.129400
6998 1189 2 0.5897 20.237216 52.538024 28.760713
6999 1189 2 0.5897 21.570400 53.407026 28.394541
7000 1190 1 -1.1794 19.194041 77.104264 5.192805
7001 1190 2 0.5897 19.294725 76.189325 4.801973
7002 1190 2 0.5897 19.114402 77.774854 4.455264
7003 1191 1 -1.1794 10.848818 53.149746 7.156980
7004 1191 2 0.5897 10.571635 54.043689 6.804793
7005 1191 2 0.5897 10.089542 52.740945 7.663321
7006 1192 1 -1.1794 7.455219 77.704204 32.778833
7007 1192 2 0.5897 6.689009 77.923474 33.382856
7008 1192 2 0.5897 7.183137 77.852466 31.828049
7009 1193 1 -1.1794 14.837416 60.914712 1.924190
7010 1193 2 0.5897 14.708936 59.928325 1.821554
7011 1193 2 0.5897 14.629771 61.181754 2.865238
7012 1194 1 -1.1794 12.131576 51.580056 26.857433
7013 1194 2 0.5897 12.757466 52.220484 27.302531
7014 1194 2 0.5897 11.521629 51.180206 27.541600
7015 1195 1 -1.1794 10.800654 94.818326 5.374426
7016 1195 2 0.5897 11.239262 94.296060 6.105768
7017 1195 2 0.5897 9.821323 94.895740 5.561289
7018 1196 1 -1.1794 5.310612 58.864497 32.594092
7019 1196 2 0.5897 4.441920 59.296867 32.835817
7020 1196 2 0.5897 5.667852 59.279222 31.757203
7021 1197 1 -1.1794 10.783967 69.292141 33.096240
7022 1197 2 0.5897 11.263712 70.062906 33.515483
7023 1197 2 0.5897 10.969104 68.460066 33.619094
7024 1198 1 -1.1794 4.662180 76.212144 8.304999
7025 1198 2 0.5897 5.605033 76.341051 8.612264
7026 1198 2 0.5897 4.168074 75.653190 8.970903
7027 1199 1 -1.1794 16.182848 68.286413 9.038920
7028 1199 2 0.5897 16.244283 67.489860 8.437480
7029 1199 2 0.5897 17.081708 68.718371 9.112838
7030 1200 1 -1.1794 13.110607 65.277638 33.135785
7031 1200 2 0.5897 12.166541 64.953220 33.076689
7032 1200 2 0.5897 13.116221 66.237878 33.414907
7033 1201 1 -1.1794 1.587390 49.352042 11.895365
7034 1201 2 0.5897 2.426002 49.799681 11.584963
7035 1201 2 0.5897 0.945143 49.281392 11.132130
7036 1202 1 -1.1794 0.315069 87.743537 15.563739
7037 1202 2 0.5897 0.932103 87.770447 16.350216
7038 1202 2 0.5897 0.851170 87.694555 14.721008
7039 1203 1 -1.1794 3.300709 60.528361 9.846299
7040 1203 2 0.5897 2.439500 61.035037 9.806313
7041 1203 2 0.5897 3.302088 59.817366 9.143103
7042 1204 1 -1.1794 11.685763 95.804081 23.712677
7043 1204 2 0.5897 12.427366 96.375303 24.064431
7044 1204 2 0.5897 10.822678 96.305896 23.769838
7045 1205 1 -1.1794 16.163086 74.367287 24.164381
7046 1205 2 0.5897 15.266530 74.177759 24.564714
7047 1205 2 0.5897 16.728413 74.855717 24.829093
7048 1206 1 -1.1794 16.063415 71.307447 33.659733
7049 1206 2 0.5897 16.292871 72.129454 33.138529
7050 1206 2 0.5897 15.900305 70.548093 33.029831
7051 1207 1 -1.1794 0.603236 53.501784 1.866254
7052 1207 2 0.5897 1.098894 54.280842 1.482338
7053 1207 2 0.5897 0.687150 52.717582 1.251449
7054 1208 1 -1.1794 19.319597 97.691396 22.967791
7055 1208 2 0.5897 18.945486 98.549553 22.616213
7056 1208 2 0.5897 18.835314 97.434512 23.804141
7057 1209 1 -1.1794 7.497204 51.115704 26.451150
7058 1209 2 0.5897 8.375876 50.739133 26.157671
7059 1209 2 0.5897 6.906695 51.243932 25.654372
7060 1210 1 -1.1794 10.994913 79.156481 31.628378
7061 1210 2 0.5897 10.292217 79.606777 32.179243
7062 1210 2 0.5897 11.565601 78.585211 32.218264
7063 1211 1 -1.1794 17.472981 51.390960 14.144089
7064 1211 2 0.5897 16.770664 51.567487 14.833719
7065 1211 2 0.5897 18.341583 51.785039 14.444476
7066 1212 1 -1.1794 10.935644 91.748689 25.607947
7067 1212 2 0.5897 11.733120 91.572233 25.030976
7068 1212 2 0.5897 10.138175 91.922629 25.030203
7069 1213 1 -1.1794 16.454877 71.620023 25.408273
7070 1213 2 0.5897 17.142793 71.789876 24.702636
7071 1213 2 0.5897 16.526525 72.319891 26.118943
7072 1214 1 -1.1794 11.363244 86.042340 26.361778
7073 1214 2 0.5897 11.909761 85.559073 25.677840
7074 1214 2 0.5897 10.767847 86.703908 25.905895
7075 1215 1 -1.1794 17.889648 94.442718 24.431070
7076 1215 2 0.5897 18.203540 95.366788 24.212971
7077 1215 2 0.5897 18.680067 93.850287 24.586836
7078 1216 1 -1.1794 16.563058 86.406639 7.617645
7079 1216 2 0.5897 15.990422 86.756458 8.359073
7080 1216 2 0.5897 17.394503 86.003815 8.000308
7081 1217 1 -1.1794 3.553540 50.108384 3.951247
7082 1217 2 0.5897 3.246059 49.196808 3.678326
7083 1217 2 0.5897 2.888192 50.510058 4.580508
7084 1218 1 -1.1794 4.396866 61.642934 27.086567
7085 1218 2 0.5897 5.388434 61.654008 26.957452
7086 1218 2 0.5897 4.007348 62.500347 26.750238
7087 1219 1 -1.1794 6.318185 65.569147 31.495309
7088 1219 2 0.5897 6.936407 64.783184 31.487351
7089 1219 2 0.5897 5.436043 65.303291 31.106533
7090 1220 1 -1.1794 5.851892 89.075256 17.942465
7091 1220 2 0.5897 5.006995 89.069024 18.477358
7092 1220 2 0.5897 6.626861 88.872558 18.541077
7093 1221 1 -1.1794 18.340507 86.073995 5.479317
7094 1221 2 0.5897 17.681916 85.408040 5.829692
7095 1221 2 0.5897 18.652849 86.659284 6.227568
7096 1222 1 -1.1794 9.425882 97.929868 33.592997
7097 1222 2 0.5897 9.248468 97.572482 32.676046
7098 1222 2 0.5897 10.383581 98.209159 33.662345
7099 1223 1 -1.1794 2.629023 70.674595 31.515362
7100 1223 2 0.5897 3.406478 70.063535 31.366467
7101 1223 2 0.5897 2.188352 70.872730 30.639833
7102 1224 1 -1.1794 1.990368 51.287180 28.317636
7103 1224 2 0.5897 2.502256 50.954418 27.525651
7104 1224 2 0.5897 1.494338 52.118951 28.068414
7105 1225 3 0 3.044471 88.147515 15.049163
7106 1226 3 0 18.023049 93.836256 30.535586
7107 1227 3 0 21.771449 76.315773 32.664660
7108 1228 3 0 17.104061 71.996170 5.522688
7109 1229 3 0 4.995530 93.035175 27.614690
7110 1230 3 0 16.730949 87.725164 30.199302
7111 1231 3 0 5.286412 90.962284 19.562061
7112 1232 3 0 18.842039 73.919810 5.126300
7113 1233 3 0 11.900315 95.742635 0.020138
7114 1234 3 0 0.939296 87.272350 19.121491
7115 1235 3 0 5.107164 92.890081 31.535273
7116 1236 3 0 11.778232 50.673024 1.180702
7117 1237 3 0 19.807382 65.389112 28.154538
7118 1238 3 0 20.781061 49.437172 3.557050
7119 1239 3 0 6.846858 70.681124 26.401967
7120 1240 3 0 11.483241 64.638582 26.943105
7121 1241 3 0 13.091622 50.243042 30.484065
7122 1242 3 0 0.000705 78.412759 1.932676
7123 1243 3 0 20.103508 97.714259 10.960047
7124 1244 3 0 15.803201 82.980952 17.874654
7125 1245 3 0 4.194877 66.728530 29.821284
7126 1246 3 0 6.766490 79.296208 16.874332
7127 1247 3 0 18.215932 54.573959 5.480093
7128 1248 3 0 10.827232 69.582161 24.336970
7129 1249 3 0 2.871205 55.661914 1.414173
7130 1250 3 0 20.788936 71.405463 13.761596
7131 1251 3 0 11.726410 98.317516 2.050837
7132 1252 3 0 6.414105 69.045109 27.980702
7133 1253 3 0 20.187388 82.176326 4.244826
7134 1254 3 0 0.000136 81.328696 31.887995
7135 1255 3 0 0.002625 59.702567 17.023022
7136 1256 3 0 15.722727 66.909052 32.360743
7137 1257 3 0 6.843015 54.136897 9.952800
7138 1258 3 0 21.041533 64.640646 33.441035
7139 1259 3 0 15.437829 91.378452 1.557382
7140 1260 3 0 8.959172 70.637510 7.937429
7141 1261 3 0 13.053960 77.413468 24.990377
7142 1262 3 0 9.385449 98.361093 20.143143
7143 1263 3 0 2.768092 56.660240 13.278612
7144 1264 3 0 1.384857 90.089515 17.523891
7145 1265 3 0 6.795393 89.353525 4.784610
7146 1266 3 0 19.738605 54.790278 9.783230
7147 1267 3 0 10.729038 88.580199 32.117454
7148 1268 3 0 9.712608 59.109507 14.834377
7149 1269 3 0 7.888639 74.078155 4.590363
7150 1270 3 0 2.857780 87.086694 4.400412
7151 1271 3 0 5.712326 72.105916 20.615235
7152 1272 3 0 8.049310 77.623758 5.134368
7153 1273 3 0 3.739137 72.586356 13.651206
7154 1274 3 0 3.749059 98.262129 13.258058
7155 1275 3 0 11.249452 93.655998 21.744440
7156 1276 3 0 3.589476 70.955053 12.047436
7157 1277 3 0 21.859300 86.567384 16.733441
7158 1278 3 0 14.809944 80.198588 17.327287
7159 1279 3 0 1.511793 95.743888 7.370000
7160 1280 3 0 4.372908 85.916675 33.583851
7161 1281 3 0 13.027082 89.383757 26.856170
7162 1282 3 0 10.025234 51.646308 11.814370
7163 1283 3 0 5.623270 61.973408 29.235448
7164 1284 3 0 13.329156 57.645001 24.915027
7165 1285 3 0 8.111297 59.222784 27.655443
7166 1286 3 0 18.524359 62.401263 10.380276
7167 1287 3 0 19.036392 76.220413 24.072113
7168 1288 3 0 9.126927 78.264426 30.883828
7169 1289 3 0 15.766735 74.008038 21.939056
7170 1290 3 0 5.277213 98.514060 10.353318
7171 1291 3 0 3.168756 82.903567 29.857254
7172 1292 3 0 0.060947 78.429402 8.995850
7173 1293 3 0 11.993934 78.183475 17.583581
7174 1294 3 0 14.904206 87.505793 12.333819
7175 1295 3 0 0.433958 82.927967 3.738327
7176 1296 3 0 5.439279 53.149989 3.208057
7177 1297 3 0 3.598790 58.008454 24.549327
7178 1298 3 0 16.095039 70.620576 28.158847
7179 1299 3 0 2.276333 88.340772 0.546644
7180 1300 3 0 2.115614 97.231279 20.691663
7181 1301 3 0 15.351035 51.199300 16.669133
7182 1302 3 0 19.917861 54.702845 27.537441
7183 1303 3 0 9.459151 69.383228 9.791885
7184 1304 3 0 7.147930 78.262688 3.243741
7185 1305 3 0 3.392255 66.416822 24.581776
7186 1306 3 0 7.287555 59.009353 15.203972
7187 1307 3 0 13.287116 59.232219 4.341279
7188 1308 3 0 14.646762 95.144998 20.379072
7189 1309 3 0 18.659423 91.447074 28.524200
7190 1310 3 0 6.672897 77.445170 23.557341
7191 1311 3 0 18.748298 70.802605 13.161361
7192 1312 3 0 15.826863 55.010400 4.688307
7193 1313 3 0 10.071930 48.643719 10.247423
7194 1314 3 0 19.701883 72.233730 32.507308
7195 1315 3 0 17.319604 74.901751 8.382772
7196 1316 3 0 0.476268 59.191511 25.814493
7197 1317 3 0 20.738111 57.264144 15.545853
7198 1318 3 0 5.948768 64.230104 16.619091
7199 1319 3 0 11.680623 89.219075 10.071776
7200 1320 3 0 13.906072 50.535722 6.920284
7201 1321 3 0 3.384668 56.384879 6.715112
7202 1322 3 0 15.597280 77.862450 12.773985
7203 1323 3 0 9.542601 64.881401 19.820731
7204 1324 3 0 3.624671 90.072947 31.940574
7205 1325 3 0 12.650608 58.412356 19.984101
7206 1326 3 0 8.904517 72.994936 20.907609
7207 1327 3 0 17.074849 78.656413 4.683964
7208 1328 3 0 20.486455 61.946055 15.459920
7209 1329 3 0 21.204382 75.919610 3.649994
7210 1330 3 0 12.382595 54.856202 24.166878
7211 1331 3 0 12.461379 66.953413 15.277796
7212 1332 3 0 5.534859 91.960958 8.717301
7213 1333 3 0 9.262690 79.007455 17.033239
7214 1334 3 0 9.130925 63.821947 25.867265
7215 1335 3 0 20.078967 90.348515 21.361015
7216 1336 3 0 6.122853 83.635649 10.529903
7217 1337 3 0 1.318941 71.332704 16.800012
7218 1338 3 0 6.767184 94.012515 20.447304
7219 1339 3 0 17.867192 68.750397 27.554896
7220 1340 3 0 7.724423 92.832012 23.602186
7221 1341 3 0 19.400377 95.048439 8.503617
7222 1342 3 0 13.031675 62.031777 20.764888
7223 1343 3 0 11.407954 54.076891 9.876299
7224 1344 3 0 21.770528 95.746733 31.483300
7225 1345 3 0 3.350481 96.271837 28.022579
7226 1346 3 0 3.389285 77.515555 10.281762
7227 1347 3 0 11.829160 95.175550 9.080219
7228 1348 3 0 15.432154 68.731110 26.109636
7229 1349 3 0 2.898841 78.611873 23.841782
7230 1350 3 0 4.100439 52.403136 15.112462
7231 1351 3 0 3.510345 64.316402 32.566439
7232 1352 3 0 17.286042 63.336507 17.301642
7233 1353 3 0 11.644195 76.745216 15.352903
7234 1354 3 0 12.864311 79.676371 16.131412
7235 1355 3 0 5.580818 64.009574 26.583165
7236 1356 3 0 3.605670 61.684670 4.830898
7237 1357 3 0 16.765271 57.368368 11.351871
7238 1358 3 0 19.233685 58.688936 4.401233
7239 1359 3 0 0.634989 87.399117 2.998703
7240 1360 3 0 5.248465 86.198462 14.097053
7241 1361 3 0 15.601385 81.264495 29.910505
7242 1362 3 0 12.374307 62.607494 33.652785
7243 1363 3 0 11.694283 93.171625 16.221449
7244 1364 3 0 5.632116 56.382025 6.741671
7245 1365 3 0 16.994875 70.313494 19.488423
7246 1366 3 0 11.607717 60.358540 14.398674
7247 1367 3 0 5.776099 76.232578 20.235035
7248 1368 3 0 14.281790 50.848043 0.465196
7249 1369 3 0 20.370551 51.050971 2.119204
7250 1370 3 0 8.578168 94.370888 14.891761
7251 1371 3 0 14.235631 54.408501 17.982764
7252 1372 3 0 16.511703 96.129176 21.003687
7253 1373 3 0 1.605769 67.379548 20.126448
7254 1374 3 0 11.905405 77.481096 21.681257
7255 1375 3 0 9.203994 61.521142 13.841182
7256 1376 3 0 2.259556 74.933908 10.453818
7257 1377 3 0 3.537796 98.450887 28.695926
7258 1378 3 0 16.420015 61.360501 16.382243
7259 1379 3 0 6.230475 86.877728 22.577173
7260 1380 3 0 11.404057 94.305053 18.768479
7261 1381 3 0 16.683654 97.792194 16.052555
7262 1382 3 0 16.286064 66.292433 13.209989
7263 1383 3 0 15.341752 85.705804 17.580959
7264 1384 3 0 10.056286 90.820316 16.914001
7265 1385 3 0 10.029633 76.766653 17.164748
7266 1386 3 0 2.889991 66.666645 1.951614
7267 1387 3 0 9.934246 84.630626 25.475647
7268 1388 3 0 5.154748 48.551101 12.813275
7269 1389 3 0 15.043899 96.927914 9.361557
7270 1390 3 0 2.035221 84.495846 19.026114
7271 1391 3 0 21.775000 64.151580 27.135826
7272 1392 3 0 14.784185 48.542316 23.628608
7273 1393 3 0 15.841193 56.364490 33.072653
7274 1394 3 0 9.323563 77.067492 8.812125
7275 1395 3 0 8.431464 95.188829 9.172584
7276 1396 3 0 3.594253 66.692830 10.273937
7277 1397 3 0 19.399194 69.774654 31.426677
7278 1398 3 0 14.310356 69.565165 8.081749
7279 1399 3 0 1.083423 92.510288 19.307415
7280 1400 3 0 3.721764 80.514417 19.753793
7281 1401 3 0 21.762015 65.623175 17.458574
7282 1402 3 0 0.946729 89.933918 27.159647
7283 1403 3 0 14.377103 78.537821 23.639353
7284 1404 3 0 17.481429 57.353388 31.973381
7285 1405 3 0 9.305897 65.474456 24.360412
7286 1406 3 0 6.025000 77.685327 27.623149
7287 1407 3 0 7.857398 53.533459 12.671002
7288 1408 3 0 19.926568 58.978468 26.495034
7289 1409 3 0 20.098120 97.553114 2.554722
7290 1410 3 0 20.535305 63.408714 12.390945
7291 1411 3 0 21.769627 73.264791 5.704779
7292 1412 3 0 18.941518 55.792419 16.258299
7293 1413 3 0 15.182202 92.343090 16.153815
7294 1414 3 0 9.546936 49.416422 23.362507
7295 1415 3 0 13.024871 74.333126 11.117315
7296 1416 3 0 0.002354 93.604844 4.805191
7297 1417 3 0 17.763331 76.568612 2.956984
7298 1418 3 0 14.638390 52.896686 21.664497
7299 1419 3 0 8.324950 64.855194 7.412068
7300 1420 3 0 8.259116 72.365758 26.464237
7301 1421 3 0 4.240881 61.202706 0.436468
7302 1422 3 0 17.935348 57.531149 1.062819
7303 1423 3 0 14.061368 63.483151 11.785897
7304 1424 3 0 17.290866 61.390907 23.016920

Bonds

1 1 1 2
2 1 1 3
4 1 4 5
6 1 4 6
8 1 7 8
10 1 7 9
12 1 10 11
14 1 10 12
16 1 13 14
18 1 13 15
19 1 16 17
3 1 16 18
5 1 19 20
7 1 19 21
9 1 22 23
11 1 22 24
13 1 25 26
15 1 25 27
17 1 28 29
20 1 28 30
21 1 31 32
22 1 31 33
23 1 34 35
24 1 34 36
25 1 37 38
26 1 37 39
27 1 40 41
28 1 40 42
29 1 43 44
30 1 43 45
31 1 46 47
32 1 46 48
33 1 49 50
34 1 49 51
35 1 52 53
36 1 52 54
37 1 55 56
38 1 55 57
39 1 58 59
40 1 58 60
41 1 61 62
42 1 61 63
43 1 64 65
44 1 64 66
45 1 67 68
46 1 67 69
47 1 70 71
48 1 70 72
49 1 73 74
50 1 73 75
51 1 76 77
52 1 76 78
53 1 79 80
54 1 79 81
55 1 82 83
56 1 82 84
57 1 85 86
58 1 85 87
59 1 88 89
60 1 88 90
61 1 91 92
62 1 91 93
63 1 94 95
64 1 94 96
65 1 97 98
66 1 97 99
67 1 100 101
68 1 100 102
69 1 103 104
70 1 103 105
71 1 106 107
72 1 106 108
73 1 109 110
74 1 109 111
75 1 112 113
76 1 112 114
77 1 115 116
78 1 115 117
79 1 118 119
80 1 118 120
81 1 121 122
82 1 121 123
83 1 124 125
84 1 124 126
85 1 127 128
86 1 127 129
87 1 130 131
88 1 130 132
89 1 133 134
90 1 133 135
91 1 136 137
92 1 136 138
93 1 147 148
94 1 147 149
96 1 150 151
98 1 150 152
100 1 153 154
102 1 153 155
104 1 156 157
106 1 156 158
108 1 159 160
110 1 159 161
111 1 162 163
95 1 162 164
97 1 165 166
99 1 165 167
101 1 168 169
103 1 168 170
105 1 171 172
107 1 171 173
109 1 174 175
112 1 174 176
113 1 177 178
114 1 177 179
115 1 180 181
116 1 180 182
117 1 183 184
118 1 183 185
119 1 186 187
120 1 186 188
121 1 189 190
122 1 189 191
123 1 192 193
124 1 192 194
125 1 195 196
126 1 195 197
127 1 198 199
128 1 198 200
129 1 201 202
130 1 201 203
131 1 204 205
132 1 204 206
133 1 207 208
134 1 207 209
135 1 210 211
136 1 210 212
137 1 213 214
138 1 213 215
139 1 216 217
140 1 216 218
141 1 219 220
142 1 219 221
143 1 222 223
144 1 222 224
145 1 225 226
146 1 225 227
147 1 228 229
148 1 228 230
149 1 231 232
150 1 231 233
151 1 234 235
152 1 234 236
153 1 237 238
154 1 237 239
155 1 240 241
156 1 240 242
157 1 243 244
158 1 243 245
159 1 246 247
160 1 246 248
161 1 249 250
162 1 249 251
163 1 252 253
164 1 252 254
165 1 255 256
166 1 255 257
167 1 258 259
168 1 258 260
169 1 261 262
170 1 261 263
171 1 264 265
172 1 264 266
173 1 267 268
174 1 267 269
175 1 270 271
176 1 270 272
177 1 273 274
178 1 273 275
179 1 276 277
180 1 276 278
181 1 279 280
182 1 279 281
183 1 282 283
184 1 282 284
185 1 293 294
186 1 293 295
188 1 296 297
190 1 296 298
192 1 299 300
194 1 299 301
196 1 302 303
198 1 302 304
200 1 305 306
202 1 305 307
203 1 308 309
187 1 308 310
189 1 311 312
191 1 311 313
193 1 314 315
195 1 314 316
197 1 317 318
199 1 317 319
201 1 320 321
204 1 320 322
205 1 323 324
206 1 323 325
207 1 326 327
208 1 326 328
209 1 329 330
210 1 329 331
211 1 332 333
212 1 332 334
213 1 335 336
214 1 335 337
215 1 338 339
216 1 338 340
217 1 341 342
218 1 341 343
219 1 344 345
220 1 344 346
221 1 347 348
222 1 347 349
223 1 350 351
224 1 350 352
225 1 353 354
226 1 353 355
227 1 356 357
228 1 356 358
229 1 359 360
230 1 359 361
231 1 362 363
232 1 362 364
233 1 365 366
234 1 365 367
235 1 368 369
236 1 368 370
237 1 371 372
238 1 371 373
239 1 374 375
240 1 374 376
241 1 377 378
242 1 377 379
243 1 380 381
244 1 380 382
245 1 383 384
246 1 383 385
247 1 386 387
248 1 386 388
249 1 389 390
250 1 389 391
251 1 392 393
252 1 392 394
253 1 395 396
254 1 395 397
255 1 398 399
256 1 398 400
257 1 401 402
258 1 401 403
259 1 404 405
260 1 404 406
261 1 407 408
262 1 407 409
263 1 410 411
264 1 410 412
265 1 413 414
266 1 413 415
267 1 416 417
268 1 416 418
269 1 419 420
270 1 419 421
271 1 422 423
272 1 422 424
273 1 425 426
274 1 425 427
275 1 428 429
276 1 428 430
277 1 439 440
278 1 439 441
280 1 442 443
282 1 442 444
284 1 445 446
286 1 445 447
288 1 448 449
290 1 448 450
292 1 451 452
294 1 451 453
295 1 454 455
279 1 454 456
281 1 457 458
283 1 457 459
285 1 460 461
287 1 460 462
289 1 463 464
291 1 463 465
293 1 466 467
296 1 466 468
297 1 469 470
298 1 469 471
299 1 472 473
300 1 472 474
301 1 475 476
302 1 475 477
303 1 478 479
304 1 478 480
305 1 481 482
306 1 481 483
307 1 484 485
308 1 484 486
309 1 487 488
310 1 487 489
311 1 490 491
312 1 490 492
313 1 493 494
314 1 493 495
315 1 496 497
316 1 496 498
317 1 499 500
318 1 499 501
319 1 502 503
320 1 502 504
321 1 505 506
322 1 505 507
323 1 508 509
324 1 508 510
325 1 511 512
326 1 511 513
327 1 514 515
328 1 514 516
329 1 517 518
330 1 517 519
331 1 520 521
332 1 520 522
333 1 523 524
334 1 523 525
335 1 526 527
336 1 526 528
337 1 529 530
338 1 529 531
339 1 532 533
340 1 532 534
341 1 535 536
342 1 535 537
343 1 538 539
344 1 538 540
345 1 541 542
346 1 541 543
347 1 544 545
348 1 544 546
349 1 547 548
350 1 547 549
351 1 550 551
352 1 550 552
353 1 553 554
354 1 553 555
355 1 556 557
356 1 556 558
357 1 559 560
358 1 559 561
359 1 562 563
360 1 562 564
361 1 565 566
362 1 565 567
363 1 568 569
364 1 568 570
365 1 571 572
366 1 571 573
367 1 574 575
368 1 574 576
369 1 585 586
370 1 585 587
372 1 588 589
374 1 588 590
376 1 591 592
378 1 591 593
380 1 594 595
382 1 594 596
384 1 597 598
386 1 597 599
387 1 600 601
371 1 600 602
373 1 603 604
375 1 603 605
377 1 606 607
379 1 606 608
381 1 609 610
383 1 609 611
385 1 612 613
388 1 612 614
389 1 615 616
390 1 615 617
391 1 618 619
392 1 618 620
393 1 621 622
394 1 621 623
395 1 624 625
396 1 624 626
397 1 627 628
398 1 627 629
399 1 630 631
400 1 630 632
401 1 633 634
402 1 633 635
403 1 636 637
404 1 636 638
405 1 639 640
406 1 639 641
407 1 642 643
408 1 642 644
409 1 645 646
410 1 645 647
411 1 648 649
412 1 648 650
413 1 651 652
414 1 651 653
415 1 654 655
416 1 654 656
417 1 657 658
418 1 657 659
419 1 660 661
420 1 660 662
421 1 663 664
422 1 663 665
423 1 666 667
424 1 666 668
425 1 669 670
426 1 669 671
427 1 672 673
428 1 672 674
429 1 675 676
430 1 675 677
431 1 678 679
432 1 678 680
433 1 681 682
434 1 681 683
435 1 684 685
436 1 684 686
437 1 687 688
438 1 687 689
439 1 690 691
440 1 690 692
441 1 693 694
442 1 693 695
443 1 696 697
444 1 696 698
445 1 699 700
446 1 699 701
447 1 702 703
448 1 702 704
449 1 705 706
450 1 705 707
451 1 708 709
452 1 708 710
453 1 711 712
454 1 711 713
455 1 714 715
456 1 714 716
457 1 717 718
458 1 717 719
459 1 720 721
460 1 720 722
461 1 731 732
462 1 731 733
464 1 734 735
466 1 734 736
468 1 737 738
470 1 737 739
472 1 740 741
474 1 740 742
476 1 743 744
478 1 743 745
479 1 746 747
463 1 746 748
465 1 749 750
467 1 749 751
469 1 752 753
471 1 752 754
473 1 755 756
475 1 755 757
477 1 758 759
480 1 758 760
481 1 761 762
482 1 761 763
483 1 764 765
484 1 764 766
485 1 767 768
486 1 767 769
487 1 770 771
488 1 770 772
489 1 773 774
490 1 773 775
491 1 776 777
492 1 776 778
493 1 779 780
494 1 779 781
495 1 782 783
496 1 782 784
497 1 785 786
498 1 785 787
499 1 788 789
500 1 788 790
501 1 791 792
502 1 791 793
503 1 794 795
504 1 794 796
505 1 797 798
506 1 797 799
507 1 800 801
508 1 800 802
509 1 803 804
510 1 803 805
511 1 806 807
512 1 806 808
513 1 809 810
514 1 809 811
515 1 812 813
516 1 812 814
517 1 815 816
518 1 815 817
519 1 818 819
520 1 818 820
521 1 821 822
522 1 821 823
523 1 824 825
524 1 824 826
525 1 827 828
526 1 827 829
527 1 830 831
528 1 830 832
529 1 833 834
530 1 833 835
531 1 836 837
532 1 836 838
533 1 839 840
534 1 839 841
535 1 842 843
536 1 842 844
537 1 845 846
538 1 845 847
539 1 848 849
540 1 848 850
541 1 851 852
542 1 851 853
543 1 854 855
544 1 854 856
545 1 857 858
546 1 857 859
547 1 860 861
548 1 860 862
549 1 863 864
550 1 863 865
551 1 866 867
552 1 866 868
553 1 877 878
554 1 877 879
556 1 880 881
558 1 880 882
560 1 883 884
562 1 883 885
564 1 886 887
566 1 886 888
568 1 889 890
570 1 889 891
571 1 892 893
555 1 892 894
557 1 895 896
559 1 895 897
561 1 898 899
563 1 898 900
565 1 901 902
567 1 901 903
569 1 904 905
572 1 904 906
573 1 907 908
574 1 907 909
575 1 910 911
576 1 910 912
577 1 913 914
578 1 913 915
579 1 916 917
580 1 916 918
581 1 919 920
582 1 919 921
583 1 922 923
584 1 922 924
585 1 925 926
586 1 925 927
587 1 928 929
588 1 928 930
589 1 931 932
590 1 931 933
591 1 934 935
592 1 934 936
593 1 937 938
594 1 937 939
595 1 940 941
596 1 940 942
597 1 943 944
598 1 943 945
599 1 946 947
600 1 946 948
601 1 949 950
602 1 949 951
603 1 952 953
604 1 952 954
605 1 955 956
606 1 955 957
607 1 958 959
608 1 958 960
609 1 961 962
610 1 961 963
611 1 964 965
612 1 964 966
613 1 967 968
614 1 967 969
615 1 970 971
616 1 970 972
617 1 973 974
618 1 973 975
619 1 976 977
620 1 976 978
621 1 979 980
622 1 979 981
623 1 982 983
624 1 982 984
625 1 985 986
626 1 985 987
627 1 988 989
628 1 988 990
629 1 991 992
630 1 991 993
631 1 994 995
632 1 994 996
633 1 997 998
634 1 997 999
635 1 1000 1001
636 1 1000 1002
637 1 1003 1004
638 1 1003 1005
639 1 1006 1007
640 1 1006 1008
641 1 1009 1010
642 1 1009 1011
643 1 1012 1013
644 1 1012 1014
645 1 1023 1024
646 1 1023 1025
648 1 1026 1027
650 1 1026 1028
652 1 1029 1030
654 1 1029 1031
656 1 1032 1033
658 1 1032 1034
660 1 1035 1036
662 1 1035 1037
663 1 1038 1039
647 1 1038 1040
649 1 1041 1042
651 1 1041 1043
653 1 1044 1045
655 1 1044 1046
657 1 1047 1048
659 1 1047 1049
661 1 1050 1051
664 1 1050 1052
665 1 1053 1054
666 1 1053 1055
667 1 1056 1057
668 1 1056 1058
669 1 1059 1060
670 1 1059 1061
671 1 1062 1063
672 1 1062 1064
673 1 1065 1066
674 1 1065 1067
675 1 1068 1069
676 1 1068 1070
677 1 1071 1072
678 1 1071 1073
679 1 1074 1075
680 1 1074 1076
681 1 1077 1078
682 1 1077 1079
683 1 1080 1081
684 1 1080 1082
685 1 1083 1084
686 1 1083 1085
687 1 1086 1087
688 1 1086 1088
689 1 1089 1090
690 1 1089 1091
691 1 1092 1093
692 1 1092 1094
693 1 1095 1096
694 1 1095 1097
695 1 1098 1099
696 1 1098 1100
697 1 1101 1102
698 1 1101 1103
699 1 1104 1105
700 1 1104 1106
701 1 1107 1108
702 1 1107 1109
703 1 1110 1111
704 1 1110 1112
705 1 1113 1114
706 1 1113 1115
707 1 1116 1117
708 1 1116 1118
709 1 1119 1120
710 1 1119 1121
711 1 1122 1123
712 1 1122 1124
713 1 1125 1126
714 1 1125 1127
715 1 1128 1129
716 1 1128 1130
717 1 1131 1132
718 1 1131 1133
719 1 1134 1135
720 1 1134 1136
721 1 1137 1138
722 1 1137 1139
723 1 1140 1141
724 1 1140 1142
725 1 1143 1144
726 1 1143 1145
727 1 1146 1147
728 1 1146 1148
729 1 1149 1150
730 1 1149 1151
731 1 1152 1153
732 1 1152 1154
733 1 1155 1156
734 1 1155 1157
735 1 1158 1159
736 1 1158 1160
737 1 1169 1170
738 1 1169 1171
740 1 1172 1173
742 1 1172 1174
744 1 1175 1176
746 1 1175 1177
748 1 1178 1179
750 1 1178 1180
752 1 1181 1182
754 1 1181 1183
755 1 1184 1185
739 1 1184 1186
741 1 1187 1188
743 1 1187 1189
745 1 1190 1191
747 1 1190 1192
749 1 1193 1194
751 1 1193 1195
753 1 1196 1197
756 1 1196 1198
757 1 1199 1200
758 1 1199 1201
759 1 1202 1203
760 1 1202 1204
761 1 1205 1206
762 1 1205 1207
763 1 1208 1209
764 1 1208 1210
765 1 1211 1212
766 1 1211 1213
767 1 1214 1215
768 1 1214 1216
769 1 1217 1218
770 1 1217 1219
771 1 1220 1221
772 1 1220 1222
773 1 1223 1224
774 1 1223 1225
775 1 1226 1227
776 1 1226 1228
777 1 1229 1230
778 1 1229 1231
779 1 1232 1233
780 1 1232 1234
781 1 1235 1236
782 1 1235 1237
783 1 1238 1239
784 1 1238 1240
785 1 1241 1242
786 1 1241 1243
787 1 1244 1245
788 1 1244 1246
789 1 1247 1248
790 1 1247 1249
791 1 1250 1251
792 1 1250 1252
793 1 1253 1254
794 1 1253 1255
795 1 1256 1257
796 1 1256 1258
797 1 1259 1260
798 1 1259 1261
799 1 1262 1263
800 1 1262 1264
801 1 1265 1266
802 1 1265 1267
803 1 1268 1269
804 1 1268 1270
805 1 1271 1272
806 1 1271 1273
807 1 1274 1275
808 1 1274 1276
809 1 1277 1278
810 1 1277 1279
811 1 1280 1281
812 1 1280 1282
813 1 1283 1284
814 1 1283 1285
815 1 1286 1287
816 1 1286 1288
817 1 1289 1290
818 1 1289 1291
819 1 1292 1293
820 1 1292 1294
821 1 1295 1296
822 1 1295 1297
823 1 1298 1299
824 1 1298 1300
825 1 1301 1302
826 1 1301 1303
827 1 1304 1305
828 1 1304 1306
829 1 1315 1316
830 1 1315 1317
832 1 1318 1319
834 1 1318 1320
836 1 1321 1322
838 1 1321 1323
840 1 1324 1325
842 1 1324 1326
844 1 1327 1328
846 1 1327 1329
847 1 1330 1331
831 1 1330 1332
833 1 1333 1334
835 1 1333 1335
837 1 1336 1337
839 1 1336 1338
841 1 1339 1340
843 1 1339 1341
845 1 1342 1343
848 1 1342 1344
849 1 1345 1346
850 1 1345 1347
851 1 1348 1349
852 1 1348 1350
853 1 1351 1352
854 1 1351 1353
855 1 1354 1355
856 1 1354 1356
857 1 1357 1358
858 1 1357 1359
859 1 1360 1361
860 1 1360 1362
861 1 1363 1364
862 1 1363 1365
863 1 1366 1367
864 1 1366 1368
865 1 1369 1370
866 1 1369 1371
867 1 1372 1373
868 1 1372 1374
869 1 1375 1376
870 1 1375 1377
871 1 1378 1379
872 1 1378 1380
873 1 1381 1382
874 1 1381 1383
875 1 1384 1385
876 1 1384 1386
877 1 1387 1388
878 1 1387 1389
879 1 1390 1391
880 1 1390 1392
881 1 1393 1394
882 1 1393 1395
883 1 1396 1397
884 1 1396 1398
885 1 1399 1400
886 1 1399 1401
887 1 1402 1403
888 1 1402 1404
889 1 1405 1406
890 1 1405 1407
891 1 1408 1409
892 1 1408 1410
893 1 1411 1412
894 1 1411 1413
895 1 1414 1415
896 1 1414 1416
897 1 1417 1418
898 1 1417 1419
899 1 1420 1421
900 1 1420 1422
901 1 1423 1424
902 1 1423 1425
903 1 1426 1427
904 1 1426 1428
905 1 1429 1430
906 1 1429 1431
907 1 1432 1433
908 1 1432 1434
909 1 1435 1436
910 1 1435 1437
911 1 1438 1439
912 1 1438 1440
913 1 1441 1442
914 1 1441 1443
915 1 1444 1445
916 1 1444 1446
917 1 1447 1448
918 1 1447 1449
919 1 1450 1451
920 1 1450 1452
921 1 1461 1462
922 1 1461 1463
924 1 1464 1465
926 1 1464 1466
928 1 1467 1468
930 1 1467 1469
932 1 1470 1471
934 1 1470 1472
936 1 1473 1474
938 1 1473 1475
939 1 1476 1477
923 1 1476 1478
925 1 1479 1480
927 1 1479 1481
929 1 1482 1483
931 1 1482 1484
933 1 1485 1486
935 1 1485 1487
937 1 1488 1489
940 1 1488 1490
941 1 1491 1492
942 1 1491 1493
943 1 1494 1495
944 1 1494 1496
945 1 1497 1498
946 1 1497 1499
947 1 1500 1501
948 1 1500 1502
949 1 1503 1504
950 1 1503 1505
951 1 1506 1507
952 1 1506 1508
953 1 1509 1510
954 1 1509 1511
955 1 1512 1513
956 1 1512 1514
957 1 1515 1516
958 1 1515 1517
959 1 1518 1519
960 1 1518 1520
961 1 1521 1522
962 1 1521 1523
963 1 1524 1525
964 1 1524 1526
965 1 1527 1528
966 1 1527 1529
967 1 1530 1531
968 1 1530 1532
969 1 1533 1534
970 1 1533 1535
971 1 1536 1537
972 1 1536 1538
973 1 1539 1540
974 1 1539 1541
975 1 1542 1543
976 1 1542 1544
977 1 1545 1546
978 1 1545 1547
979 1 1548 1549
980 1 1548 1550
981 1 1551 1552
982 1 1551 1553
983 1 1554 1555
984 1 1554 1556
985 1 1557 1558
986 1 1557 1559
987 1 1560 1561
988 1 1560 1562
989 1 1563 1564
990 1 1563 1565
991 1 1566 1567
992 1 1566 1568
993 1 1569 1570
994 1 1569 1571
995 1 1572 1573
996 1 1572 1574
997 1 1575 1576
998 1 1575 1577
999 1 1578 1579
1000 1 1578 1580
1001 1 1581 1582
1002 1 1581 1583
1003 1 1584 1585
1004 1 1584 1586
1005 1 1587 1588
1006 1 1587 1589
1007 1 1590 1591
1008 1 1590 1592
1009 1 1593 1594
1010 1 1593 1595
1011 1 1596 1597
1012 1 1596 1598
1013 1 1607 1608
1014 1 1607 1609
1016 1 1610 1611
1018 1 1610 1612
1020 1 1613 1614
1022 1 1613 1615
1024 1 1616 1617
1026 1 1616 1618
1028 1 1619 1620
1030 1 1619 1621
1031 1 1622 1623
1015 1 1622 1624
1017 1 1625 1626
1019 1 1625 1627
1021 1 1628 1629
1023 1 1628 1630
1025 1 1631 1632
1027 1 1631 1633
1029 1 1634 1635
1032 1 1634 1636
1033 1 1637 1638
1034 1 1637 1639
1035 1 1640 1641
1036 1 1640 1642
1037 1 1643 1644
1038 1 1643 1645
1039 1 1646 1647
1040 1 1646 1648
1041 1 1649 1650
1042 1 1649 1651
1043 1 1652 1653
1044 1 1652 1654
1045 1 1655 1656
1046 1 1655 1657
1047 1 1658 1659
1048 1 1658 1660
1049 1 1661 1662
1050 1 1661 1663
1051 1 1664 1665
1052 1 1664 1666
1053 1 1667 1668
1054 1 1667 1669
1055 1 1670 1671
1056 1 1670 1672
1057 1 1673 1674
1058 1 1673 1675
1059 1 1676 1677
1060 1 1676 1678
1061 1 1679 1680
1062 1 1679 1681
1063 1 1682 1683
1064 1 1682 1684
1065 1 1685 1686
1066 1 1685 1687
1067 1 1688 1689
1068 1 1688 1690
1069 1 1691 1692
1070 1 1691 1693
1071 1 1694 1695
1072 1 1694 1696
1073 1 1697 1698
1074 1 1697 1699
1075 1 1700 1701
1076 1 1700 1702
1077 1 1703 1704
1078 1 1703 1705
1079 1 1706 1707
1080 1 1706 1708
1081 1 1709 1710
1082 1 1709 1711
1083 1 1712 1713
1084 1 1712 1714
1085 1 1715 1716
1086 1 1715 1717
1087 1 1718 1719
1088 1 1718 1720
1089 1 1721 1722
1090 1 1721 1723
1091 1 1724 1725
1092 1 1724 1726
1093 1 1727 1728
1094 1 1727 1729
1095 1 1730 1731
1096 1 1730 1732
1097 1 1733 1734
1098 1 1733 1735
1099 1 1736 1737
1100 1 1736 1738
1101 1 1739 1740
1102 1 1739 1741
1103 1 1742 1743
1104 1 1742 1744
1105 1 1753 1754
1106 1 1753 1755
1108 1 1756 1757
1110 1 1756 1758
1112 1 1759 1760
1114 1 1759 1761
1116 1 1762 1763
1118 1 1762 1764
1120 1 1765 1766
1122 1 1765 1767
1123 1 1768 1769
1107 1 1768 1770
1109 1 1771 1772
1111 1 1771 1773
1113 1 1774 1775
1115 1 1774 1776
1117 1 1777 1778
1119 1 1777 1779
1121 1 1780 1781
1124 1 1780 1782
1125 1 1783 1784
1126 1 1783 1785
1127 1 1786 1787
1128 1 1786 1788
1129 1 1789 1790
1130 1 1789 1791
1131 1 1792 1793
1132 1 1792 1794
1133 1 1795 1796
1134 1 1795 1797
1135 1 1798 1799
1136 1 1798 1800
1137 1 1801 1802
1138 1 1801 1803
1139 1 1804 1805
1140 1 1804 1806
1141 1 1807 1808
1142 1 1807 1809
1143 1 1810 1811
1144 1 1810 1812
1145 1 1813 1814
1146 1 1813 1815
1147 1 1816 1817
1148 1 1816 1818
1149 1 1819 1820
1150 1 1819 1821
1151 1 1822 1823
1152 1 1822 1824
1153 1 1825 1826
1154 1 1825 1827
1155 1 1828 1829
1156 1 1828 1830
1157 1 1831 1832
1158 1 1831 1833
1159 1 1834 1835
1160 1 1834 1836
1161 1 1837 1838
1162 1 1837 1839
1163 1 1840 1841
1164 1 1840 1842
1165 1 1843 1844
1166 1 1843 1845
1167 1 1846 1847
1168 1 1846 1848
1169 1 1849 1850
1170 1 1849 1851
1171 1 1852 1853
1172 1 1852 1854
1173 1 1855 1856
1174 1 1855 1857
1175 1 1858 1859
1176 1 1858 1860
1177 1 1861 1862
1178 1 1861 1863
1179 1 1864 1865
1180 1 1864 1866
1181 1 1867 1868
1182 1 1867 1869
1183 1 1870 1871
1184 1 1870 1872
1185 1 1873 1874
1186 1 1873 1875
1187 1 1876 1877
1188 1 1876 1878
1189 1 1879 1880
1190 1 1879 1881
1191 1 1882 1883
1192 1 1882 1884
1193 1 1885 1886
1194 1 1885 1887
1195 1 1888 1889
1196 1 1888 1890
1197 1 1899 1900
1198 1 1899 1901
1200 1 1902 1903
1202 1 1902 1904
1204 1 1905 1906
1206 1 1905 1907
1208 1 1908 1909
1210 1 1908 1910
1212 1 1911 1912
1214 1 1911 1913
1215 1 1914 1915
1199 1 1914 1916
1201 1 1917 1918
1203 1 1917 1919
1205 1 1920 1921
1207 1 1920 1922
1209 1 1923 1924
1211 1 1923 1925
1213 1 1926 1927
1216 1 1926 1928
1217 1 1929 1930
1218 1 1929 1931
1219 1 1932 1933
1220 1 1932 1934
1221 1 1935 1936
1222 1 1935 1937
1223 1 1938 1939
1224 1 1938 1940
1225 1 1941 1942
1226 1 1941 1943
1227 1 1944 1945
1228 1 1944 1946
1229 1 1947 1948
1230 1 1947 1949
1231 1 1950 1951
1232 1 1950 1952
1233 1 1953 1954
1234 1 1953 1955
1235 1 1956 1957
1236 1 1956 1958
1237 1 1959 1960
1238 1 1959 1961
1239 1 1962 1963
1240 1 1962 1964
1241 1 1965 1966
1242 1 1965 1967
1243 1 1968 1969
1244 1 1968 1970
1245 1 1971 1972
1246 1 1971 1973
1247 1 1974 1975
1248 1 1974 1976
1249 1 1977 1978
1250 1 1977 1979
1251 1 1980 1981
1252 1 1980 1982
1253 1 1983 1984
1254 1 1983 1985
1255 1 1986 1987
1256 1 1986 1988
1257 1 1989 1990
1258 1 1989 1991
1259 1 1992 1993
1260 1 1992 1994
1261 1 1995 1996
1262 1 1995 1997
1263 1 1998 1999
1264 1 1998 2000
1265 1 2001 2002
1266 1 2001 2003
1267 1 2004 2005
1268 1 2004 2006
1269 1 2007 2008
1270 1 2007 2009
1271 1 2010 2011
1272 1 2010 2012
1273 1 2013 2014
1274 1 2013 2015
1275 1 2016 2017
1276 1 2016 2018
1277 1 2019 2020
1278 1 2019 2021
1279 1 2022 2023
1280 1 2022 2024
1281 1 2025 2026
1282 1 2025 2027
1283 1 2028 2029
1284 1 2028 2030
1285 1 2031 2032
1286 1 2031 2033
1287 1 2034 2035
1288 1 2034 2036
1289 1 2045 2046
1290 1 2045 2047
1292 1 2048 2049
1294 1 2048 2050
1296 1 2051 2052
1298 1 2051 2053
1300 1 2054 2055
1302 1 2054 2056
1304 1 2057 2058
1306 1 2057 2059
1307 1 2060 2061
1291 1 2060 2062
1293 1 2063 2064
1295 1 2063 2065
1297 1 2066 2067
1299 1 2066 2068
1301 1 2069 2070
1303 1 2069 2071
1305 1 2072 2073
1308 1 2072 2074
1309 1 2075 2076
1310 1 2075 2077
1311 1 2078 2079
1312 1 2078 2080
1313 1 2081 2082
1314 1 2081 2083
1315 1 2084 2085
1316 1 2084 2086
1317 1 2087 2088
1318 1 2087 2089
1319 1 2090 2091
1320 1 2090 2092
1321 1 2093 2094
1322 1 2093 2095
1323 1 2096 2097
1324 1 2096 2098
1325 1 2099 2100
1326 1 2099 2101
1327 1 2102 2103
1328 1 2102 2104
1329 1 2105 2106
1330 1 2105 2107
1331 1 2108 2109
1332 1 2108 2110
1333 1 2111 2112
1334 1 2111 2113
1335 1 2114 2115
1336 1 2114 2116
1337 1 2117 2118
1338 1 2117 2119
1339 1 2120 2121
1340 1 2120 2122
1341 1 2123 2124
1342 1 2123 2125
1343 1 2126 2127
1344 1 2126 2128
1345 1 2129 2130
1346 1 2129 2131
1347 1 2132 2133
1348 1 2132 2134
1349 1 2135 2136
1350 1 2135 2137
1351 1 2138 2139
1352 1 2138 2140
1353 1 2141 2142
1354 1 2141 2143
1355 1 2144 2145
1356 1 2144 2146
1357 1 2147 2148
1358 1 2147 2149
1359 1 2150 2151
1360 1 2150 2152
1361 1 2153 2154
1362 1 2153 2155
1363 1 2156 2157
1364 1 2156 2158
1365 1 2159 2160
1366 1 2159 2161
1367 1 2162 2163
1368 1 2162 2164
1369 1 2165 2166
1370 1 2165 2167
1371 1 2168 2169
1372 1 2168 2170
1373 1 2171 2172
1374 1 2171 2173
1375 1 2174 2175
1376 1 2174 2176
1377 1 2177 2178
1378 1 2177 2179
1379 1 2180 2181
1380 1 2180 2182
1381 1 2191 2192
1382 1 2191 2193
1384 1 2194 2195
1386 1 2194 2196
1388 1 2197 2198
1390 1 2197 2199
1392 1 2200 2201
1394 1 2200 2202
1396 1 2203 2204
1398 1 2203 2205
1399 1 2206 2207
1383 1 2206 2208
1385 1 2209 2210
1387 1 2209 2211
1389 1 2212 2213
1391 1 2212 2214
1393 1 2215 2216
1395 1 2215 2217
1397 1 2218 2219
1400 1 2218 2220
1401 1 2221 2222
1402 1 2221 2223
1403 1 2224 2225
1404 1 2224 2226
1405 1 2227 2228
1406 1 2227 2229
1407 1 2230 2231
1408 1 2230 2232
1409 1 2233 2234
1410 1 2233 2235
1411 1 2236 2237
1412 1 2236 2238
1413 1 2239 2240
1414 1 2239 2241
1415 1 2242 2243
1416 1 2242 2244
1417 1 2245 2246
1418 1 2245 2247
1419 1 2248 2249
1420 1 2248 2250
1421 1 2251 2252
1422 1 2251 2253
1423 1 2254 2255
1424 1 2254 2256
1425 1 2257 2258
1426 1 2257 2259
1427 1 2260 2261
1428 1 2260 2262
1429 1 2263 2264
1430 1 2263 2265
1431 1 2266 2267
1432 1 2266 2268
1433 1 2269 2270
1434 1 2269 2271
1435 1 2272 2273
1436 1 2272 2274
1437 1 2275 2276
1438 1 2275 2277
1439 1 2278 2279
1440 1 2278 2280
1441 1 2281 2282
1442 1 2281 2283
1443 1 2284 2285
1444 1 2284 2286
1445 1 2287 2288
1446 1 2287 2289
1447 1 2290 2291
1448 1 2290 2292
1449 1 2293 2294
1450 1 2293 2295
1451 1 2296 2297
1452 1 2296 2298
1453 1 2299 2300
1454 1 2299 2301
1455 1 2302 2303
1456 1 2302 2304
1457 1 2305 2306
1458 1 2305 2307
1459 1 2308 2309
1460 1 2308 2310
1461 1 2311 2312
1462 1 2311 2313
1463 1 2314 2315
1464 1 2314 2316
1465 1 2317 2318
1466 1 2317 2319
1467 1 2320 2321
1468 1 2320 2322
1469 1 2323 2324
1470 1 2323 2325
1471 1 2326 2327
1472 1 2326 2328
1473 1 2337 2338
1474 1 2337 2339
1476 1 2340 2341
1478 1 2340 2342
1480 1 2343 2344
1482 1 2343 2345
1484 1 2346 2347
1486 1 2346 2348
1488 1 2349 2350
1490 1 2349 2351
1491 1 2352 2353
1475 1 2352 2354
1477 1 2355 2356
1479 1 2355 2357
1481 1 2358 2359
1483 1 2358 2360
1485 1 2361 2362
1487 1 2361 2363
1489 1 2364 2365
1492 1 2364 2366
1493 1 2367 2368
1494 1 2367 2369
1495 1 2370 2371
1496 1 2370 2372
1497 1 2373 2374
1498 1 2373 2375
1499 1 2376 2377
1500 1 2376 2378
1501 1 2379 2380
1502 1 2379 2381
1503 1 2382 2383
1504 1 2382 2384
1505 1 2385 2386
1506 1 2385 2387
1507 1 2388 2389
1508 1 2388 2390
1509 1 2391 2392
1510 1 2391 2393
1511 1 2394 2395
1512 1 2394 2396
1513 1 2397 2398
1514 1 2397 2399
1515 1 2400 2401
1516 1 2400 2402
1517 1 2403 2404
1518 1 2403 2405
1519 1 2406 2407
1520 1 2406 2408
1521 1 2409 2410
1522 1 2409 2411
1523 1 2412 2413
1524 1 2412 2414
1525 1 2415 2416
1526 1 2415 2417
1527 1 2418 2419
1528 1 2418 2420
1529 1 2421 2422
1530 1 2421 2423
1531 1 2424 2425
1532 1 2424 2426
1533 1 2427 2428
1534 1 2427 2429
1535 1 2430 2431
1536 1 2430 2432
1537 1 2433 2434
1538 1 2433 2435
1539 1 2436 2437
1540 1 2436 2438
1541 1 2439 2440
1542 1 2439 2441
1543 1 2442 2443
1544 1 2442 2444
1545 1 2445 2446
1546 1 2445 2447
1547 1 2448 2449
1548 1 2448 2450
1549 1 2451 2452
1550 1 2451 2453
1551 1 2454 2455
1552 1 2454 2456
1553 1 2457 2458
1554 1 2457 2459
1555 1 2460 2461
1556 1 2460 2462
1557 1 2463 2464
1558 1 2463 2465
1559 1 2466 2467
1560 1 2466 2468
1561 1 2469 2470
1562 1 2469 2471
1563 1 2472 2473
1564 1 2472 2474
1565 1 2483 2484
1566 1 2483 2485
1568 1 2486 2487
1570 1 2486 2488
1572 1 2489 2490
1574 1 2489 2491
1576 1 2492 2493
1578 1 2492 2494
1580 1 2495 2496
1582 1 2495 2497
1583 1 2498 2499
1567 1 2498 2500
1569 1 2501 2502
1571 1 2501 2503
1573 1 2504 2505
1575 1 2504 2506
1577 1 2507 2508
1579 1 2507 2509
1581 1 2510 2511
1584 1 2510 2512
1585 1 2513 2514
1586 1 2513 2515
1587 1 2516 2517
1588 1 2516 2518
1589 1 2519 2520
1590 1 2519 2521
1591 1 2522 2523
1592 1 2522 2524
1593 1 2525 2526
1594 1 2525 2527
1595 1 2528 2529
1596 1 2528 2530
1597 1 2531 2532
1598 1 2531 2533
1599 1 2534 2535
1600 1 2534 2536
1601 1 2537 2538
1602 1 2537 2539
1603 1 2540 2541
1604 1 2540 2542
1605 1 2543 2544
1606 1 2543 2545
1607 1 2546 2547
1608 1 2546 2548
1609 1 2549 2550
1610 1 2549 2551
1611 1 2552 2553
1612 1 2552 2554
1613 1 2555 2556
1614 1 2555 2557
1615 1 2558 2559
1616 1 2558 2560
1617 1 2561 2562
1618 1 2561 2563
1619 1 2564 2565
1620 1 2564 2566
1621 1 2567 2568
1622 1 2567 2569
1623 1 2570 2571
1624 1 2570 2572
1625 1 2573 2574
1626 1 2573 2575
1627 1 2576 2577
1628 1 2576 2578
1629 1 2579 2580
1630 1 2579 2581
1631 1 2582 2583
1632 1 2582 2584
1633 1 2585 2586
1634 1 2585 2587
1635 1 2588 2589
1636 1 2588 2590
1637 1 2591 2592
1638 1 2591 2593
1639 1 2594 2595
1640 1 2594 2596
1641 1 2597 2598
1642 1 2597 2599
1643 1 2600 2601
1644 1 2600 2602
1645 1 2603 2604
1646 1 2603 2605
1647 1 2606 2607
1648 1 2606 2608
1649 1 2609 2610
1650 1 2609 2611
1651 1 2612 2613
1652 1 2612 2614
1653 1 2615 2616
1654 1 2615 2617
1655 1 2618 2619
1656 1 2618 2620
1657 1 2629 2630
1658 1 2629 2631
1660 1 2632 2633
1662 1 2632 2634
1664 1 2635 2636
1666 1 2635 2637
1668 1 2638 2639
1670 1 2638 2640
1672 1 2641 2642
1674 1 2641 2643
1675 1 2644 2645
1659 1 2644 2646
1661 1 2647 2648
1663 1 2647 2649
1665 1 2650 2651
1667 1 2650 2652
1669 1 2653 2654
1671 1 2653 2655
1673 1 2656 2657
1676 1 2656 2658
1677 1 2659 2660
1678 1 2659 2661
1679 1 2662 2663
1680 1 2662 2664
1681 1 2665 2666
1682 1 2665 2667
1683 1 2668 2669
1684 1 2668 2670
1685 1 2671 2672
1686 1 2671 2673
1687 1 2674 2675
1688 1 2674 2676
1689 1 2677 2678
1690 1 2677 2679
1691 1 2680 2681
1692 1 2680 2682
1693 1 2683 2684
1694 1 2683 2685
1695 1 2686 2687
1696 1 2686 2688
1697 1 2689 2690
1698 1 2689 2691
1699 1 2692 2693
1700 1 2692 2694
1701 1 2695 2696
1702 1 2695 2697
1703 1 2698 2699
1704 1 2698 2700
1705 1 2701 2702
1706 1 2701 2703
1707 1 2704 2705
1708 1 2704 2706
1709 1 2707 2708
1710 1 2707 2709
1711 1 2710 2711
1712 1 2710 2712
1713 1 2713 2714
1714 1 2713 2715
1715 1 2716 2717
1716 1 2716 2718
1717 1 2719 2720
1718 1 2719 2721
1719 1 2722 2723
1720 1 2722 2724
1721 1 2725 2726
1722 1 2725 2727
1723 1 2728 2729
1724 1 2728 2730
1725 1 2731 2732
1726 1 2731 2733
1727 1 2734 2735
1728 1 2734 2736
1729 1 2737 2738
1730 1 2737 2739
1731 1 2740 2741
1732 1 2740 2742
1733 1 2743 2744
1734 1 2743 2745
1735 1 2746 2747
1736 1 2746 2748
1737 1 2749 2750
1738 1 2749 2751
1739 1 2752 2753
1740 1 2752 2754
1741 1 2755 2756
1742 1 2755 2757
1743 1 2758 2759
1744 1 2758 2760
1745 1 2761 2762
1746 1 2761 2763
1747 1 2764 2765
1748 1 2764 2766
1749 1 2775 2776
1750 1 2775 2777
1752 1 2778 2779
1754 1 2778 2780
1756 1 2781 2782
1758 1 2781 2783
1760 1 2784 2785
1762 1 2784 2786
1764 1 2787 2788
1766 1 2787 2789
1767 1 2790 2791
1751 1 2790 2792
1753 1 2793 2794
1755 1 2793 2795
1757 1 2796 2797
1759 1 2796 2798
1761 1 2799 2800
1763 1 2799 2801
1765 1 2802 2803
1768 1 2802 2804
1769 1 2805 2806
1770 1 2805 2807
1771 1 2808 2809
1772 1 2808 2810
1773 1 2811 2812
1774 1 2811 2813
1775 1 2814 2815
1776 1 2814 2816
1777 1 2817 2818
1778 1 2817 2819
1779 1 2820 2821
1780 1 2820 2822
1781 1 2823 2824
1782 1 2823 2825
1783 1 2826 2827
1784 1 2826 2828
1785 1 2829 2830
1786 1 2829 2831
1787 1 2832 2833
1788 1 2832 2834
1789 1 2835 2836
1790 1 2835 2837
1791 1 2838 2839
1792 1 2838 2840
1793 1 2841 2842
1794 1 2841 2843
1795 1 2844 2845
1796 1 2844 2846
1797 1 2847 2848
1798 1 2847 2849
1799 1 2850 2851
1800 1 2850 2852
1801 1 2853 2854
1802 1 2853 2855
1803 1 2856 2857
1804 1 2856 2858
1805 1 2859 2860
1806 1 2859 2861
1807 1 2862 2863
1808 1 2862 2864
1809 1 2865 2866
1810 1 2865 2867
1811 1 2868 2869
1812 1 2868 2870
1813 1 2871 2872
1814 1 2871 2873
1815 1 2874 2875
1816 1 2874 2876
1817 1 2877 2878
1818 1 2877 2879
1819 1 2880 2881
1820 1 2880 2882
1821 1 2883 2884
1822 1 2883 2885
1823 1 2886 2887
1824 1 2886 2888
1825 1 2889 2890
1826 1 2889 2891
1827 1 2892 2893
1828 1 2892 2894
1829 1 2895 2896
1830 1 2895 2897
1831 1 2898 2899
1832 1 2898 2900
1833 1 2901 2902
1834 1 2901 2903
1835 1 2904 2905
1836 1 2904 2906
1837 1 2907 2908
1838 1 2907 2909
1839 1 2910 2911
1840 1 2910 2912
1841 1 2921 2922
1842 1 2921 2923
1844 1 2924 2925
1846 1 2924 2926
1848 1 2927 2928
1850 1 2927 2929
1852 1 2930 2931
1854 1 2930 2932
1856 1 2933 2934
1858 1 2933 2935
1859 1 2936 2937
1843 1 2936 2938
1845 1 2939 2940
1847 1 2939 2941
1849 1 2942 2943
1851 1 2942 2944
1853 1 2945 2946
1855 1 2945 2947
1857 1 2948 2949
1860 1 2948 2950
1861 1 2951 2952
1862 1 2951 2953
1863 1 2954 2955
1864 1 2954 2956
1865 1 2957 2958
1866 1 2957 2959
1867 1 2960 2961
1868 1 2960 2962
1869 1 2963 2964
1870 1 2963 2965
1871 1 2966 2967
1872 1 2966 2968
1873 1 2969 2970
1874 1 2969 2971
1875 1 2972 2973
1876 1 2972 2974
1877 1 2975 2976
1878 1 2975 2977
1879 1 2978 2979
1880 1 2978 2980
1881 1 2981 2982
1882 1 2981 2983
1883 1 2984 2985
1884 1 2984 2986
1885 1 2987 2988
1886 1 2987 2989
1887 1 2990 2991
1888 1 2990 2992
1889 1 2993 2994
1890 1 2993 2995
1891 1 2996 2997
1892 1 2996 2998
1893 1 2999 3000
1894 1 2999 3001
1895 1 3002 3003
1896 1 3002 3004
1897 1 3005 3006
1898 1 3005 3007
1899 1 3008 3009
1900 1 3008 3010
1901 1 3011 3012
1902 1 3011 3013
1903 1 3014 3015
1904 1 3014 3016
1905 1 3017 3018
1906 1 3017 3019
1907 1 3020 3021
1908 1 3020 3022
1909 1 3023 3024
1910 1 3023 3025
1911 1 3026 3027
1912 1 3026 3028
1913 1 3029 3030
1914 1 3029 3031
1915 1 3032 3033
1916 1 3032 3034
1917 1 3035 3036
1918 1 3035 3037
1919 1 3038 3039
1920 1 3038 3040
1921 1 3041 3042
1922 1 3041 3043
1923 1 3044 3045
1924 1 3044 3046
1925 1 3047 3048
1926 1 3047 3049
1927 1 3050 3051
1928 1 3050 3052
1929 1 3053 3054
1930 1 3053 3055
1931 1 3056 3057
1932 1 3056 3058
1933 1 3067 3068
1934 1 3067 3069
1936 1 3070 3071
1938 1 3070 3072
1940 1 3073 3074
1942 1 3073 3075
1944 1 3076 3077
1946 1 3076 3078
1948 1 3079 3080
1950 1 3079 3081
1951 1 3082 3083
1935 1 3082 3084
1937 1 3085 3086
1939 1 3085 3087
1941 1 3088 3089
1943 1 3088 3090
1945 1 3091 3092
1947 1 3091 3093
1949 1 3094 3095
1952 1 3094 3096
1953 1 3097 3098
1954 1 3097 3099
1955 1 3100 3101
1956 1 3100 3102
1957 1 3103 3104
1958 1 3103 3105
1959 1 3106 3107
1960 1 3106 3108
1961 1 3109 3110
1962 1 3109 3111
1963 1 3112 3113
1964 1 3112 3114
1965 1 3115 3116
1966 1 3115 3117
1967 1 3118 3119
1968 1 3118 3120
1969 1 3121 3122
1970 1 3121 3123
1971 1 3124 3125
1972 1 3124 3126
1973 1 3127 3128
1974 1 3127 3129
1975 1 3130 3131
1976 1 3130 3132
1977 1 3133 3134
1978 1 3133 3135
1979 1 3136 3137
1980 1 3136 3138
1981 1 3139 3140
1982 1 3139 3141
1983 1 3142 3143
1984 1 3142 3144
1985 1 3145 3146
1986 1 3145 3147
1987 1 3148 3149
1988 1 3148 3150
1989 1 3151 3152
1990 1 3151 3153
1991 1 3154 3155
1992 1 3154 3156
1993 1 3157 3158
1994 1 3157 3159
1995 1 3160 3161
1996 1 3160 3162
1997 1 3163 3164
1998 1 3163 3165
1999 1 3166 3167
2000 1 3166 3168
2001 1 3169 3170
2002 1 3169 3171
2003 1 3172 3173
2004 1 3172 3174
2005 1 3175 3176
2006 1 3175 3177
2007 1 3178 3179
2008 1 3178 3180
2009 1 3181 3182
2010 1 3181 3183
2011 1 3184 3185
2012 1 3184 3186
2013 1 3187 3188
2014 1 3187 3189
2015 1 3190 3191
2016 1 3190 3192
2017 1 3193 3194
2018 1 3193 3195
2019 1 3196 3197
2020 1 3196 3198
2021 1 3199 3200
2022 1 3199 3201
2023 1 3202 3203
2024 1 3202 3204
2025 1 3213 3214
2026 1 3213 3215
2028 1 3216 3217
2030 1 3216 3218
2032 1 3219 3220
2034 1 3219 3221
2036 1 3222 3223
2038 1 3222 3224
2040 1 3225 3226
2042 1 3225 3227
2043 1 3228 3229
2027 1 3228 3230
2029 1 3231 3232
2031 1 3231 3233
2033 1 3234 3235
2035 1 3234 3236
2037 1 3237 3238
2039 1 3237 3239
2041 1 3240 3241
2044 1 3240 3242
2045 1 3243 3244
2046 1 3243 3245
2047 1 3246 3247
2048 1 3246 3248
2049 1 3249 3250
2050 1 3249 3251
2051 1 3252 3253
2052 1 3252 3254
2053 1 3255 3256
2054 1 3255 3257
2055 1 3258 3259
2056 1 3258 3260
2057 1 3261 3262
2058 1 3261 3263
2059 1 3264 3265
2060 1 3264 3266
2061 1 3267 3268
2062 1 3267 3269
2063 1 3270 3271
2064 1 3270 3272
2065 1 3273 3274
2066 1 3273 3275
2067 1 3276 3277
2068 1 3276 3278
2069 1 3279 3280
2070 1 3279 3281
2071 1 3282 3283
2072 1 3282 3284
2073 1 3285 3286
2074 1 3285 3287
2075 1 3288 3289
2076 1 3288 3290
2077 1 3291 3292
2078 1 3291 3293
2079 1 3294 3295
2080 1 3294 3296
2081 1 3297 3298
2082 1 3297 3299
2083 1 3300 3301
2084 1 3300 3302
2085 1 3303 3304
2086 1 3303 3305
2087 1 3306 3307
2088 1 3306 3308
2089 1 3309 3310
2090 1 3309 3311
2091 1 3312 3313
2092 1 3312 3314
2093 1 3315 3316
2094 1 3315 3317
2095 1 3318 3319
2096 1 3318 3320
2097 1 3321 3322
2098 1 3321 3323
2099 1 3324 3325
2100 1 3324 3326
2101 1 3327 3328
2102 1 3327 3329
2103 1 3330 3331
2104 1 3330 3332
2105 1 3333 3334
2106 1 3333 3335
2107 1 3336 3337
2108 1 3336 3338
2109 1 3339 3340
2110 1 3339 3341
2111 1 3342 3343
2112 1 3342 3344
2113 1 3345 3346
2114 1 3345 3347
2115 1 3348 3349
2116 1 3348 3350
2117 1 3359 3360
2118 1 3359 3361
2120 1 3362 3363
2122 1 3362 3364
2124 1 3365 3366
2126 1 3365 3367
2128 1 3368 3369
2130 1 3368 3370
2132 1 3371 3372
2134 1 3371 3373
2135 1 3374 3375
2119 1 3374 3376
2121 1 3377 3378
2123 1 3377 3379
2125 1 3380 3381
2127 1 3380 3382
2129 1 3383 3384
2131 1 3383 3385
2133 1 3386 3387
2136 1 3386 3388
2137 1 3389 3390
2138 1 3389 3391
2139 1 3392 3393
2140 1 3392 3394
2141 1 3395 3396
2142 1 3395 3397
2143 1 3398 3399
2144 1 3398 3400
2145 1 3401 3402
2146 1 3401 3403
2147 1 3404 3405
2148 1 3404 3406
2149 1 3407 3408
2150 1 3407 3409
2151 1 3410 3411
2152 1 3410 3412
2153 1 3413 3414
2154 1 3413 3415
2155 1 3416 3417
2156 1 3416 3418
2157 1 3419 3420
2158 1 3419 3421
2159 1 3422 3423
2160 1 3422 3424
2161 1 3425 3426
2162 1 3425 3427
2163 1 3428 3429
2164 1 3428 3430
2165 1 3431 3432
2166 1 3431 3433
2167 1 3434 3435
2168 1 3434 3436
2169 1 3437 3438
2170 1 3437 3439
2171 1 3440 3441
2172 1 3440 3442
2173 1 3443 3444
2174 1 3443 3445
2175 1 3446 3447
2176 1 3446 3448
2177 1 3449 3450
2178 1 3449 3451
2179 1 3452 3453
2180 1 3452 3454
2181 1 3455 3456
2182 1 3455 3457
2183 1 3458 3459
2184 1 3458 3460
2185 1 3461 3462
2186 1 3461 3463
2187 1 3464 3465
2188 1 3464 3466
2189 1 3467 3468
2190 1 3467 3469
2191 1 3470 3471
2192 1 3470 3472
2193 1 3473 3474
2194 1 3473 3475
2195 1 3476 3477
2196 1 3476 3478
2197 1 3479 3480
2198 1 3479 3481
2199 1 3482 3483
2200 1 3482 3484
2201 1 3485 3486
2202 1 3485 3487
2203 1 3488 3489
2204 1 3488 3490
2205 1 3491 3492
2206 1 3491 3493
2207 1 3494 3495
2208 1 3494 3496
2209 1 3505 3506
2210 1 3505 3507
2211 1 3508 3509
2212 1 3508 3510
2213 1 3511 3512
2214 1 3511 3513
2215 1 3514 3515
2216 1 3514 3516
2217 1 3517 3518
2218 1 3517 3519
2219 1 3520 3521
2220 1 3520 3522
2221 1 3523 3524
2222 1 3523 3525
2223 1 3526 3527
2224 1 3526 3528
2225 1 3529 3530
2226 1 3529 3531
2227 1 3532 3533
2228 1 3532 3534
2229 1 3535 3536
2230 1 3535 3537
2231 1 3538 3539
2232 1 3538 3540
2233 1 3541 3542
2234 1 3541 3543
2235 1 3544 3545
2236 1 3544 3546
2237 1 3547 3548
2238 1 3547 3549
2239 1 3550 3551
2240 1 3550 3552
2241 1 3553 3554
2242 1 3553 3555
2243 1 3556 3557
2244 1 3556 3558
2245 1 3559 3560
2246 1 3559 3561
2247 1 3562 3563
2248 1 3562 3564
2249 1 3565 3566
2250 1 3565 3567
2251 1 3568 3569
2252 1 3568 3570
2253 1 3571 3572
2254 1 3571 3573
2255 1 3574 3575
2256 1 3574 3576
2257 1 3577 3578
2258 1 3577 3579
2259 1 3580 3581
2260 1 3580 3582
2261 1 3583 3584
2262 1 3583 3585
2263 1 3586 3587
2264 1 3586 3588
2265 1 3589 3590
2266 1 3589 3591
2267 1 3592 3593
2268 1 3592 3594
2269 1 3595 3596
2270 1 3595 3597
2271 1 3598 3599
2272 1 3598 3600
2273 1 3601 3602
2274 1 3601 3603
2275 1 3604 3605
2276 1 3604 3606
2277 1 3607 3608
2278 1 3607 3609
2279 1 3610 3611
2280 1 3610 3612
2281 1 3613 3614
2282 1 3613 3615
2283 1 3616 3617
2284 1 3616 3618
2285 1 3619 3620
2286 1 3619 3621
2287 1 3622 3623
2288 1 3622 3624
2289 1 3625 3626
2290 1 3625 3627
2291 1 3628 3629
2292 1 3628 3630
2293 1 3631 3632
2294 1 3631 3633
2295 1 3634 3635
2296 1 3634 3636
2297 1 3637 3638
2298 1 3637 3639
2299 1 3640 3641
2300 1 3640 3642
2301 1 3643 3644
2302 1 3643 3645
2303 1 3646 3647
2304 1 3646 3648
2305 1 3649 3650
2306 1 3649 3651
2307 1 3652 3653
2308 1 3652 3654
2309 1 3655 3656
2310 1 3655 3657
2311 1 3658 3659
2312 1 3658 3660
2313 1 3661 3662
2314 1 3661 3663
2315 1 3664 3665
2316 1 3664 3666
2317 1 3667 3668
2318 1 3667 3669
2319 1 3670 3671
2320 1 3670 3672
2321 1 3673 3674
2322 1 3673 3675
2323 1 3676 3677
2324 1 3676 3678
2325 1 3679 3680
2326 1 3679 3681
2327 1 3682 3683
2328 1 3682 3684
2329 1 3685 3686
2330 1 3685 3687
2331 1 3688 3689
2332 1 3688 3690
2333 1 3691 3692
2334 1 3691 3693
2335 1 3694 3695
2336 1 3694 3696
2337 1 3697 3698
2338 1 3697 3699
2339 1 3700 3701
2340 1 3700 3702
2341 1 3703 3704
2342 1 3703 3705
2343 1 3706 3707
2344 1 3706 3708
2345 1 3709 3710
2346 1 3709 3711
2347 1 3712 3713
2348 1 3712 3714
2349 1 3715 3716
2350 1 3715 3717
2351 1 3718 3719
2352 1 3718 3720
2353 1 3721 3722
2354 1 3721 3723
2355 1 3724 3725
2356 1 3724 3726
2357 1 3727 3728
2358 1 3727 3729
2359 1 3730 3731
2360 1 3730 3732
2361 1 3733 3734
2362 1 3733 3735
2363 1 3736 3737
2364 1 3736 3738
2365 1 3739 3740
2366 1 3739 3741
2367 1 3742 3743
2368 1 3742 3744
2369 1 3745 3746
2370 1 3745 3747
2371 1 3748 3749
2372 1 3748 3750
2373 1 3751 3752
2374 1 3751 3753
2375 1 3754 3755
2376 1 3754 3756
2377 1 3757 3758
2378 1 3757 3759
2379 1 3760 3761
2380 1 3760 3762
2381 1 3763 3764
2382 1 3763 3765
2383 1 3766 3767
2384 1 3766 3768
2385 1 3769 3770
2386 1 3769 3771
2387 1 3772 3773
2388 1 3772 3774
2389 1 3775 3776
2390 1 3775 3777
2391 1 3778 3779
2392 1 3778 3780
2393 1 3781 3782
2394 1 3781 3783
2395 1 3784 3785
2396 1 3784 3786
2397 1 3787 3788
2398 1 3787 3789
2399 1 3790 3791
2400 1 3790 3792
2401 1 3793 3794
2402 1 3793 3795
2403 1 3796 3797
2404 1 3796 3798
2405 1 3799 3800
2406 1 3799 3801
2407 1 3802 3803
2408 1 3802 3804
2409 1 3805 3806
2410 1 3805 3807
2411 1 3808 3809
2412 1 3808 3810
2413 1 3811 3812
2414 1 3811 3813
2415 1 3814 3815
2416 1 3814 3816
2417 1 3817 3818
2418 1 3817 3819
2419 1 3820 3821
2420 1 3820 3822
2421 1 3823 3824
2422 1 3823 3825
2423 1 3826 3827
2424 1 3826 3828
2425 1 3829 3830
2426 1 3829 3831
2427 1 3832 3833
2428 1 3832 3834
2429 1 3835 3836
2430 1 3835 3837
2431 1 3838 3839
2432 1 3838 3840
2433 1 3841 3842
2434 1 3841 3843
2435 1 3844 3845
2436 1 3844 3846
2437 1 3847 3848
2438 1 3847 3849
2439 1 3850 3851
2440 1 3850 3852
2441 1 3853 3854
2442 1 3853 3855
2443 1 3856 3857
2444 1 3856 3858
2445 1 3859 3860
2446 1 3859 3861
2447 1 3862 3863
2448 1 3862 3864
2449 1 3865 3866
2450 1 3865 3867
2451 1 3868 3869
2452 1 3868 3870
2453 1 3871 3872
2454 1 3871 3873
2455 1 3874 3875
2456 1 3874 3876
2457 1 3877 3878
2458 1 3877 3879
2459 1 3880 3881
2460 1 3880 3882
2461 1 3883 3884
2462 1 3883 3885
2463 1 3886 3887
2464 1 3886 3888
2465 1 3889 3890
2466 1 3889 3891
2467 1 3892 3893
2468 1 3892 3894
2469 1 3895 3896
2470 1 3895 3897
2471 1 3898 3899
2472 1 3898 3900
2473 1 3901 3902
2474 1 3901 3903
2475 1 3904 3905
2476 1 3904 3906
2477 1 3907 3908
2478 1 3907 3909
2479 1 3910 3911
2480 1 3910 3912
2481 1 3913 3914
2482 1 3913 3915
2483 1 3916 3917
2484 1 3916 3918
2485 1 3919 3920
2486 1 3919 3921
2487 1 3922 3923
2488 1 3922 3924
2489 1 3925 3926
2490 1 3925 3927
2491 1 3928 3929
2492 1 3928 3930
2493 1 3931 3932
2494 1 3931 3933
2495 1 3934 3935
2496 1 3934 3936
2497 1 3937 3938
2498 1 3937 3939
2499 1 3940 3941
2500 1 3940 3942
2501 1 3943 3944
2502 1 3943 3945
2503 1 3946 3947
2504 1 3946 3948
2505 1 3949 3950
2506 1 3949 3951
2507 1 3952 3953
2508 1 3952 3954
2509 1 3955 3956
2510 1 3955 3957
2511 1 3958 3959
2512 1 3958 3960
2513 1 3961 3962
2514 1 3961 3963
2515 1 3964 3965
2516 1 3964 3966
2517 1 3967 3968
2518 1 3967 3969
2519 1 3970 3971
2520 1 3970 3972
2521 1 3973 3974
2522 1 3973 3975
2523 1 3976 3977
2524 1 3976 3978
2525 1 3979 3980
2526 1 3979 3981
2527 1 3982 3983
2528 1 3982 3984
2529 1 3985 3986
2530 1 3985 3987
2531 1 3988 3989
2532 1 3988 3990
2533 1 3991 3992
2534 1 3991 3993
2535 1 3994 3995
2536 1 3994 3996
2537 1 3997 3998
2538 1 3997 3999
2539 1 4000 4001
2540 1 4000 4002
2541 1 4003 4004
2542 1 4003 4005
2543 1 4006 4007
2544 1 4006 4008
2545 1 4009 4010
2546 1 4009 4011
2547 1 4012 4013
2548 1 4012 4014
2549 1 4015 4016
2550 1 4015 4017
2551 1 4018 4019
2552 1 4018 4020
2553 1 4021 4022
2554 1 4021 4023
2555 1 4024 4025
2556 1 4024 4026
2557 1 4027 4028
2558 1 4027 4029
2559 1 4030 4031
2560 1 4030 4032
2561 1 4033 4034
2562 1 4033 4035
2563 1 4036 4037
2564 1 4036 4038
2565 1 4039 4040
2566 1 4039 4041
2567 1 4042 4043
2568 1 4042 4044
2569 1 4045 4046
2570 1 4045 4047
2571 1 4048 4049
2572 1 4048 4050
2573 1 4051 4052
2574 1 4051 4053
2575 1 4054 4055
2576 1 4054 4056
2577 1 4057 4058
2578 1 4057 4059
2579 1 4060 4061
2580 1 4060 4062
2581 1 4063 4064
2582 1 4063 4065
2583 1 4066 4067
2584 1 4066 4068
2585 1 4069 4070
2586 1 4069 4071
2587 1 4072 4073
2588 1 4072 4074
2589 1 4075 4076
2590 1 4075 4077
2591 1 4078 4079
2592 1 4078 4080
2593 1 4081 4082
2594 1 4081 4083
2595 1 4084 4085
2596 1 4084 4086
2597 1 4087 4088
2598 1 4087 4089
2599 1 4090 4091
2600 1 4090 4092
2601 1 4093 4094
2602 1 4093 4095
2603 1 4096 4097
2604 1 4096 4098
2605 1 4099 4100
2606 1 4099 4101
2607 1 4102 4103
2608 1 4102 4104
2609 1 4105 4106
2610 1 4105 4107
2611 1 4108 4109
2612 1 4108 4110
2613 1 4111 4112
2614 1 4111 4113
2615 1 4114 4115
2616 1 4114 4116
2617 1 4117 4118
2618 1 4117 4119
2619 1 4120 4121
2620 1 4120 4122
2621 1 4123 4124
2622 1 4123 4125
2623 1 4126 4127
2624 1 4126 4128
2625 1 4129 4130
2626 1 4129 4131
2627 1 4132 4133
2628 1 4132 4134
2629 1 4135 4136
2630 1 4135 4137
2631 1 4138 4139
2632 1 4138 4140
2633 1 4141 4142
2634 1 4141 4143
2635 1 4144 4145
2636 1 4144 4146
2637 1 4147 4148
2638 1 4147 4149
2639 1 4150 4151
2640 1 4150 4152
2641 1 4153 4154
2642 1 4153 4155
2643 1 4156 4157
2644 1 4156 4158
2645 1 4159 4160
2646 1 4159 4161
2647 1 4162 4163
2648 1 4162 4164
2649 1 4165 4166
2650 1 4165 4167
2651 1 4168 4169
2652 1 4168 4170
2653 1 4171 4172
2654 1 4171 4173
2655 1 4174 4175
2656 1 4174 4176
2657 1 4177 4178
2658 1 4177 4179
2659 1 4180 4181
2660 1 4180 4182
2661 1 4183 4184
2662 1 4183 4185
2663 1 4186 4187
2664 1 4186 4188
2665 1 4189 4190
2666 1 4189 4191
2667 1 4192 4193
2668 1 4192 4194
2669 1 4195 4196
2670 1 4195 4197
2671 1 4198 4199
2672 1 4198 4200
2673 1 4201 4202
2674 1 4201 4203
2675 1 4204 4205
2676 1 4204 4206
2677 1 4207 4208
2678 1 4207 4209
2679 1 4210 4211
2680 1 4210 4212
2681 1 4213 4214
2682 1 4213 4215
2683 1 4216 4217
2684 1 4216 4218
2685 1 4219 4220
2686 1 4219 4221
2687 1 4222 4223
2688 1 4222 4224
2689 1 4225 4226
2690 1 4225 4227
2691 1 4228 4229
2692 1 4228 4230
2693 1 4231 4232
2694 1 4231 4233
2695 1 4234 4235
2696 1 4234 4236
2697 1 4237 4238
2698 1 4237 4239
2699 1 4240 4241
2700 1 4240 4242
2701 1 4243 4244
2702 1 4243 4245
2703 1 4246 4247
2704 1 4246 4248
2705 1 4249 4250
2706 1 4249 4251
2707 1 4252 4253
2708 1 4252 4254
2709 1 4255 4256
2710 1 4255 4257
2711 1 4258 4259
2712 1 4258 4260
2713 1 4261 4262
2714 1 4261 4263
2715 1 4264 4265
2716 1 4264 4266
2717 1 4267 4268
2718 1 4267 4269
2719 1 4270 4271
2720 1 4270 4272
2721 1 4273 4274
2722 1 4273 4275
2723 1 4276 4277
2724 1 4276 4278
2725 1 4279 4280
2726 1 4279 4281
2727 1 4282 4283
2728 1 4282 4284
2729 1 4285 4286
2730 1 4285 4287
2731 1 4288 4289
2732 1 4288 4290
2733 1 4291 4292
2734 1 4291 4293
2735 1 4294 4295
2736 1 4294 4296
2737 1 4297 4298
2738 1 4297 4299
2739 1 4300 4301
2740 1 4300 4302
2741 1 4303 4304
2742 1 4303 4305
2743 1 4306 4307
2744 1 4306 4308
2745 1 4309 4310
2746 1 4309 4311
2747 1 4312 4313
2748 1 4312 4314
2749 1 4315 4316
2750 1 4315 4317
2751 1 4318 4319
2752 1 4318 4320
2753 1 4321 4322
2754 1 4321 4323
2755 1 4324 4325
2756 1 4324 4326
2757 1 4327 4328
2758 1 4327 4329
2759 1 4330 4331
2760 1 4330 4332
2761 1 4333 4334
2762 1 4333 4335
2763 1 4336 4337
2764 1 4336 4338
2765 1 4339 4340
2766 1 4339 4341
2767 1 4342 4343
2768 1 4342 4344
2769 1 4345 4346
2770 1 4345 4347
2771 1 4348 4349
2772 1 4348 4350
2773 1 4351 4352
2774 1 4351 4353
2775 1 4354 4355
2776 1 4354 4356
2777 1 4357 4358
2778 1 4357 4359
2779 1 4360 4361
2780 1 4360 4362
2781 1 4363 4364
2782 1 4363 4365
2783 1 4366 4367
2784 1 4366 4368
2785 1 4369 4370
2786 1 4369 4371
2787 1 4372 4373
2788 1 4372 4374
2789 1 4375 4376
2790 1 4375 4377
2791 1 4378 4379
2792 1 4378 4380
2793 1 4381 4382
2794 1 4381 4383
2795 1 4384 4385
2796 1 4384 4386
2797 1 4387 4388
2798 1 4387 4389
2799 1 4390 4391
2800 1 4390 4392
2801 1 4393 4394
2802 1 4393 4395
2803 1 4396 4397
2804 1 4396 4398
2805 1 4399 4400
2806 1 4399 4401
2807 1 4402 4403
2808 1 4402 4404
2809 1 4405 4406
2810 1 4405 4407
2811 1 4408 4409
2812 1 4408 4410
2813 1 4411 4412
2814 1 4411 4413
2815 1 4414 4415
2816 1 4414 4416
2817 1 4417 4418
2818 1 4417 4419
2819 1 4420 4421
2820 1 4420 4422
2821 1 4423 4424
2822 1 4423 4425
2823 1 4426 4427
2824 1 4426 4428
2825 1 4429 4430
2826 1 4429 4431
2827 1 4432 4433
2828 1 4432 4434
2829 1 4435 4436
2830 1 4435 4437
2831 1 4438 4439
2832 1 4438 4440
2833 1 4441 4442
2834 1 4441 4443
2835 1 4444 4445
2836 1 4444 4446
2837 1 4447 4448
2838 1 4447 4449
2839 1 4450 4451
2840 1 4450 4452
2841 1 4453 4454
2842 1 4453 4455
2843 1 4456 4457
2844 1 4456 4458
2845 1 4459 4460
2846 1 4459 4461
2847 1 4462 4463
2848 1 4462 4464
2849 1 4465 4466
2850 1 4465 4467
2851 1 4468 4469
2852 1 4468 4470
2853 1 4471 4472
2854 1 4471 4473
2855 1 4474 4475
2856 1 4474 4476
2857 1 4477 4478
2858 1 4477 4479
2859 1 4480 4481
2860 1 4480 4482
2861 1 4483 4484
2862 1 4483 4485
2863 1 4486 4487
2864 1 4486 4488
2865 1 4489 4490
2866 1 4489 4491
2867 1 4492 4493
2868 1 4492 4494
2869 1 4495 4496
2870 1 4495 4497
2871 1 4498 4499
2872 1 4498 4500
2873 1 4501 4502
2874 1 4501 4503
2875 1 4504 4505
2876 1 4504 4506
2877 1 4507 4508
2878 1 4507 4509
2879 1 4510 4511
2880 1 4510 4512
2881 1 4513 4514
2882 1 4513 4515
2883 1 4516 4517
2884 1 4516 4518
2885 1 4519 4520
2886 1 4519 4521
2887 1 4522 4523
2888 1 4522 4524
2889 1 4525 4526
2890 1 4525 4527
2891 1 4528 4529
2892 1 4528 4530
2893 1 4531 4532
2894 1 4531 4533
2895 1 4534 4535
2896 1 4534 4536
2897 1 4537 4538
2898 1 4537 4539
2899 1 4540 4541
2900 1 4540 4542
2901 1 4543 4544
2902 1 4543 4545
2903 1 4546 4547
2904 1 4546 4548
2905 1 4549 4550
2906 1 4549 4551
2907 1 4552 4553
2908 1 4552 4554
2909 1 4555 4556
2910 1 4555 4557
2911 1 4558 4559
2912 1 4558 4560
2913 1 4561 4562
2914 1 4561 4563
2915 1 4564 4565
2916 1 4564 4566
2917 1 4567 4568
2918 1 4567 4569
2919 1 4570 4571
2920 1 4570 4572
2921 1 4573 4574
2922 1 4573 4575
2923 1 4576 4577
2924 1 4576 4578
2925 1 4579 4580
2926 1 4579 4581
2927 1 4582 4583
2928 1 4582 4584
2929 1 4585 4586
2930 1 4585 4587
2931 1 4588 4589
2932 1 4588 4590
2933 1 4591 4592
2934 1 4591 4593
2935 1 4594 4595
2936 1 4594 4596
2937 1 4597 4598
2938 1 4597 4599
2939 1 4600 4601
2940 1 4600 4602
2941 1 4603 4604
2942 1 4603 4605
2943 1 4606 4607
2944 1 4606 4608
2945 1 4609 4610
2946 1 4609 4611
2947 1 4612 4613
2948 1 4612 4614
2949 1 4615 4616
2950 1 4615 4617
2951 1 4618 4619
2952 1 4618 4620
2953 1 4621 4622
2954 1 4621 4623
2955 1 4624 4625
2956 1 4624 4626
2957 1 4627 4628
2958 1 4627 4629
2959 1 4630 4631
2960 1 4630 4632
2961 1 4633 4634
2962 1 4633 4635
2963 1 4636 4637
2964 1 4636 4638
2965 1 4639 4640
2966 1 4639 4641
2967 1 4642 4643
2968 1 4642 4644
2969 1 4645 4646
2970 1 4645 4647
2971 1 4648 4649
2972 1 4648 4650
2973 1 4651 4652
2974 1 4651 4653
2975 1 4654 4655
2976 1 4654 4656
2977 1 4657 4658
2978 1 4657 4659
2979 1 4660 4661
2980 1 4660 4662
2981 1 4663 4664
2982 1 4663 4665
2983 1 4666 4667
2984 1 4666 4668
2985 1 4669 4670
2986 1 4669 4671
2987 1 4672 4673
2988 1 4672 4674
2989 1 4675 4676
2990 1 4675 4677
2991 1 4678 4679
2992 1 4678 4680
2993 1 4681 4682
2994 1 4681 4683
2995 1 4684 4685
2996 1 4684 4686
2997 1 4687 4688
2998 1 4687 4689
2999 1 4690 4691
3000 1 4690 4692
3001 1 4693 4694
3002 1 4693 4695
3003 1 4696 4697
3004 1 4696 4698
3005 1 4699 4700
3006 1 4699 4701
3007 1 4702 4703
3008 1 4702 4704
3009 1 4705 4706
3010 1 4705 4707
3011 1 4708 4709
3012 1 4708 4710
3013 1 4711 4712
3014 1 4711 4713
3015 1 4714 4715
3016 1 4714 4716
3017 1 4717 4718
3018 1 4717 4719
3019 1 4720 4721
3020 1 4720 4722
3021 1 4723 4724
3022 1 4723 4725
3023 1 4726 4727
3024 1 4726 4728
3025 1 4729 4730
3026 1 4729 4731
3027 1 4732 4733
3028 1 4732 4734
3029 1 4735 4736
3030 1 4735 4737
3031 1 4738 4739
3032 1 4738 4740
3033 1 4741 4742
3034 1 4741 4743
3035 1 4744 4745
3036 1 4744 4746
3037 1 4747 4748
3038 1 4747 4749
3039 1 4750 4751
3040 1 4750 4752
3041 1 4753 4754
3042 1 4753 4755
3043 1 4756 4757
3044 1 4756 4758
3045 1 4759 4760
3046 1 4759 4761
3047 1 4762 4763
3048 1 4762 4764
3049 1 4765 4766
3050 1 4765 4767
3051 1 4768 4769
3052 1 4768 4770
3053 1 4771 4772
3054 1 4771 4773
3055 1 4774 4775
3056 1 4774 4776
3057 1 4777 4778
3058 1 4777 4779
3059 1 4780 4781
3060 1 4780 4782
3061 1 4783 4784
3062 1 4783 4785
3063 1 4786 4787
3064 1 4786 4788
3065 1 4789 4790
3066 1 4789 4791
3067 1 4792 4793
3068 1 4792 4794
3069 1 4795 4796
3070 1 4795 4797
3071 1 4798 4799
3072 1 4798 4800
3073 1 4801 4802
3074 1 4801 4803
3075 1 4804 4805
3076 1 4804 4806
3077 1 4807 4808
3078 1 4807 4809
3079 1 4810 4811
3080 1 4810 4812
3081 1 4813 4814
3082 1 4813 4815
3083 1 4816 4817
3084 1 4816 4818
3085 1 4819 4820
3086 1 4819 4821
3087 1 4822 4823
3088 1 4822 4824
3089 1 4825 4826
3090 1 4825 4827
3091 1 4828 4829
3092 1 4828 4830
3093 1 4831 4832
3094 1 4831 4833
3095 1 4834 4835
3096 1 4834 4836
3097 1 4837 4838
3098 1 4837 4839
3099 1 4840 4841
3100 1 4840 4842
3101 1 4843 4844
3102 1 4843 4845
3103 1 4846 4847
3104 1 4846 4848
3105 1 4849 4850
3106 1 4849 4851
3107 1 4852 4853
3108 1 4852 4854
3109 1 4855 4856
3110 1 4855 4857
3111 1 4858 4859
3112 1 4858 4860
3113 1 4861 4862
3114 1 4861 4863
3115 1 4864 4865
3116 1 4864 4866
3117 1 4867 4868
3118 1 4867 4869
3119 1 4870 4871
3120 1 4870 4872
3121 1 4873 4874
3122 1 4873 4875
3123 1 4876 4877
3124 1 4876 4878
3125 1 4879 4880
3126 1 4879 4881
3127 1 4882 4883
3128 1 4882 4884
3129 1 4885 4886
3130 1 4885 4887
3131 1 4888 4889
3132 1 4888 4890
3133 1 4891 4892
3134 1 4891 4893
3135 1 4894 4895
3136 1 4894 4896
3137 1 4897 4898
3138 1 4897 4899
3139 1 4900 4901
3140 1 4900 4902
3141 1 4903 4904
3142 1 4903 4905
3143 1 4906 4907
3144 1 4906 4908
3145 1 4909 4910
3146 1 4909 4911
3147 1 4912 4913
3148 1 4912 4914
3149 1 4915 4916
3150 1 4915 4917
3151 1 4918 4919
3152 1 4918 4920
3153 1 4921 4922
3154 1 4921 4923
3155 1 4924 4925
3156 1 4924 4926
3157 1 4927 4928
3158 1 4927 4929
3159 1 4930 4931
3160 1 4930 4932
3161 1 4933 4934
3162 1 4933 4935
3163 1 4936 4937
3164 1 4936 4938
3165 1 4939 4940
3166 1 4939 4941
3167 1 4942 4943
3168 1 4942 4944
3169 1 4945 4946
3170 1 4945 4947
3171 1 4948 4949
3172 1 4948 4950
3173 1 4951 4952
3174 1 4951 4953
3175 1 4954 4955
3176 1 4954 4956
3177 1 4957 4958
3178 1 4957 4959
3179 1 4960 4961
3180 1 4960 4962
3181 1 4963 4964
3182 1 4963 4965
3183 1 4966 4967
3184 1 4966 4968
3185 1 4969 4970
3186 1 4969 4971
3187 1 4972 4973
3188 1 4972 4974
3189 1 4975 4976
3190 1 4975 4977
3191 1 4978 4979
3192 1 4978 4980
3193 1 4981 4982
3194 1 4981 4983
3195 1 4984 4985
3196 1 4984 4986
3197 1 4987 4988
3198 1 4987 4989
3199 1 4990 4991
3200 1 4990 4992
3201 1 4993 4994
3202 1 4993 4995
3203 1 4996 4997
3204 1 4996 4998
3205 1 4999 5000
3206 1 4999 5001
3207 1 5002 5003
3208 1 5002 5004
3209 1 5005 5006
3210 1 5005 5007
3211 1 5008 5009
3212 1 5008 5010
3213 1 5011 5012
3214 1 5011 5013
3215 1 5014 5015
3216 1 5014 5016
3217 1 5017 5018
3218 1 5017 5019
3219 1 5020 5021
3220 1 5020 5022
3221 1 5023 5024
3222 1 5023 5025
3223 1 5026 5027
3224 1 5026 5028
3225 1 5029 5030
3226 1 5029 5031
3227 1 5032 5033
3228 1 5032 5034
3229 1 5035 5036
3230 1 5035 5037
3231 1 5038 5039
3232 1 5038 5040
3233 1 5041 5042
3234 1 5041 5043
3235 1 5044 5045
3236 1 5044 5046
3237 1 5047 5048
3238 1 5047 5049
3239 1 5050 5051
3240 1 5050 5052
3241 1 5053 5054
3242 1 5053 5055
3243 1 5056 5057
3244 1 5056 5058
3245 1 5059 5060
3246 1 5059 5061
3247 1 5062 5063
3248 1 5062 5064
3249 1 5065 5066
3250 1 5065 5067
3251 1 5068 5069
3252 1 5068 5070
3253 1 5071 5072
3254 1 5071 5073
3255 1 5074 5075
3256 1 5074 5076
3257 1 5077 5078
3258 1 5077 5079
3259 1 5080 5081
3260 1 5080 5082
3261 1 5083 5084
3262 1 5083 5085
3263 1 5086 5087
3264 1 5086 5088
3265 1 5089 5090
3266 1 5089 5091
3267 1 5092 5093
3268 1 5092 5094
3269 1 5095 5096
3270 1 5095 5097
3271 1 5098 5099
3272 1 5098 5100
3273 1 5101 5102
3274 1 5101 5103
3275 1 5104 5105
3276 1 5104 5106
3277 1 5107 5108
3278 1 5107 5109
3279 1 5110 5111
3280 1 5110 5112
3281 1 5113 5114
3282 1 5113 5115
3283 1 5116 5117
3284 1 5116 5118
3285 1 5119 5120
3286 1 5119 5121
3287 1 5122 5123
3288 1 5122 5124
3289 1 5125 5126
3290 1 5125 5127
3291 1 5128 5129
3292 1 5128 5130
3293 1 5131 5132
3294 1 5131 5133
3295 1 5134 5135
3296 1 5134 5136
3297 1 5137 5138
3298 1 5137 5139
3299 1 5140 5141
3300 1 5140 5142
3301 1 5143 5144
3302 1 5143 5145
3303 1 5146 5147
3304 1 5146 5148
3305 1 5149 5150
3306 1 5149 5151
3307 1 5152 5153
3308 1 5152 5154
3309 1 5155 5156
3310 1 5155 5157
3311 1 5158 5159
3312 1 5158 5160
3313 1 5161 5162
3314 1 5161 5163
3315 1 5164 5165
3316 1 5164 5166
3317 1 5167 5168
3318 1 5167 5169
3319 1 5170 5171
3320 1 5170 5172
3321 1 5173 5174
3322 1 5173 5175
3323 1 5176 5177
3324 1 5176 5178
3325 1 5179 5180
3326 1 5179 5181
3327 1 5182 5183
3328 1 5182 5184
3329 1 5185 5186
3330 1 5185 5187
3331 1 5188 5189
3332 1 5188 5190
3333 1 5191 5192
3334 1 5191 5193
3335 1 5194 5195
3336 1 5194 5196
3337 1 5197 5198
3338 1 5197 5199
3339 1 5200 5201
3340 1 5200 5202
3341 1 5203 5204
3342 1 5203 5205
3343 1 5206 5207
3344 1 5206 5208
3345 1 5209 5210
3346 1 5209 5211
3347 1 5212 5213
3348 1 5212 5214
3349 1 5215 5216
3350 1 5215 5217
3351 1 5218 5219
3352 1 5218 5220
3353 1 5221 5222
3354 1 5221 5223
3355 1 5224 5225
3356 1 5224 5226
3357 1 5227 5228
3358 1 5227 5229
3359 1 5230 5231
3360 1 5230 5232
3361 1 5233 5234
3362 1 5233 5235
3363 1 5236 5237
3364 1 5236 5238
3365 1 5239 5240
3366 1 5239 5241
3367 1 5242 5243
3368 1 5242 5244
3369 1 5245 5246
3370 1 5245 5247
3371 1 5248 5249
3372 1 5248 5250
3373 1 5251 5252
3374 1 5251 5253
3375 1 5254 5255
3376 1 5254 5256
3377 1 5257 5258
3378 1 5257 5259
3379 1 5260 5261
3380 1 5260 5262
3381 1 5263 5264
3382 1 5263 5265
3383 1 5266 5267
3384 1 5266 5268
3385 1 5269 5270
3386 1 5269 5271
3387 1 5272 5273
3388 1 5272 5274
3389 1 5275 5276
3390 1 5275 5277
3391 1 5278 5279
3392 1 5278 5280
3393 1 5281 5282
3394 1 5281 5283
3395 1 5284 5285
3396 1 5284 5286
3397 1 5287 5288
3398 1 5287 5289
3399 1 5290 5291
3400 1 5290 5292
3401 1 5293 5294
3402 1 5293 5295
3403 1 5296 5297
3404 1 5296 5298
3405 1 5299 5300
3406 1 5299 5301
3407 1 5302 5303
3408 1 5302 5304
3409 1 5305 5306
3410 1 5305 5307
3411 1 5308 5309
3412 1 5308 5310
3413 1 5311 5312
3414 1 5311 5313
3415 1 5314 5315
3416 1 5314 5316
3417 1 5317 5318
3418 1 5317 5319
3419 1 5320 5321
3420 1 5320 5322
3421 1 5323 5324
3422 1 5323 5325
3423 1 5326 5327
3424 1 5326 5328
3425 1 5329 5330
3426 1 5329 5331
3427 1 5332 5333
3428 1 5332 5334
3429 1 5335 5336
3430 1 5335 5337
3431 1 5338 5339
3432 1 5338 5340
3433 1 5341 5342
3434 1 5341 5343
3435 1 5344 5345
3436 1 5344 5346
3437 1 5347 5348
3438 1 5347 5349
3439 1 5350 5351
3440 1 5350 5352
3441 1 5353 5354
3442 1 5353 5355
3443 1 5356 5357
3444 1 5356 5358
3445 1 5359 5360
3446 1 5359 5361
3447 1 5362 5363
3448 1 5362 5364
3449 1 5365 5366
3450 1 5365 5367
3451 1 5368 5369
3452 1 5368 5370
3453 1 5371 5372
3454 1 5371 5373
3455 1 5374 5375
3456 1 5374 5376
3457 1 5377 5378
3458 1 5377 5379
3459 1 5380 5381
3460 1 5380 5382
3461 1 5383 5384
3462 1 5383 5385
3463 1 5386 5387
3464 1 5386 5388
3465 1 5389 5390
3466 1 5389 5391
3467 1 5392 5393
3468 1 5392 5394
3469 1 5395 5396
3470 1 5395 5397
3471 1 5398 5399
3472 1 5398 5400
3473 1 5401 5402
3474 1 5401 5403
3475 1 5404 5405
3476 1 5404 5406
3477 1 5407 5408
3478 1 5407 5409
3479 1 5410 5411
3480 1 5410 5412
3481 1 5413 5414
3482 1 5413 5415
3483 1 5416 5417
3484 1 5416 5418
3485 1 5419 5420
3486 1 5419 5421
3487 1 5422 5423
3488 1 5422 5424
3489 1 5425 5426
3490 1 5425 5427
3491 1 5428 5429
3492 1 5428 5430
3493 1 5431 5432
3494 1 5431 5433
3495 1 5434 5435
3496 1 5434 5436
3497 1 5437 5438
3498 1 5437 5439
3499 1 5440 5441
3500 1 5440 5442
3501 1 5443 5444
3502 1 5443 5445
3503 1 5446 5447
3504 1 5446 5448
3505 1 5449 5450
3506 1 5449 5451
3507 1 5452 5453
3508 1 5452 5454
3509 1 5455 5456
3510 1 5455 5457
3511 1 5458 5459
3512 1 5458 5460
3513 1 5461 5462
3514 1 5461 5463
3515 1 5464 5465
3516 1 5464 5466
3517 1 5467 5468
3518 1 5467 5469
3519 1 5470 5471
3520 1 5470 5472
3521 1 5473 5474
3522 1 5473 5475
3523 1 5476 5477
3524 1 5476 5478
3525 1 5479 5480
3526 1 5479 5481
3527 1 5482 5483
3528 1 5482 5484
3529 1 5485 5486
3530 1 5485 5487
3531 1 5488 5489
3532 1 5488 5490
3533 1 5491 5492
3534 1 5491 5493
3535 1 5494 5495
3536 1 5494 5496
3537 1 5497 5498
3538 1 5497 5499
3539 1 5500 5501
3540 1 5500 5502
3541 1 5503 5504
3542 1 5503 5505
3543 1 5506 5507
3544 1 5506 5508
3545 1 5509 5510
3546 1 5509 5511
3547 1 5512 5513
3548 1 5512 5514
3549 1 5515 5516
3550 1 5515 5517
3551 1 5518 5519
3552 1 5518 5520
3553 1 5521 5522
3554 1 5521 5523
3555 1 5524 5525
3556 1 5524 5526
3557 1 5527 5528
3558 1 5527 5529
3559 1 5530 5531
3560 1 5530 5532
3561 1 5533 5534
3562 1 5533 5535
3563 1 5536 5537
3564 1 5536 5538
3565 1 5539 5540
3566 1 5539 5541
3567 1 5542 5543
3568 1 5542 5544
3569 1 5545 5546
3570 1 5545 5547
3571 1 5548 5549
3572 1 5548 5550
3573 1 5551 5552
3574 1 5551 5553
3575 1 5554 5555
3576 1 5554 5556
3577 1 5557 5558
3578 1 5557 5559
3579 1 5560 5561
3580 1 5560 5562
3581 1 5563 5564
3582 1 5563 5565
3583 1 5566 5567
3584 1 5566 5568
3585 1 5569 5570
3586 1 5569 5571
3587 1 5572 5573
3588 1 5572 5574
3589 1 5575 5576
3590 1 5575 5577
3591 1 5578 5579
3592 1 5578 5580
3593 1 5581 5582
3594 1 5581 5583
3595 1 5584 5585
3596 1 5584 5586
3597 1 5587 5588
3598 1 5587 5589
3599 1 5590 5591
3600 1 5590 5592
3601 1 5593 5594
3602 1 5593 5595
3603 1 5596 5597
3604 1 5596 5598
3605 1 5599 5600
3606 1 5599 5601
3607 1 5602 5603
3608 1 5602 5604
3609 1 5605 5606
3610 1 5605 5607
3611 1 5608 5609
3612 1 5608 5610
3613 1 5611 5612
3614 1 5611 5613
3615 1 5614 5615
3616 1 5614 5616
3617 1 5617 5618
3618 1 5617 5619
3619 1 5620 5621
3620 1 5620 5622
3621 1 5623 5624
3622 1 5623 5625
3623 1 5626 5627
3624 1 5626 5628
3625 1 5629 5630
3626 1 5629 5631
3627 1 5632 5633
3628 1 5632 5634
3629 1 5635 5636
3630 1 5635 5637
3631 1 5638 5639
3632 1 5638 5640
3633 1 5641 5642
3634 1 5641 5643
3635 1 5644 5645
3636 1 5644 5646
3637 1 5647 5648
3638 1 5647 5649
3639 1 5650 5651
3640 1 5650 5652
3641 1 5653 5654
3642 1 5653 5655
3643 1 5656 5657
3644 1 5656 5658
3645 1 5659 5660
3646 1 5659 5661
3647 1 5662 5663
3648 1 5662 5664
3649 1 5665 5666
3650 1 5665 5667
3651 1 5668 5669
3652 1 5668 5670
3653 1 5671 5672
3654 1 5671 5673
3655 1 5674 5675
3656 1 5674 5676
3657 1 5677 5678
3658 1 5677 5679
3659 1 5680 5681
3660 1 5680 5682
3661 1 5683 5684
3662 1 5683 5685
3663 1 5686 5687
3664 1 5686 5688
3665 1 5689 5690
3666 1 5689 5691
3667 1 5692 5693
3668 1 5692 5694
3669 1 5695 5696
3670 1 5695 5697
3671 1 5698 5699
3672 1 5698 5700
3673 1 5701 5702
3674 1 5701 5703
3675 1 5704 5705
3676 1 5704 5706
3677 1 5707 5708
3678 1 5707 5709
3679 1 5710 5711
3680 1 5710 5712
3681 1 5713 5714
3682 1 5713 5715
3683 1 5716 5717
3684 1 5716 5718
3685 1 5719 5720
3686 1 5719 5721
3687 1 5722 5723
3688 1 5722 5724
3689 1 5725 5726
3690 1 5725 5727
3691 1 5728 5729
3692 1 5728 5730
3693 1 5731 5732
3694 1 5731 5733
3695 1 5734 5735
3696 1 5734 5736
3697 1 5737 5738
3698 1 5737 5739
3699 1 5740 5741
3700 1 5740 5742
3701 1 5743 5744
3702 1 5743 5745
3703 1 5746 5747
3704 1 5746 5748
3705 1 5749 5750
3706 1 5749 5751
3707 1 5752 5753
3708 1 5752 5754
3709 1 5755 5756
3710 1 5755 5757
3711 1 5758 5759
3712 1 5758 5760
3713 1 5761 5762
3714 1 5761 5763
3715 1 5764 5765
3716 1 5764 5766
3717 1 5767 5768
3718 1 5767 5769
3719 1 5770 5771
3720 1 5770 5772
3721 1 5773 5774
3722 1 5773 5775
3723 1 5776 5777
3724 1 5776 5778
3725 1 5779 5780
3726 1 5779 5781
3727 1 5782 5783
3728 1 5782 5784
3729 1 5785 5786
3730 1 5785 5787
3731 1 5788 5789
3732 1 5788 5790
3733 1 5791 5792
3734 1 5791 5793
3735 1 5794 5795
3736 1 5794 5796
3737 1 5797 5798
3738 1 5797 5799
3739 1 5800 5801
3740 1 5800 5802
3741 1 5803 5804
3742 1 5803 5805
3743 1 5806 5807
3744 1 5806 5808
3745 1 5809 5810
3746 1 5809 5811
3747 1 5812 5813
3748 1 5812 5814
3749 1 5815 5816
3750 1 5815 5817
3751 1 5818 5819
3752 1 5818 5820
3753 1 5821 5822
3754 1 5821 5823
3755 1 5824 5825
3756 1 5824 5826
3757 1 5827 5828
3758 1 5827 5829
3759 1 5830 5831
3760 1 5830 5832
3761 1 5833 5834
3762 1 5833 5835
3763 1 5836 5837
3764 1 5836 5838
3765 1 5839 5840
3766 1 5839 5841
3767 1 5842 5843
3768 1 5842 5844
3769 1 5845 5846
3770 1 5845 5847
3771 1 5848 5849
3772 1 5848 5850
3773 1 5851 5852
3774 1 5851 5853
3775 1 5854 5855
3776 1 5854 5856
3777 1 5857 5858
3778 1 5857 5859
3779 1 5860 5861
3780 1 5860 5862
3781 1 5863 5864
3782 1 5863 5865
3783 1 5866 5867
3784 1 5866 5868
3785 1 5869 5870
3786 1 5869 5871
3787 1 5872 5873
3788 1 5872 5874
3789 1 5875 5876
3790 1 5875 5877
3791 1 5878 5879
3792 1 5878 5880
3793 1 5881 5882
3794 1 5881 5883
3795 1 5884 5885
3796 1 5884 5886
3797 1 5887 5888
3798 1 5887 5889
3799 1 5890 5891
3800 1 5890 5892
3801 1 5893 5894
3802 1 5893 5895
3803 1 5896 5897
3804 1 5896 5898
3805 1 5899 5900
3806 1 5899 5901
3807 1 5902 5903
3808 1 5902 5904
3809 1 5905 5906
3810 1 5905 5907
3811 1 5908 5909
3812 1 5908 5910
3813 1 5911 5912
3814 1 5911 5913
3815 1 5914 5915
3816 1 5914 5916
3817 1 5917 5918
3818 1 5917 5919
3819 1 5920 5921
3820 1 5920 5922
3821 1 5923 5924
3822 1 5923 5925
3823 1 5926 5927
3824 1 5926 5928
3825 1 5929 5930
3826 1 5929 5931
3827 1 5932 5933
3828 1 5932 5934
3829 1 5935 5936
3830 1 5935 5937
3831 1 5938 5939
3832 1 5938 5940
3833 1 5941 5942
3834 1 5941 5943
3835 1 5944 5945
3836 1 5944 5946
3837 1 5947 5948
3838 1 5947 5949
3839 1 5950 5951
3840 1 5950 5952
3841 1 5953 5954
3842 1 5953 5955
3843 1 5956 5957
3844 1 5956 5958
3845 1 5959 5960
3846 1 5959 5961
3847 1 5962 5963
3848 1 5962 5964
3849 1 5965 5966
3850 1 5965 5967
3851 1 5968 5969
3852 1 5968 5970
3853 1 5971 5972
3854 1 5971 5973
3855 1 5974 5975
3856 1 5974 5976
3857 1 5977 5978
3858 1 5977 5979
3859 1 5980 5981
3860 1 5980 5982
3861 1 5983 5984
3862 1 5983 5985
3863 1 5986 5987
3864 1 5986 5988
3865 1 5989 5990
3866 1 5989 5991
3867 1 5992 5993
3868 1 5992 5994
3869 1 5995 5996
3870 1 5995 5997
3871 1 5998 5999
3872 1 5998 6000
3873 1 6001 6002
3874 1 6001 6003
3875 1 6004 6005
3876 1 6004 6006
3877 1 6007 6008
3878 1 6007 6009
3879 1 6010 6011
3880 1 6010 6012
3881 1 6013 6014
3882 1 6013 6015
3883 1 6016 6017
3884 1 6016 6018
3885 1 6019 6020
3886 1 6019 6021
3887 1 6022 6023
3888 1 6022 6024
3889 1 6025 6026
3890 1 6025 6027
3891 1 6028 6029
3892 1 6028 6030
3893 1 6031 6032
3894 1 6031 6033
3895 1 6034 6035
3896 1 6034 6036
3897 1 6037 6038
3898 1 6037 6039
3899 1 6040 6041
3900 1 6040 6042
3901 1 6043 6044
3902 1 6043 6045
3903 1 6046 6047
3904 1 6046 6048
3905 1 6049 6050
3906 1 6049 6051
3907 1 6052 6053
3908 1 6052 6054
3909 1 6055 6056
3910 1 6055 6057
3911 1 6058 6059
3912 1 6058 6060
3913 1 6061 6062
3914 1 6061 6063
3915 1 6064 6065
3916 1 6064 6066
3917 1 6067 6068
3918 1 6067 6069
3919 1 6070 6071
3920 1 6070 6072
3921 1 6073 6074
3922 1 6073 6075
3923 1 6076 6077
3924 1 6076 6078
3925 1 6079 6080
3926 1 6079 6081
3927 1 6082 6083
3928 1 6082 6084
3929 1 6085 6086
3930 1 6085 6087
3931 1 6088 6089
3932 1 6088 6090
3933 1 6091 6092
3934 1 6091 6093
3935 1 6094 6095
3936 1 6094 6096
3937 1 6097 6098
3938 1 6097 6099
3939 1 6100 6101
3940 1 6100 6102
3941 1 6103 6104
3942 1 6103 6105
3943 1 6106 6107
3944 1 6106 6108
3945 1 6109 6110
3946 1 6109 6111
3947 1 6112 6113
3948 1 6112 6114
3949 1 6115 6116
3950 1 6115 6117
3951 1 6118 6119
3952 1 6118 6120
3953 1 6121 6122
3954 1 6121 6123
3955 1 6124 6125
3956 1 6124 6126
3957 1 6127 6128
3958 1 6127 6129
3959 1 6130 6131
3960 1 6130 6132
3961 1 6133 6134
3962 1 6133 6135
3963 1 6136 6137
3964 1 6136 6138
3965 1 6139 6140
3966 1 6139 6141
3967 1 6142 6143
3968 1 6142 6144
3969 1 6145 6146
3970 1 6145 6147
3971 1 6148 6149
3972 1 6148 6150
3973 1 6151 6152
3974 1 6151 6153
3975 1 6154 6155
3976 1 6154 6156
3977 1 6157 6158
3978 1 6157 6159
3979 1 6160 6161
3980 1 6160 6162
3981 1 6163 6164
3982 1 6163 6165
3983 1 6166 6167
3984 1 6166 6168
3985 1 6169 6170
3986 1 6169 6171
3987 1 6172 6173
3988 1 6172 6174
3989 1 6175 6176
3990 1 6175 6177
3991 1 6178 6179
3992 1 6178 6180
3993 1 6181 6182
3994 1 6181 6183
3995 1 6184 6185
3996 1 6184 6186
3997 1 6187 6188
3998 1 6187 6189
3999 1 6190 6191
4000 1 6190 6192
4001 1 6193 6194
4002 1 6193 6195
4003 1 6196 6197
4004 1 6196 6198
4005 1 6199 6200
4006 1 6199 6201
4007 1 6202 6203
4008 1 6202 6204
4009 1 6205 6206
4010 1 6205 6207
4011 1 6208 6209
4012 1 6208 6210
4013 1 6211 6212
4014 1 6211 6213
4015 1 6214 6215
4016 1 6214 6216
4017 1 6217 6218
4018 1 6217 6219
4019 1 6220 6221
4020 1 6220 6222
4021 1 6223 6224
4022 1 6223 6225
4023 1 6226 6227
4024 1 6226 6228
4025 1 6229 6230
4026 1 6229 6231
4027 1 6232 6233
4028 1 6232 6234
4029 1 6235 6236
4030 1 6235 6237
4031 1 6238 6239
4032 1 6238 6240
4033 1 6241 6242
4034 1 6241 6243
4035 1 6244 6245
4036 1 6244 6246
4037 1 6247 6248
4038 1 6247 6249
4039 1 6250 6251
4040 1 6250 6252
4041 1 6253 6254
4042 1 6253 6255
4043 1 6256 6257
4044 1 6256 6258
4045 1 6259 6260
4046 1 6259 6261
4047 1 6262 6263
4048 1 6262 6264
4049 1 6265 6266
4050 1 6265 6267
4051 1 6268 6269
4052 1 6268 6270
4053 1 6271 6272
4054 1 6271 6273
4055 1 6274 6275
4056 1 6274 6276
4057 1 6277 6278
4058 1 6277 6279
4059 1 6280 6281
4060 1 6280 6282
4061 1 6283 6284
4062 1 6283 6285
4063 1 6286 6287
4064 1 6286 6288
4065 1 6289 6290
4066 1 6289 6291
4067 1 6292 6293
4068 1 6292 6294
4069 1 6295 6296
4070 1 6295 6297
4071 1 6298 6299
4072 1 6298 6300
4073 1 6301 6302
4074 1 6301 6303
4075 1 6304 6305
4076 1 6304 6306
4077 1 6307 6308
4078 1 6307 6309
4079 1 6310 6311
4080 1 6310 6312
4081 1 6313 6314
4082 1 6313 6315
4083 1 6316 6317
4084 1 6316 6318
4085 1 6319 6320
4086 1 6319 6321
4087 1 6322 6323
4088 1 6322 6324
4089 1 6325 6326
4090 1 6325 6327
4091 1 6328 6329
4092 1 6328 6330
4093 1 6331 6332
4094 1 6331 6333
4095 1 6334 6335
4096 1 6334 6336
4097 1 6337 6338
4098 1 6337 6339
4099 1 6340 6341
4100 1 6340 6342
4101 1 6343 6344
4102 1 6343 6345
4103 1 6346 6347
4104 1 6346 6348
4105 1 6349 6350
4106 1 6349 6351
4107 1 6352 6353
4108 1 6352 6354
4109 1 6355 6356
4110 1 6355 6357
4111 1 6358 6359
4112 1 6358 6360
4113 1 6361 6362
4114 1 6361 6363
4115 1 6364 6365
4116 1 6364 6366
4117 1 6367 6368
4118 1 6367 6369
4119 1 6370 6371
4120 1 6370 6372
4121 1 6373 6374
4122 1 6373 6375
4123 1 6376 6377
4124 1 6376 6378
4125 1 6379 6380
4126 1 6379 6381
4127 1 6382 6383
4128 1 6382 6384
4129 1 6385 6386
4130 1 6385 6387
4131 1 6388 6389
4132 1 6388 6390
4133 1 6391 6392
4134 1 6391 6393
4135 1 6394 6395
4136 1 6394 6396
4137 1 6397 6398
4138 1 6397 6399
4139 1 6400 6401
4140 1 6400 6402
4141 1 6403 6404
4142 1 6403 6405
4143 1 6406 6407
4144 1 6406 6408
4145 1 6409 6410
4146 1 6409 6411
4147 1 6412 6413
4148 1 6412 6414
4149 1 6415 6416
4150 1 6415 6417
4151 1 6418 6419
4152 1 6418 6420
4153 1 6421 6422
4154 1 6421 6423
4155 1 6424 6425
4156 1 6424 6426
4157 1 6427 6428
4158 1 6427 6429
4159 1 6430 6431
4160 1 6430 6432
4161 1 6433 6434
4162 1 6433 6435
4163 1 6436 6437
4164 1 6436 6438
4165 1 6439 6440
4166 1 6439 6441
4167 1 6442 6443
4168 1 6442 6444
4169 1 6445 6446
4170 1 6445 6447
4171 1 6448 6449
4172 1 6448 6450
4173 1 6451 6452
4174 1 6451 6453
4175 1 6454 6455
4176 1 6454 6456
4177 1 6457 6458
4178 1 6457 6459
4179 1 6460 6461
4180 1 6460 6462
4181 1 6463 6464
4182 1 6463 6465
4183 1 6466 6467
4184 1 6466 6468
4185 1 6469 6470
4186 1 6469 6471
4187 1 6472 6473
4188 1 6472 6474
4189 1 6475 6476
4190 1 6475 6477
4191 1 6478 6479
4192 1 6478 6480
4193 1 6481 6482
4194 1 6481 6483
4195 1 6484 6485
4196 1 6484 6486
4197 1 6487 6488
4198 1 6487 6489
4199 1 6490 6491
4200 1 6490 6492
4201 1 6493 6494
4202 1 6493 6495
4203 1 6496 6497
4204 1 6496 6498
4205 1 6499 6500
4206 1 6499 6501
4207 1 6502 6503
4208 1 6502 6504
4209 1 6505 6506
4210 1 6505 6507
4211 1 6508 6509
4212 1 6508 6510
4213 1 6511 6512
4214 1 6511 6513
4215 1 6514 6515
4216 1 6514 6516
4217 1 6517 6518
4218 1 6517 6519
4219 1 6520 6521
4220 1 6520 6522
4221 1 6523 6524
4222 1 6523 6525
4223 1 6526 6527
4224 1 6526 6528
4225 1 6529 6530
4226 1 6529 6531
4227 1 6532 6533
4228 1 6532 6534
4229 1 6535 6536
4230 1 6535 6537
4231 1 6538 6539
4232 1 6538 6540
4233 1 6541 6542
4234 1 6541 6543
4235 1 6544 6545
4236 1 6544 6546
4237 1 6547 6548
4238 1 6547 6549
4239 1 6550 6551
4240 1 6550 6552
4241 1 6553 6554
4242 1 6553 6555
4243 1 6556 6557
4244 1 6556 6558
4245 1 6559 6560
4246 1 6559 6561
4247 1 6562 6563
4248 1 6562 6564
4249 1 6565 6566
4250 1 6565 6567
4251 1 6568 6569
4252 1 6568 6570
4253 1 6571 6572
4254 1 6571 6573
4255 1 6574 6575
4256 1 6574 6576
4257 1 6577 6578
4258 1 6577 6579
4259 1 6580 6581
4260 1 6580 6582
4261 1 6583 6584
4262 1 6583 6585
4263 1 6586 6587
4264 1 6586 6588
4265 1 6589 6590
4266 1 6589 6591
4267 1 6592 6593
4268 1 6592 6594
4269 1 6595 6596
4270 1 6595 6597
4271 1 6598 6599
4272 1 6598 6600
4273 1 6601 6602
4274 1 6601 6603
4275 1 6604 6605
4276 1 6604 6606
4277 1 6607 6608
4278 1 6607 6609
4279 1 6610 6611
4280 1 6610 6612
4281 1 6613 6614
4282 1 6613 6615
4283 1 6616 6617
4284 1 6616 6618
4285 1 6619 6620
4286 1 6619 6621
4287 1 6622 6623
4288 1 6622 6624
4289 1 6625 6626
4290 1 6625 6627
4291 1 6628 6629
4292 1 6628 6630
4293 1 6631 6632
4294 1 6631 6633
4295 1 6634 6635
4296 1 6634 6636
4297 1 6637 6638
4298 1 6637 6639
4299 1 6640 6641
4300 1 6640 6642
4301 1 6643 6644
4302 1 6643 6645
4303 1 6646 6647
4304 1 6646 6648
4305 1 6649 6650
4306 1 6649 6651
4307 1 6652 6653
4308 1 6652 6654
4309 1 6655 6656
4310 1 6655 6657
4311 1 6658 6659
4312 1 6658 6660
4313 1 6661 6662
4314 1 6661 6663
4315 1 6664 6665
4316 1 6664 6666
4317 1 6667 6668
4318 1 6667 6669
4319 1 6670 6671
4320 1 6670 6672
4321 1 6673 6674
4322 1 6673 6675
4323 1 6676 6677
4324 1 6676 6678
4325 1 6679 6680
4326 1 6679 6681
4327 1 6682 6683
4328 1 6682 6684
4329 1 6685 6686
4330 1 6685 6687
4331 1 6688 6689
4332 1 6688 6690
4333 1 6691 6692
4334 1 6691 6693
4335 1 6694 6695
4336 1 6694 6696
4337 1 6697 6698
4338 1 6697 6699
4339 1 6700 6701
4340 1 6700 6702
4341 1 6703 6704
4342 1 6703 6705
4343 1 6706 6707
4344 1 6706 6708
4345 1 6709 6710
4346 1 6709 6711
4347 1 6712 6713
4348 1 6712 6714
4349 1 6715 6716
4350 1 6715 6717
4351 1 6718 6719
4352 1 6718 6720
4353 1 6721 6722
4354 1 6721 6723
4355 1 6724 6725
4356 1 6724 6726
4357 1 6727 6728
4358 1 6727 6729
4359 1 6730 6731
4360 1 6730 6732
4361 1 6733 6734
4362 1 6733 6735
4363 1 6736 6737
4364 1 6736 6738
4365 1 6739 6740
4366 1 6739 6741
4367 1 6742 6743
4368 1 6742 6744
4369 1 6745 6746
4370 1 6745 6747
4371 1 6748 6749
4372 1 6748 6750
4373 1 6751 6752
4374 1 6751 6753
4375 1 6754 6755
4376 1 6754 6756
4377 1 6757 6758
4378 1 6757 6759
4379 1 6760 6761
4380 1 6760 6762
4381 1 6763 6764
4382 1 6763 6765
4383 1 6766 6767
4384 1 6766 6768
4385 1 6769 6770
4386 1 6769 6771
4387 1 6772 6773
4388 1 6772 6774
4389 1 6775 6776
4390 1 6775 6777
4391 1 6778 6779
4392 1 6778 6780
4393 1 6781 6782
4394 1 6781 6783
4395 1 6784 6785
4396 1 6784 6786
4397 1 6787 6788
4398 1 6787 6789
4399 1 6790 6791
4400 1 6790 6792
4401 1 6793 6794
4402 1 6793 6795
4403 1 6796 6797
4404 1 6796 6798
4405 1 6799 6800
4406 1 6799 6801
4407 1 6802 6803
4408 1 6802 6804
4409 1 6805 6806
4410 1 6805 6807
4411 1 6808 6809
4412 1 6808 6810
4413 1 6811 6812
4414 1 6811 6813
4415 1 6814 6815
4416 1 6814 6816
4417 1 6817 6818
4418 1 6817 6819
4419 1 6820 6821
4420 1 6820 6822
4421 1 6823 6824
4422 1 6823 6825
4423 1 6826 6827
4424 1 6826 6828
4425 1 6829 6830
4426 1 6829 6831
4427 1 6832 6833
4428 1 6832 6834
4429 1 6835 6836
4430 1 6835 6837
4431 1 6838 6839
4432 1 6838 6840
4433 1 6841 6842
4434 1 6841 6843
4435 1 6844 6845
4436 1 6844 6846
4437 1 6847 6848
4438 1 6847 6849
4439 1 6850 6851
4440 1 6850 6852
4441 1 6853 6854
4442 1 6853 6855
4443 1 6856 6857
4444 1 6856 6858
4445 1 6859 6860
4446 1 6859 6861
4447 1 6862 6863
4448 1 6862 6864
4449 1 6865 6866
4450 1 6865 6867
4451 1 6868 6869
4452 1 6868 6870
4453 1 6871 6872
4454 1 6871 6873
4455 1 6874 6875
4456 1 6874 6876
4457 1 6877 6878
4458 1 6877 6879
4459 1 6880 6881
4460 1 6880 6882
4461 1 6883 6884
4462 1 6883 6885
4463 1 6886 6887
4464 1 6886 6888
4465 1 6889 6890
4466 1 6889 6891
4467 1 6892 6893
4468 1 6892 6894
4469 1 6895 6896
4470 1 6895 6897
4471 1 6898 6899
4472 1 6898 6900
4473 1 6901 6902
4474 1 6901 6903
4475 1 6904 6905
4476 1 6904 6906
4477 1 6907 6908
4478 1 6907 6909
4479 1 6910 6911
4480 1 6910 6912
4481 1 6913 6914
4482 1 6913 6915
4483 1 6916 6917
4484 1 6916 6918
4485 1 6919 6920
4486 1 6919 6921
4487 1 6922 6923
4488 1 6922 6924
4489 1 6925 6926
4490 1 6925 6927
4491 1 6928 6929
4492 1 6928 6930
4493 1 6931 6932
4494 1 6931 6933
4495 1 6934 6935
4496 1 6934 6936
4497 1 6937 6938
4498 1 6937 6939
4499 1 6940 6941
4500 1 6940 6942
4501 1 6943 6944
4502 1 6943 6945
4503 1 6946 6947
4504 1 6946 6948
4505 1 6949 6950
4506 1 6949 6951
4507 1 6952 6953
4508 1 6952 6954
4509 1 6955 6956
4510 1 6955 6957
4511 1 6958 6959
4512 1 6958 6960
4513 1 6961 6962
4514 1 6961 6963
4515 1 6964 6965
4516 1 6964 6966
4517 1 6967 6968
4518 1 6967 6969
4519 1 6970 6971
4520 1 6970 6972
4521 1 6973 6974
4522 1 6973 6975
4523 1 6976 6977
4524 1 6976 6978
4525 1 6979 6980
4526 1 6979 6981
4527 1 6982 6983
4528 1 6982 6984
4529 1 6985 6986
4530 1 6985 6987
4531 1 6988 6989
4532 1 6988 6990
4533 1 6991 6992
4534 1 6991 6993
4535 1 6994 6995
4536 1 6994 6996
4537 1 6997 6998
4538 1 6997 6999
4539 1 7000 7001
4540 1 7000 7002
4541 1 7003 7004
4542 1 7003 7005
4543 1 7006 7007
4544 1 7006 7008
4545 1 7009 7010
4546 1 7009 7011
4547 1 7012 7013
4548 1 7012 7014
4549 1 7015 7016
4550 1 7015 7017
4551 1 7018 7019
4552 1 7018 7020
4553 1 7021 7022
4554 1 7021 7023
4555 1 7024 7025
4556 1 7024 7026
4557 1 7027 7028
4558 1 7027 7029
4559 1 7030 7031
4560 1 7030 7032
4561 1 7033 7034
4562 1 7033 7035
4563 1 7036 7037
4564 1 7036 7038
4565 1 7039 7040
4566 1 7039 7041
4567 1 7042 7043
4568 1 7042 7044
4569 1 7045 7046
4570 1 7045 7047
4571 1 7048 7049
4572 1 7048 7050
4573 1 7051 7052
4574 1 7051 7053
4575 1 7054 7055
4576 1 7054 7056
4577 1 7057 7058
4578 1 7057 7059
4579 1 7060 7061
4580 1 7060 7062
4581 1 7063 7064
4582 1 7063 7065
4583 1 7066 7067
4584 1 7066 7068
4585 1 7069 7070
4586 1 7069 7071
4587 1 7072 7073
4588 1 7072 7074
4589 1 7075 7076
4590 1 7075 7077
4591 1 7078 7079
4592 1 7078 7080
4593 1 7081 7082
4594 1 7081 7083
4595 1 7084 7085
4596 1 7084 7086
4597 1 7087 7088
4598 1 7087 7089
4599 1 7090 7091
4600 1 7090 7092
4601 1 7093 7094
4602 1 7093 7095
4603 1 7096 7097
4604 1 7096 7098
4605 1 7099 7100
4606 1 7099 7101
4607 1 7102 7103
4608 1 7102 7104

Angles

1 1 2 1 3
2 1 5 4 6
4 1 8 7 9
6 1 11 10 12
8 1 14 13 15
10 1 17 16 18
12 1 20 19 21
14 1 23 22 24
16 1 26 25 27
18 1 29 28 30
19 1 32 31 33
3 1 35 34 36
5 1 38 37 39
7 1 41 40 42
9 1 44 43 45
11 1 47 46 48
13 1 50 49 51
15 1 53 52 54
17 1 56 55 57
20 1 59 58 60
21 1 62 61 63
22 1 65 64 66
23 1 68 67 69
24 1 71 70 72
25 1 74 73 75
26 1 77 76 78
27 1 80 79 81
28 1 83 82 84
29 1 86 85 87
30 1 89 88 90
31 1 92 91 93
32 1 95 94 96
33 1 98 97 99
34 1 101 100 102
35 1 104 103 105
36 1 107 106 108
37 1 110 109 111
38 1 113 112 114
39 1 116 115 117
40 1 119 118 120
41 1 122 121 123
42 1 125 124 126
43 1 128 127 129
44 1 131 130 132
45 1 134 133 135
46 1 137 136 138
47 1 148 147 149
48 1 151 150 152
50 1 154 153 155
52 1 157 156 158
54 1 160 159 161
56 1 163 162 164
58 1 166 165 167
60 1 169 168 170
62 1 172 171 173
64 1 175 174 176
65 1 178 177 179
49 1 181 180 182
51 1 184 183 185
53 1 187 186 188
55 1 190 189 191
57 1 193 192 194
59 1 196 195 197
61 1 199 198 200
63 1 202 201 203
66 1 205 204 206
67 1 208 207 209
68 1 211 210 212
69 1 214 213 215
70 1 217 216 218
71 1 220 219 221
72 1 223 222 224
73 1 226 225 227
74 1 229 228 230
75 1 232 231 233
76 1 235 234 236
77 1 238 237 239
78 1 241 240 242
79 1 244 243 245
80 1 247 246 248
81 1 250 249 251
82 1 253 252 254
83 1 256 255 257
84 1 259 258 260
85 1 262 261 263
86 1 265 264 266
87 1 268 267 269
88 1 271 270 272
89 1 274 273 275
90 1 277 276 278
91 1 280 279 281
92 1 283 282 284
93 1 294 293 295
94 1 297 296 298
96 1 300 299 301
98 1 303 302 304
100 1 306 305 307
102 1 309 308 310
104 1 312 311 313
106 1 315 314 316
108 1 318 317 319
110 1 321 320 322
111 1 324 323 325
95 1 327 326 328
97 1 330 329 331
99 1 333 332 334
101 1 336 335 337
103 1 339 338 340
105 1 342 341 343
107 1 345 344 346
109 1 348 347 349
112 1 351 350 352
113 1 354 353 355
114 1 357 356 358
115 1 360 359 361
116 1 363 362 364
117 1 366 365 367
118 1 369 368 370
119 1 372 371 373
120 1 375 374 376
121 1 378 377 379
122 1 381 380 382
123 1 384 383 385
124 1 387 386 388
125 1 390 389 391
126 1 393 392 394
127 1 396 395 397
128 1 399 398 400
129 1 402 401 403
130 1 405 404 406
131 1 408 407 409
132 1 411 410 412
133 1 414 413 415
134 1 417 416 418
135 1 420 419 421
136 1 423 422 424
137 1 426 425 427
138 1 429 428 430
139 1 440 439 441
140 1 443 442 444
142 1 446 445 447
144 1 449 448 450
146 1 452 451 453
148 1 455 454 456
150 1 458 457 459
152 1 461 460 462
154 1 464 463 465
156 1 467 466 468
157 1 470 469 471
141 1 473 472 474
143 1 476 475 477
145 1 479 478 480
147 1 482 481 483
149 1 485 484 486
151 1 488 487 489
153 1 491 490 492
155 1 494 493 495
158 1 497 496 498
159 1 500 499 501
160 1 503 502 504
161 1 506 505 507
162 1 509 508 510
163 1 512 511 513
164 1 515 514 516
165 1 518 517 519
166 1 521 520 522
167 1 524 523 525
168 1 527 526 528
169 1 530 529 531
170 1 533 532 534
171 1 536 535 537
172 1 539 538 540
173 1 542 541 543
174 1 545 544 546
175 1 548 547 549
176 1 551 550 552
177 1 554 553 555
178 1 557 556 558
179 1 560 559 561
180 1 563 562 564
181 1 566 565 567
182 1 569 568 570
183 1 572 571 573
184 1 575 574 576
185 1 586 585 587
186 1 589 588 590
188 1 592 591 593
190 1 595 594 596
192 1 598 597 599
194 1 601 600 602
196 1 604 603 605
198 1 607 606 608
200 1 610 609 611
202 1 613 612 614
203 1 616 615 617
187 1 619 618 620
189 1 622 621 623
191 1 625 624 626
193 1 628 627 629
195 1 631 630 632
197 1 634 633 635
199 1 637 636 638
201 1 640 639 641
204 1 643 642 644
205 1 646 645 647
206 1 649 648 650
207 1 652 651 653
208 1 655 654 656
209 1 658 657 659
210 1 661 660 662
211 1 664 663 665
212 1 667 666 668
213 1 670 669 671
214 1 673 672 674
215 1 676 675 677
216 1 679 678 680
217 1 682 681 683
218 1 685 684 686
219 1 688 687 689
220 1 691 690 692
221 1 694 693 695
222 1 697 696 698
223 1 700 699 701
224 1 703 702 704
225 1 706 705 707
226 1 709 708 710
227 1 712 711 713
228 1 715 714 716
229 1 718 717 719
230 1 721 720 722
231 1 732 731 733
232 1 735 734 736
234 1 738 737 739
236 1 741 740 742
238 1 744 743 745
240 1 747 746 748
242 1 750 749 751
244 1 753 752 754
246 1 756 755 757
248 1 759 758 760
249 1 762 761 763
233 1 765 764 766
235 1 768 767 769
237 1 771 770 772
239 1 774 773 775
241 1 777 776 778
243 1 780 779 781
245 1 783 782 784
247 1 786 785 787
250 1 789 788 790
251 1 792 791 793
252 1 795 794 796
253 1 798 797 799
254 1 801 800 802
255 1 804 803 805
256 1 807 806 808
257 1 810 809 811
258 1 813 812 814
259 1 816 815 817
260 1 819 818 820
261 1 822 821 823
262 1 825 824 826
263 1 828 827 829
264 1 831 830 832
265 1 834 833 835
266 1 837 836 838
267 1 840 839 841
268 1 843 842 844
269 1 846 845 847
270 1 849 848 850
271 1 852 851 853
272 1 855 854 856
273 1 858 857 859
274 1 861 860 862
275 1 864 863 865
276 1 867 866 868
277 1 878 877 879
278 1 881 880 882
280 1 884 883 885
282 1 887 886 888
284 1 890 889 891
286 1 893 892 894
288 1 896 895 897
290 1 899 898 900
292 1 902 901 903
294 1 905 904 906
295 1 908 907 909
279 1 911 910 912
281 1 914 913 915
283 1 917 916 918
285 1 920 919 921
287 1 923 922 924
289 1 926 925 927
291 1 929 928 930
293 1 932 931 933
296 1 935 934 936
297 1 938 937 939
298 1 941 940 942
299 1 944 943 945
300 1 947 946 948
301 1 950 949 951
302 1 953 952 954
303 1 956 955 957
304 1 959 958 960
305 1 962 961 963
306 1 965 964 966
307 1 968 967 969
308 1 971 970 972
309 1 974 973 975
310 1 977 976 978
311 1 980 979 981
312 1 983 982 984
313 1 986 985 987
314 1 989 988 990
315 1 992 991 993
316 1 995 994 996
317 1 998 997 999
318 1 1001 1000 1002
319 1 1004 1003 1005
320 1 1007 1006 1008
321 1 1010 1009 1011
322 1 1013 1012 1014
323 1 1024 1023 1025
324 1 1027 1026 1028
326 1 1030 1029 1031
328 1 1033 1032 1034
330 1 1036 1035 1037
332 1 1039 1038 1040
334 1 1042 1041 1043
336 1 1045 1044 1046
338 1 1048 1047 1049
340 1 1051 1050 1052
341 1 1054 1053 1055
325 1 1057 1056 1058
327 1 1060 1059 1061
329 1 1063 1062 1064
331 1 1066 1065 1067
333 1 1069 1068 1070
335 1 1072 1071 1073
337 1 1075 1074 1076
339 1 1078 1077 1079
342 1 1081 1080 1082
343 1 1084 1083 1085
344 1 1087 1086 1088
345 1 1090 1089 1091
346 1 1093 1092 1094
347 1 1096 1095 1097
348 1 1099 1098 1100
349 1 1102 1101 1103
350 1 1105 1104 1106
351 1 1108 1107 1109
352 1 1111 1110 1112
353 1 1114 1113 1115
354 1 1117 1116 1118
355 1 1120 1119 1121
356 1 1123 1122 1124
357 1 1126 1125 1127
358 1 1129 1128 1130
359 1 1132 1131 1133
360 1 1135 1134 1136
361 1 1138 1137 1139
362 1 1141 1140 1142
363 1 1144 1143 1145
364 1 1147 1146 1148
365 1 1150 1149 1151
366 1 1153 1152 1154
367 1 1156 1155 1157
368 1 1159 1158 1160
369 1 1170 1169 1171
370 1 1173 1172 1174
372 1 1176 1175 1177
374 1 1179 1178 1180
376 1 1182 1181 1183
378 1 1185 1184 1186
380 1 1188 1187 1189
382 1 1191 1190 1192
384 1 1194 1193 1195
386 1 1197 1196 1198
387 1 1200 1199 1201
371 1 1203 1202 1204
373 1 1206 1205 1207
375 1 1209 1208 1210
377 1 1212 1211 1213
379 1 1215 1214 1216
381 1 1218 1217 1219
383 1 1221 1220 1222
385 1 1224 1223 1225
388 1 1227 1226 1228
389 1 1230 1229 1231
390 1 1233 1232 1234
391 1 1236 1235 1237
392 1 1239 1238 1240
393 1 1242 1241 1243
394 1 1245 1244 1246
395 1 1248 1247 1249
396 1 1251 1250 1252
397 1 1254 1253 1255
398 1 1257 1256 1258
399 1 1260 1259 1261
400 1 1263 1262 1264
401 1 1266 1265 1267
402 1 1269 1268 1270
403 1 1272 1271 1273
404 1 1275 1274 1276
405 1 1278 1277 1279
406 1 1281 1280 1282
407 1 1284 1283 1285
408 1 1287 1286 1288
409 1 1290 1289 1291
410 1 1293 1292 1294
411 1 1296 1295 1297
412 1 1299 1298 1300
413 1 1302 1301 1303
414 1 1305 1304 1306
415 1 1316 1315 1317
416 1 1319 1318 1320
418 1 1322 1321 1323
420 1 1325 1324 1326
422 1 1328 1327 1329
424 1 1331 1330 1332
426 1 1334 1333 1335
428 1 1337 1336 1338
430 1 1340 1339 1341
432 1 1343 1342 1344
433 1 1346 1345 1347
417 1 1349 1348 1350
419 1 1352 1351 1353
421 1 1355 1354 1356
423 1 1358 1357 1359
425 1 1361 1360 1362
427 1 1364 1363 1365
429 1 1367 1366 1368
431 1 1370 1369 1371
434 1 1373 1372 1374
435 1 1376 1375 1377
436 1 1379 1378 1380
437 1 1382 1381 1383
438 1 1385 1384 1386
439 1 1388 1387 1389
440 1 1391 1390 1392
441 1 1394 1393 1395
442 1 1397 1396 1398
443 1 1400 1399 1401
444 1 1403 1402 1404
445 1 1406 1405 1407
446 1 1409 1408 1410
447 1 1412 1411 1413
448 1 1415 1414 1416
449 1 1418 1417 1419
450 1 1421 1420 1422
451 1 1424 1423 1425
452 1 1427 1426 1428
453 1 1430 1429 1431
454 1 1433 1432 1434
455 1 1436 1435 1437
456 1 1439 1438 1440
457 1 1442 1441 1443
458 1 1445 1444 1446
459 1 1448 1447 1449
460 1 1451 1450 1452
461 1 1462 1461 1463
462 1 1465 1464 1466
464 1 1468 1467 1469
466 1 1471 1470 1472
468 1 1474 1473 1475
470 1 1477 1476 1478
472 1 1480 1479 1481
474 1 1483 1482 1484
476 1 1486 1485 1487
478 1 1489 1488 1490
479 1 1492 1491 1493
463 1 1495 1494 1496
465 1 1498 1497 1499
467 1 1501 1500 1502
469 1 1504 1503 1505
471 1 1507 1506 1508
473 1 1510 1509 1511
475 1 1513 1512 1514
477 1 1516 1515 1517
480 1 1519 1518 1520
481 1 1522 1521 1523
482 1 1525 1524 1526
483 1 1528 1527 1529
484 1 1531 1530 1532
485 1 1534 1533 1535
486 1 1537 1536 1538
487 1 1540 1539 1541
488 1 1543 1542 1544
489 1 1546 1545 1547
490 1 1549 1548 1550
491 1 1552 1551 1553
492 1 1555 1554 1556
493 1 1558 1557 1559
494 1 1561 1560 1562
495 1 1564 1563 1565
496 1 1567 1566 1568
497 1 1570 1569 1571
498 1 1573 1572 1574
499 1 1576 1575 1577
500 1 1579 1578 1580
501 1 1582 1581 1583
502 1 1585 1584 1586
503 1 1588 1587 1589
504 1 1591 1590 1592
505 1 1594 1593 1595
506 1 1597 1596 1598
507 1 1608 1607 1609
508 1 1611 1610 1612
510 1 1614 1613 1615
512 1 1617 1616 1618
514 1 1620 1619 1621
516 1 1623 1622 1624
518 1 1626 1625 1627
520 1 1629 1628 1630
522 1 1632 1631 1633
524 1 1635 1634 1636
525 1 1638 1637 1639
509 1 1641 1640 1642
511 1 1644 1643 1645
513 1 1647 1646 1648
515 1 1650 1649 1651
517 1 1653 1652 1654
519 1 1656 1655 1657
521 1 1659 1658 1660
523 1 1662 1661 1663
526 1 1665 1664 1666
527 1 1668 1667 1669
528 1 1671 1670 1672
529 1 1674 1673 1675
530 1 1677 1676 1678
531 1 1680 1679 1681
532 1 1683 1682 1684
533 1 1686 1685 1687
534 1 1689 1688 1690
535 1 1692 1691 1693
536 1 1695 1694 1696
537 1 1698 1697 1699
538 1 1701 1700 1702
539 1 1704 1703 1705
540 1 1707 1706 1708
541 1 1710 1709 1711
542 1 1713 1712 1714
543 1 1716 1715 1717
544 1 1719 1718 1720
545 1 1722 1721 1723
546 1 1725 1724 1726
547 1 1728 1727 1729
548 1 1731 1730 1732
549 1 1734 1733 1735
550 1 1737 1736 1738
551 1 1740 1739 1741
552 1 1743 1742 1744
553 1 1754 1753 1755
554 1 1757 1756 1758
556 1 1760 1759 1761
558 1 1763 1762 1764
560 1 1766 1765 1767
562 1 1769 1768 1770
564 1 1772 1771 1773
566 1 1775 1774 1776
568 1 1778 1777 1779
570 1 1781 1780 1782
571 1 1784 1783 1785
555 1 1787 1786 1788
557 1 1790 1789 1791
559 1 1793 1792 1794
561 1 1796 1795 1797
563 1 1799 1798 1800
565 1 1802 1801 1803
567 1 1805 1804 1806
569 1 1808 1807 1809
572 1 1811 1810 1812
573 1 1814 1813 1815
574 1 1817 1816 1818
575 1 1820 1819 1821
576 1 1823 1822 1824
577 1 1826 1825 1827
578 1 1829 1828 1830
579 1 1832 1831 1833
580 1 1835 1834 1836
581 1 1838 1837 1839
582 1 1841 1840 1842
583 1 1844 1843 1845
584 1 1847 1846 1848
585 1 1850 1849 1851
586 1 1853 1852 1854
587 1 1856 1855 1857
588 1 1859 1858 1860
589 1 1862 1861 1863
590 1 1865 1864 1866
591 1 1868 1867 1869
592 1 1871 1870 1872
593 1 1874 1873 1875
594 1 1877 1876 1878
595 1 1880 1879 1881
596 1 1883 1882 1884
597 1 1886 1885 1887
598 1 1889 1888 1890
599 1 1900 1899 1901
600 1 1903 1902 1904
602 1 1906 1905 1907
604 1 1909 1908 1910
606 1 1912 1911 1913
608 1 1915 1914 1916
610 1 1918 1917 1919
612 1 1921 1920 1922
614 1 1924 1923 1925
616 1 1927 1926 1928
617 1 1930 1929 1931
601 1 1933 1932 1934
603 1 1936 1935 1937
605 1 1939 1938 1940
607 1 1942 1941 1943
609 1 1945 1944 1946
611 1 1948 1947 1949
613 1 1951 1950 1952
615 1 1954 1953 1955
618 1 1957 1956 1958
619 1 1960 1959 1961
620 1 1963 1962 1964
621 1 1966 1965 1967
622 1 1969 1968 1970
623 1 1972 1971 1973
624 1 1975 1974 1976
625 1 1978 1977 1979
626 1 1981 1980 1982
627 1 1984 1983 1985
628 1 1987 1986 1988
629 1 1990 1989 1991
630 1 1993 1992 1994
631 1 1996 1995 1997
632 1 1999 1998 2000
633 1 2002 2001 2003
634 1 2005 2004 2006
635 1 2008 2007 2009
636 1 2011 2010 2012
637 1 2014 2013 2015
638 1 2017 2016 2018
639 1 2020 2019 2021
640 1 2023 2022 2024
641 1 2026 2025 2027
642 1 2029 2028 2030
643 1 2032 2031 2033
644 1 2035 2034 2036
645 1 2046 2045 2047
646 1 2049 2048 2050
648 1 2052 2051 2053
650 1 2055 2054 2056
652 1 2058 2057 2059
654 1 2061 2060 2062
656 1 2064 2063 2065
658 1 2067 2066 2068
660 1 2070 2069 2071
662 1 2073 2072 2074
663 1 2076 2075 2077
647 1 2079 2078 2080
649 1 2082 2081 2083
651 1 2085 2084 2086
653 1 2088 2087 2089
655 1 2091 2090 2092
657 1 2094 2093 2095
659 1 2097 2096 2098
661 1 2100 2099 2101
664 1 2103 2102 2104
665 1 2106 2105 2107
666 1 2109 2108 2110
667 1 2112 2111 2113
668 1 2115 2114 2116
669 1 2118 2117 2119
670 1 2121 2120 2122
671 1 2124 2123 2125
672 1 2127 2126 2128
673 1 2130 2129 2131
674 1 2133 2132 2134
675 1 2136 2135 2137
676 1 2139 2138 2140
677 1 2142 2141 2143
678 1 2145 2144 2146
679 1 2148 2147 2149
680 1 2151 2150 2152
681 1 2154 2153 2155
682 1 2157 2156 2158
683 1 2160 2159 2161
684 1 2163 2162 2164
685 1 2166 2165 2167
686 1 2169 2168 2170
687 1 2172 2171 2173
688 1 2175 2174 2176
689 1 2178 2177 2179
690 1 2181 2180 2182
691 1 2192 2191 2193
692 1 2195 2194 2196
694 1 2198 2197 2199
696 1 2201 2200 2202
698 1 2204 2203 2205
700 1 2207 2206 2208
702 1 2210 2209 2211
704 1 2213 2212 2214
706 1 2216 2215 2217
708 1 2219 2218 2220
709 1 2222 2221 2223
693 1 2225 2224 2226
695 1 2228 2227 2229
697 1 2231 2230 2232
699 1 2234 2233 2235
701 1 2237 2236 2238
703 1 2240 2239 2241
705 1 2243 2242 2244
707 1 2246 2245 2247
710 1 2249 2248 2250
711 1 2252 2251 2253
712 1 2255 2254 2256
713 1 2258 2257 2259
714 1 2261 2260 2262
715 1 2264 2263 2265
716 1 2267 2266 2268
717 1 2270 2269 2271
718 1 2273 2272 2274
719 1 2276 2275 2277
720 1 2279 2278 2280
721 1 2282 2281 2283
722 1 2285 2284 2286
723 1 2288 2287 2289
724 1 2291 2290 2292
725 1 2294 2293 2295
726 1 2297 2296 2298
727 1 2300 2299 2301
728 1 2303 2302 2304
729 1 2306 2305 2307
730 1 2309 2308 2310
731 1 2312 2311 2313
732 1 2315 2314 2316
733 1 2318 2317 2319
734 1 2321 2320 2322
735 1 2324 2323 2325
736 1 2327 2326 2328
737 1 2338 2337 2339
738 1 2341 2340 2342
740 1 2344 2343 2345
742 1 2347 2346 2348
744 1 2350 2349 2351
746 1 2353 2352 2354
748 1 2356 2355 2357
750 1 2359 2358 2360
752 1 2362 2361 2363
754 1 2365 2364 2366
755 1 2368 2367 2369
739 1 2371 2370 2372
741 1 2374 2373 2375
743 1 2377 2376 2378
745 1 2380 2379 2381
747 1 2383 2382 2384
749 1 2386 2385 2387
751 1 2389 2388 2390
753 1 2392 2391 2393
756 1 2395 2394 2396
757 1 2398 2397 2399
758 1 2401 2400 2402
759 1 2404 2403 2405
760 1 2407 2406 2408
761 1 2410 2409 2411
762 1 2413 2412 2414
763 1 2416 2415 2417
764 1 2419 2418 2420
765 1 2422 2421 2423
766 1 2425 2424 2426
767 1 2428 2427 2429
768 1 2431 2430 2432
769 1 2434 2433 2435
770 1 2437 2436 2438
771 1 2440 2439 2441
772 1 2443 2442 2444
773 1 2446 2445 2447
774 1 2449 2448 2450
775 1 2452 2451 2453
776 1 2455 2454 2456
777 1 2458 2457 2459
778 1 2461 2460 2462
779 1 2464 2463 2465
780 1 2467 2466 2468
781 1 2470 2469 2471
782 1 2473 2472 2474
783 1 2484 2483 2485
784 1 2487 2486 2488
786 1 2490 2489 2491
788 1 2493 2492 2494
790 1 2496 2495 2497
792 1 2499 2498 2500
794 1 2502 2501 2503
796 1 2505 2504 2506
798 1 2508 2507 2509
800 1 2511 2510 2512
801 1 2514 2513 2515
785 1 2517 2516 2518
787 1 2520 2519 2521
789 1 2523 2522 2524
791 1 2526 2525 2527
793 1 2529 2528 2530
795 1 2532 2531 2533
797 1 2535 2534 2536
799 1 2538 2537 2539
802 1 2541 2540 2542
803 1 2544 2543 2545
804 1 2547 2546 2548
805 1 2550 2549 2551
806 1 2553 2552 2554
807 1 2556 2555 2557
808 1 2559 2558 2560
809 1 2562 2561 2563
810 1 2565 2564 2566
811 1 2568 2567 2569
812 1 2571 2570 2572
813 1 2574 2573 2575
814 1 2577 2576 2578
815 1 2580 2579 2581
816 1 2583 2582 2584
817 1 2586 2585 2587
818 1 2589 2588 2590
819 1 2592 2591 2593
820 1 2595 2594 2596
821 1 2598 2597 2599
822 1 2601 2600 2602
823 1 2604 2603 2605
824 1 2607 2606 2608
825 1 2610 2609 2611
826 1 2613 2612 2614
827 1 2616 2615 2617
828 1 2619 2618 2620
829 1 2630 2629 2631
830 1 2633 2632 2634
832 1 2636 2635 2637
834 1 2639 2638 2640
836 1 2642 2641 2643
838 1 2645 2644 2646
840 1 2648 2647 2649
842 1 2651 2650 2652
844 1 2654 2653 2655
846 1 2657 2656 2658
847 1 2660 2659 2661
831 1 2663 2662 2664
833 1 2666 2665 2667
835 1 2669 2668 2670
837 1 2672 2671 2673
839 1 2675 2674 2676
841 1 2678 2677 2679
843 1 2681 2680 2682
845 1 2684 2683 2685
848 1 2687 2686 2688
849 1 2690 2689 2691
850 1 2693 2692 2694
851 1 2696 2695 2697
852 1 2699 2698 2700
853 1 2702 2701 2703
854 1 2705 2704 2706
855 1 2708 2707 2709
856 1 2711 2710 2712
857 1 2714 2713 2715
858 1 2717 2716 2718
859 1 2720 2719 2721
860 1 2723 2722 2724
861 1 2726 2725 2727
862 1 2729 2728 2730
863 1 2732 2731 2733
864 1 2735 2734 2736
865 1 2738 2737 2739
866 1 2741 2740 2742
867 1 2744 2743 2745
868 1 2747 2746 2748
869 1 2750 2749 2751
870 1 2753 2752 2754
871 1 2756 2755 2757
872 1 2759 2758 2760
873 1 2762 2761 2763
874 1 2765 2764 2766
875 1 2776 2775 2777
876 1 2779 2778 2780
878 1 2782 2781 2783
880 1 2785 2784 2786
882 1 2788 2787 2789
884 1 2791 2790 2792
886 1 2794 2793 2795
888 1 2797 2796 2798
890 1 2800 2799 2801
892 1 2803 2802 2804
893 1 2806 2805 2807
877 1 2809 2808 2810
879 1 2812 2811 2813
881 1 2815 2814 2816
883 1 2818 2817 2819
885 1 2821 2820 2822
887 1 2824 2823 2825
889 1 2827 2826 2828
891 1 2830 2829 2831
894 1 2833 2832 2834
895 1 2836 2835 2837
896 1 2839 2838 2840
897 1 2842 2841 2843
898 1 2845 2844 2846
899 1 2848 2847 2849
900 1 2851 2850 2852
901 1 2854 2853 2855
902 1 2857 2856 2858
903 1 2860 2859 2861
904 1 2863 2862 2864
905 1 2866 2865 2867
906 1 2869 2868 2870
907 1 2872 2871 2873
908 1 2875 2874 2876
909 1 2878 2877 2879
910 1 2881 2880 2882
911 1 2884 2883 2885
912 1 2887 2886 2888
913 1 2890 2889 2891
914 1 2893 2892 2894
915 1 2896 2895 2897
916 1 2899 2898 2900
917 1 2902 2901 2903
918 1 2905 2904 2906
919 1 2908 2907 2909
920 1 2911 2910 2912
921 1 2922 2921 2923
922 1 2925 2924 2926
924 1 2928 2927 2929
926 1 2931 2930 2932
928 1 2934 2933 2935
930 1 2937 2936 2938
932 1 2940 2939 2941
934 1 2943 2942 2944
936 1 2946 2945 2947
938 1 2949 2948 2950
939 1 2952 2951 2953
923 1 2955 2954 2956
925 1 2958 2957 2959
927 1 2961 2960 2962
929 1 2964 2963 2965
931 1 2967 2966 2968
933 1 2970 2969 2971
935 1 2973 2972 2974
937 1 2976 2975 2977
940 1 2979 2978 2980
941 1 2982 2981 2983
942 1 2985 2984 2986
943 1 2988 2987 2989
944 1 2991 2990 2992
945 1 2994 2993 2995
946 1 2997 2996 2998
947 1 3000 2999 3001
948 1 3003 3002 3004
949 1 3006 3005 3007
950 1 3009 3008 3010
951 1 3012 3011 3013
952 1 3015 3014 3016
953 1 3018 3017 3019
954 1 3021 3020 3022
955 1 3024 3023 3025
956 1 3027 3026 3028
957 1 3030 3029 3031
958 1 3033 3032 3034
959 1 3036 3035 3037
960 1 3039 3038 3040
961 1 3042 3041 3043
962 1 3045 3044 3046
963 1 3048 3047 3049
964 1 3051 3050 3052
965 1 3054 3053 3055
966 1 3057 3056 3058
967 1 3068 3067 3069
968 1 3071 3070 3072
970 1 3074 3073 3075
972 1 3077 3076 3078
974 1 3080 3079 3081
976 1 3083 3082 3084
978 1 3086 3085 3087
980 1 3089 3088 3090
982 1 3092 3091 3093
984 1 3095 3094 3096
985 1 3098 3097 3099
969 1 3101 3100 3102
971 1 3104 3103 3105
973 1 3107 3106 3108
975 1 3110 3109 3111
977 1 3113 3112 3114
979 1 3116 3115 3117
981 1 3119 3118 3120
983 1 3122 3121 3123
986 1 3125 3124 3126
987 1 3128 3127 3129
988 1 3131 3130 3132
989 1 3134 3133 3135
990 1 3137 3136 3138
991 1 3140 3139 3141
992 1 3143 3142 3144
993 1 3146 3145 3147
994 1 3149 3148 3150
995 1 3152 3151 3153
996 1 3155 3154 3156
997 1 3158 3157 3159
998 1 3161 3160 3162
999 1 3164 3163 3165
1000 1 3167 3166 3168
1001 1 3170 3169 3171
1002 1 3173 3172 3174
1003 1 3176 3175 3177
1004 1 3179 3178 3180
1005 1 3182 3181 3183
1006 1 3185 3184 3186
1007 1 3188 3187 3189
1008 1 3191 3190 3192
1009 1 3194 3193 3195
1010 1 3197 3196 3198
1011 1 3200 3199 3201
1012 1 3203 3202 3204
1013 1 3214 3213 3215
1014 1 3217 3216 3218
1016 1 3220 3219 3221
1018 1 3223 3222 3224
1020 1 3226 3225 3227
1022 1 3229 3228 3230
1024 1 3232 3231 3233
1026 1 3235 3234 3236
1028 1 3238 3237 3239
1030 1 3241 3240 3242
1031 1 3244 3243 3245
1015 1 3247 3246 3248
1017 1 3250 3249 3251
1019 1 3253 3252 3254
1021 1 3256 3255 3257
1023 1 3259 3258 3260
1025 1 3262 3261 3263
1027 1 3265 3264 3266
1029 1 3268 3267 3269
1032 1 3271 3270 3272
1033 1 3274 3273 3275
1034 1 3277 3276 3278
1035 1 3280 3279 3281
1036 1 3283 3282 3284
1037 1 3286 3285 3287
1038 1 3289 3288 3290
1039 1 3292 3291 3293
1040 1 3295 3294 3296
1041 1 3298 3297 3299
1042 1 3301 3300 3302
1043 1 3304 3303 3305
1044 1 3307 3306 3308
1045 1 3310 3309 3311
1046 1 3313 3312 3314
1047 1 3316 3315 3317
1048 1 3319 3318 3320
1049 1 3322 3321 3323
1050 1 3325 3324 3326
1051 1 3328 3327 3329
1052 1 3331 3330 3332
1053 1 3334 3333 3335
1054 1 3337 3336 3338
1055 1 3340 3339 3341
1056 1 3343 3342 3344
1057 1 3346 3345 3347
1058 1 3349 3348 3350
1059 1 3360 3359 3361
1060 1 3363 3362 3364
1062 1 3366 3365 3367
1064 1 3369 3368 3370
1066 1 3372 3371 3373
1068 1 3375 3374 3376
1070 1 3378 3377 3379
1072 1 3381 3380 3382
1074 1 3384 3383 3385
1076 1 3387 3386 3388
1077 1 3390 3389 3391
1061 1 3393 3392 3394
1063 1 3396 3395 3397
1065 1 3399 3398 3400
1067 1 3402 3401 3403
1069 1 3405 3404 3406
1071 1 3408 3407 3409
1073 1 3411 3410 3412
1075 1 3414 3413 3415
1078 1 3417 3416 3418
1079 1 3420 3419 3421
1080 1 3423 3422 3424
1081 1 3426 3425 3427
1082 1 3429 3428 3430
1083 1 3432 3431 3433
1084 1 3435 3434 3436
1085 1 3438 3437 3439
1086 1 3441 3440 3442
1087 1 3444 3443 3445
1088 1 3447 3446 3448
1089 1 3450 3449 3451
1090 1 3453 3452 3454
1091 1 3456 3455 3457
1092 1 3459 3458 3460
1093 1 3462 3461 3463
1094 1 3465 3464 3466
1095 1 3468 3467 3469
1096 1 3471 3470 3472
1097 1 3474 3473 3475
1098 1 3477 3476 3478
1099 1 3480 3479 3481
1100 1 3483 3482 3484
1101 1 3486 3485 3487
1102 1 3489 3488 3490
1103 1 3492 3491 3493
1104 1 3495 3494 3496
1105 1 3506 3505 3507
1106 1 3509 3508 3510
1107 1 3512 3511 3513
1108 1 3515 3514 3516
1109 1 3518 3517 3519
1110 1 3521 3520 3522
1111 1 3524 3523 3525
1112 1 3527 3526 3528
1113 1 3530 3529 3531
1114 1 3533 3532 3534
1115 1 3536 3535 3537
1116 1 3539 3538 3540
1117 1 3542 3541 3543
1118 1 3545 3544 3546
1119 1 3548 3547 3549
1120 1 3551 3550 3552
1121 1 3554 3553 3555
1122 1 3557 3556 3558
1123 1 3560 3559 3561
1124 1 3563 3562 3564
1125 1 3566 3565 3567
1126 1 3569 3568 3570
1127 1 3572 3571 3573
1128 1 3575 3574 3576
1129 1 3578 3577 3579
1130 1 3581 3580 3582
1131 1 3584 3583 3585
1132 1 3587 3586 3588
1133 1 3590 3589 3591
1134 1 3593 3592 3594
1135 1 3596 3595 3597
1136 1 3599 3598 3600
1137 1 3602 3601 3603
1138 1 3605 3604 3606
1139 1 3608 3607 3609
1140 1 3611 3610 3612
1141 1 3614 3613 3615
1142 1 3617 3616 3618
1143 1 3620 3619 3621
1144 1 3623 3622 3624
1145 1 3626 3625 3627
1146 1 3629 3628 3630
1147 1 3632 3631 3633
1148 1 3635 3634 3636
1149 1 3638 3637 3639
1150 1 3641 3640 3642
1151 1 3644 3643 3645
1152 1 3647 3646 3648
1153 1 3650 3649 3651
1154 1 3653 3652 3654
1155 1 3656 3655 3657
1156 1 3659 3658 3660
1157 1 3662 3661 3663
1158 1 3665 3664 3666
1159 1 3668 3667 3669
1160 1 3671 3670 3672
1161 1 3674 3673 3675
1162 1 3677 3676 3678
1163 1 3680 3679 3681
1164 1 3683 3682 3684
1165 1 3686 3685 3687
1166 1 3689 3688 3690
1167 1 3692 3691 3693
1168 1 3695 3694 3696
1169 1 3698 3697 3699
1170 1 3701 3700 3702
1171 1 3704 3703 3705
1172 1 3707 3706 3708
1173 1 3710 3709 3711
1174 1 3713 3712 3714
1175 1 3716 3715 3717
1176 1 3719 3718 3720
1177 1 3722 3721 3723
1178 1 3725 3724 3726
1179 1 3728 3727 3729
1180 1 3731 3730 3732
1181 1 3734 3733 3735
1182 1 3737 3736 3738
1183 1 3740 3739 3741
1184 1 3743 3742 3744
1185 1 3746 3745 3747
1186 1 3749 3748 3750
1187 1 3752 3751 3753
1188 1 3755 3754 3756
1189 1 3758 3757 3759
1190 1 3761 3760 3762
1191 1 3764 3763 3765
1192 1 3767 3766 3768
1193 1 3770 3769 3771
1194 1 3773 3772 3774
1195 1 3776 3775 3777
1196 1 3779 3778 3780
1197 1 3782 3781 3783
1198 1 3785 3784 3786
1199 1 3788 3787 3789
1200 1 3791 3790 3792
1201 1 3794 3793 3795
1202 1 3797 3796 3798
1203 1 3800 3799 3801
1204 1 3803 3802 3804
1205 1 3806 3805 3807
1206 1 3809 3808 3810
1207 1 3812 3811 3813
1208 1 3815 3814 3816
1209 1 3818 3817 3819
1210 1 3821 3820 3822
1211 1 3824 3823 3825
1212 1 3827 3826 3828
1213 1 3830 3829 3831
1214 1 3833 3832 3834
1215 1 3836 3835 3837
1216 1 3839 3838 3840
1217 1 3842 3841 3843
1218 1 3845 3844 3846
1219 1 3848 3847 3849
1220 1 3851 3850 3852
1221 1 3854 3853 3855
1222 1 3857 3856 3858
1223 1 3860 3859 3861
1224 1 3863 3862 3864
1225 1 3866 3865 3867
1226 1 3869 3868 3870
1227 1 3872 3871 3873
1228 1 3875 3874 3876
1229 1 3878 3877 3879
1230 1 3881 3880 3882
1231 1 3884 3883 3885
1232 1 3887 3886 3888
1233 1 3890 3889 3891
1234 1 3893 3892 3894
1235 1 3896 3895 3897
1236 1 3899 3898 3900
1237 1 3902 3901 3903
1238 1 3905 3904 3906
1239 1 3908 3907 3909
1240 1 3911 3910 3912
1241 1 3914 3913 3915
1242 1 3917 3916 3918
1243 1 3920 3919 3921
1244 1 3923 3922 3924
1245 1 3926 3925 3927
1246 1 3929 3928 3930
1247 1 3932 3931 3933
1248 1 3935 3934 3936
1249 1 3938 3937 3939
1250 1 3941 3940 3942
1251 1 3944 3943 3945
1252 1 3947 3946 3948
1253 1 3950 3949 3951
1254 1 3953 3952 3954
1255 1 3956 3955 3957
1256 1 3959 3958 3960
1257 1 3962 3961 3963
1258 1 3965 3964 3966
1259 1 3968 3967 3969
1260 1 3971 3970 3972
1261 1 3974 3973 3975
1262 1 3977 3976 3978
1263 1 3980 3979 3981
1264 1 3983 3982 3984
1265 1 3986 3985 3987
1266 1 3989 3988 3990
1267 1 3992 3991 3993
1268 1 3995 3994 3996
1269 1 3998 3997 3999
1270 1 4001 4000 4002
1271 1 4004 4003 4005
1272 1 4007 4006 4008
1273 1 4010 4009 4011
1274 1 4013 4012 4014
1275 1 4016 4015 4017
1276 1 4019 4018 4020
1277 1 4022 4021 4023
1278 1 4025 4024 4026
1279 1 4028 4027 4029
1280 1 4031 4030 4032
1281 1 4034 4033 4035
1282 1 4037 4036 4038
1283 1 4040 4039 4041
1284 1 4043 4042 4044
1285 1 4046 4045 4047
1286 1 4049 4048 4050
1287 1 4052 4051 4053
1288 1 4055 4054 4056
1289 1 4058 4057 4059
1290 1 4061 4060 4062
1291 1 4064 4063 4065
1292 1 4067 4066 4068
1293 1 4070 4069 4071
1294 1 4073 4072 4074
1295 1 4076 4075 4077
1296 1 4079 4078 4080
1297 1 4082 4081 4083
1298 1 4085 4084 4086
1299 1 4088 4087 4089
1300 1 4091 4090 4092
1301 1 4094 4093 4095
1302 1 4097 4096 4098
1303 1 4100 4099 4101
1304 1 4103 4102 4104
1305 1 4106 4105 4107
1306 1 4109 4108 4110
1307 1 4112 4111 4113
1308 1 4115 4114 4116
1309 1 4118 4117 4119
1310 1 4121 4120 4122
1311 1 4124 4123 4125
1312 1 4127 4126 4128
1313 1 4130 4129 4131
1314 1 4133 4132 4134
1315 1 4136 4135 4137
1316 1 4139 4138 4140
1317 1 4142 4141 4143
1318 1 4145 4144 4146
1319 1 4148 4147 4149
1320 1 4151 4150 4152
1321 1 4154 4153 4155
1322 1 4157 4156 4158
1323 1 4160 4159 4161
1324 1 4163 4162 4164
1325 1 4166 4165 4167
1326 1 4169 4168 4170
1327 1 4172 4171 4173
1328 1 4175 4174 4176
1329 1 4178 4177 4179
1330 1 4181 4180 4182
1331 1 4184 4183 4185
1332 1 4187 4186 4188
1333 1 4190 4189 4191
1334 1 4193 4192 4194
1335 1 4196 4195 4197
1336 1 4199 4198 4200
1337 1 4202 4201 4203
1338 1 4205 4204 4206
1339 1 4208 4207 4209
1340 1 4211 4210 4212
1341 1 4214 4213 4215
1342 1 4217 4216 4218
1343 1 4220 4219 4221
1344 1 4223 4222 4224
1345 1 4226 4225 4227
1346 1 4229 4228 4230
1347 1 4232 4231 4233
1348 1 4235 4234 4236
1349 1 4238 4237 4239
1350 1 4241 4240 4242
1351 1 4244 4243 4245
1352 1 4247 4246 4248
1353 1 4250 4249 4251
1354 1 4253 4252 4254
1355 1 4256 4255 4257
1356 1 4259 4258 4260
1357 1 4262 4261 4263
1358 1 4265 4264 4266
1359 1 4268 4267 4269
1360 1 4271 4270 4272
1361 1 4274 4273 4275
1362 1 4277 4276 4278
1363 1 4280 4279 4281
1364 1 4283 4282 4284
1365 1 4286 4285 4287
1366 1 4289 4288 4290
1367 1 4292 4291 4293
1368 1 4295 4294 4296
1369 1 4298 4297 4299
1370 1 4301 4300 4302
1371 1 4304 4303 4305
1372 1 4307 4306 4308
1373 1 4310 4309 4311
1374 1 4313 4312 4314
1375 1 4316 4315 4317
1376 1 4319 4318 4320
1377 1 4322 4321 4323
1378 1 4325 4324 4326
1379 1 4328 4327 4329
1380 1 4331 4330 4332
1381 1 4334 4333 4335
1382 1 4337 4336 4338
1383 1 4340 4339 4341
1384 1 4343 4342 4344
1385 1 4346 4345 4347
1386 1 4349 4348 4350
1387 1 4352 4351 4353
1388 1 4355 4354 4356
1389 1 4358 4357 4359
1390 1 4361 4360 4362
1391 1 4364 4363 4365
1392 1 4367 4366 4368
1393 1 4370 4369 4371
1394 1 4373 4372 4374
1395 1 4376 4375 4377
1396 1 4379 4378 4380
1397 1 4382 4381 4383
1398 1 4385 4384 4386
1399 1 4388 4387 4389
1400 1 4391 4390 4392
1401 1 4394 4393 4395
1402 1 4397 4396 4398
1403 1 4400 4399 4401
1404 1 4403 4402 4404
1405 1 4406 4405 4407
1406 1 4409 4408 4410
1407 1 4412 4411 4413
1408 1 4415 4414 4416
1409 1 4418 4417 4419
1410 1 4421 4420 4422
1411 1 4424 4423 4425
1412 1 4427 4426 4428
1413 1 4430 4429 4431
1414 1 4433 4432 4434
1415 1 4436 4435 4437
1416 1 4439 4438 4440
1417 1 4442 4441 4443
1418 1 4445 4444 4446
1419 1 4448 4447 4449
1420 1 4451 4450 4452
1421 1 4454 4453 4455
1422 1 4457 4456 4458
1423 1 4460 4459 4461
1424 1 4463 4462 4464
1425 1 4466 4465 4467
1426 1 4469 4468 4470
1427 1 4472 4471 4473
1428 1 4475 4474 4476
1429 1 4478 4477 4479
1430 1 4481 4480 4482
1431 1 4484 4483 4485
1432 1 4487 4486 4488
1433 1 4490 4489 4491
1434 1 4493 4492 4494
1435 1 4496 4495 4497
1436 1 4499 4498 4500
1437 1 4502 4501 4503
1438 1 4505 4504 4506
1439 1 4508 4507 4509
1440 1 4511 4510 4512
1441 1 4514 4513 4515
1442 1 4517 4516 4518
1443 1 4520 4519 4521
1444 1 4523 4522 4524
1445 1 4526 4525 4527
1446 1 4529 4528 4530
1447 1 4532 4531 4533
1448 1 4535 4534 4536
1449 1 4538 4537 4539
1450 1 4541 4540 4542
1451 1 4544 4543 4545
1452 1 4547 4546 4548
1453 1 4550 4549 4551
1454 1 4553 4552 4554
1455 1 4556 4555 4557
1456 1 4559 4558 4560
1457 1 4562 4561 4563
1458 1 4565 4564 4566
1459 1 4568 4567 4569
1460 1 4571 4570 4572
1461 1 4574 4573 4575
1462 1 4577 4576 4578
1463 1 4580 4579 4581
1464 1 4583 4582 4584
1465 1 4586 4585 4587
1466 1 4589 4588 4590
1467 1 4592 4591 4593
1468 1 4595 4594 4596
1469 1 4598 4597 4599
1470 1 4601 4600 4602
1471 1 4604 4603 4605
1472 1 4607 4606 4608
1473 1 4610 4609 4611
1474 1 4613 4612 4614
1475 1 4616 4615 4617
1476 1 4619 4618 4620
1477 1 4622 4621 4623
1478 1 4625 4624 4626
1479 1 4628 4627 4629
1480 1 4631 4630 4632
1481 1 4634 4633 4635
1482 1 4637 4636 4638
1483 1 4640 4639 4641
1484 1 4643 4642 4644
1485 1 4646 4645 4647
1486 1 4649 4648 4650
1487 1 4652 4651 4653
1488 1 4655 4654 4656
1489 1 4658 4657 4659
1490 1 4661 4660 4662
1491 1 4664 4663 4665
1492 1 4667 4666 4668
1493 1 4670 4669 4671
1494 1 4673 4672 4674
1495 1 4676 4675 4677
1496 1 4679 4678 4680
1497 1 4682 4681 4683
1498 1 4685 4684 4686
1499 1 4688 4687 4689
1500 1 4691 4690 4692
1501 1 4694 4693 4695
1502 1 4697 4696 4698
1503 1 4700 4699 4701
1504 1 4703 4702 4704
1505 1 4706 4705 4707
1506 1 4709 4708 4710
1507 1 4712 4711 4713
1508 1 4715 4714 4716
1509 1 4718 4717 4719
1510 1 4721 4720 4722
1511 1 4724 4723 4725
1512 1 4727 4726 4728
1513 1 4730 4729 4731
1514 1 4733 4732 4734
1515 1 4736 4735 4737
1516 1 4739 4738 4740
1517 1 4742 4741 4743
1518 1 4745 4744 4746
1519 1 4748 4747 4749
1520 1 4751 4750 4752
1521 1 4754 4753 4755
1522 1 4757 4756 4758
1523 1 4760 4759 4761
1524 1 4763 4762 4764
1525 1 4766 4765 4767
1526 1 4769 4768 4770
1527 1 4772 4771 4773
1528 1 4775 4774 4776
1529 1 4778 4777 4779
1530 1 4781 4780 4782
1531 1 4784 4783 4785
1532 1 4787 4786 4788
1533 1 4790 4789 4791
1534 1 4793 4792 4794
1535 1 4796 4795 4797
1536 1 4799 4798 4800
1537 1 4802 4801 4803
1538 1 4805 4804 4806
1539 1 4808 4807 4809
1540 1 4811 4810 4812
1541 1 4814 4813 4815
1542 1 4817 4816 4818
1543 1 4820 4819 4821
1544 1 4823 4822 4824
1545 1 4826 4825 4827
1546 1 4829 4828 4830
1547 1 4832 4831 4833
1548 1 4835 4834 4836
1549 1 4838 4837 4839
1550 1 4841 4840 4842
1551 1 4844 4843 4845
1552 1 4847 4846 4848
1553 1 4850 4849 4851
1554 1 4853 4852 4854
1555 1 4856 4855 4857
1556 1 4859 4858 4860
1557 1 4862 4861 4863
1558 1 4865 4864 4866
1559 1 4868 4867 4869
1560 1 4871 4870 4872
1561 1 4874 4873 4875
1562 1 4877 4876 4878
1563 1 4880 4879 4881
1564 1 4883 4882 4884
1565 1 4886 4885 4887
1566 1 4889 4888 4890
1567 1 4892 4891 4893
1568 1 4895 4894 4896
1569 1 4898 4897 4899
1570 1 4901 4900 4902
1571 1 4904 4903 4905
1572 1 4907 4906 4908
1573 1 4910 4909 4911
1574 1 4913 4912 4914
1575 1 4916 4915 4917
1576 1 4919 4918 4920
1577 1 4922 4921 4923
1578 1 4925 4924 4926
1579 1 4928 4927 4929
1580 1 4931 4930 4932
1581 1 4934 4933 4935
1582 1 4937 4936 4938
1583 1 4940 4939 4941
1584 1 4943 4942 4944
1585 1 4946 4945 4947
1586 1 4949 4948 4950
1587 1 4952 4951 4953
1588 1 4955 4954 4956
1589 1 4958 4957 4959
1590 1 4961 4960 4962
1591 1 4964 4963 4965
1592 1 4967 4966 4968
1593 1 4970 4969 4971
1594 1 4973 4972 4974
1595 1 4976 4975 4977
1596 1 4979 4978 4980
1597 1 4982 4981 4983
1598 1 4985 4984 4986
1599 1 4988 4987 4989
1600 1 4991 4990 4992
1601 1 4994 4993 4995
1602 1 4997 4996 4998
1603 1 5000 4999 5001
1604 1 5003 5002 5004
1605 1 5006 5005 5007
1606 1 5009 5008 5010
1607 1 5012 5011 5013
1608 1 5015 5014 5016
1609 1 5018 5017 5019
1610 1 5021 5020 5022
1611 1 5024 5023 5025
1612 1 5027 5026 5028
1613 1 5030 5029 5031
1614 1 5033 5032 5034
1615 1 5036 5035 5037
1616 1 5039 5038 5040
1617 1 5042 5041 5043
1618 1 5045 5044 5046
1619 1 5048 5047 5049
1620 1 5051 5050 5052
1621 1 5054 5053 5055
1622 1 5057 5056 5058
1623 1 5060 5059 5061
1624 1 5063 5062 5064
1625 1 5066 5065 5067
1626 1 5069 5068 5070
1627 1 5072 5071 5073
1628 1 5075 5074 5076
1629 1 5078 5077 5079
1630 1 5081 5080 5082
1631 1 5084 5083 5085
1632 1 5087 5086 5088
1633 1 5090 5089 5091
1634 1 5093 5092 5094
1635 1 5096 5095 5097
1636 1 5099 5098 5100
1637 1 5102 5101 5103
1638 1 5105 5104 5106
1639 1 5108 5107 5109
1640 1 5111 5110 5112
1641 1 5114 5113 5115
1642 1 5117 5116 5118
1643 1 5120 5119 5121
1644 1 5123 5122 5124
1645 1 5126 5125 5127
1646 1 5129 5128 5130
1647 1 5132 5131 5133
1648 1 5135 5134 5136
1649 1 5138 5137 5139
1650 1 5141 5140 5142
1651 1 5144 5143 5145
1652 1 5147 5146 5148
1653 1 5150 5149 5151
1654 1 5153 5152 5154
1655 1 5156 5155 5157
1656 1 5159 5158 5160
1657 1 5162 5161 5163
1658 1 5165 5164 5166
1659 1 5168 5167 5169
1660 1 5171 5170 5172
1661 1 5174 5173 5175
1662 1 5177 5176 5178
1663 1 5180 5179 5181
1664 1 5183 5182 5184
1665 1 5186 5185 5187
1666 1 5189 5188 5190
1667 1 5192 5191 5193
1668 1 5195 5194 5196
1669 1 5198 5197 5199
1670 1 5201 5200 5202
1671 1 5204 5203 5205
1672 1 5207 5206 5208
1673 1 5210 5209 5211
1674 1 5213 5212 5214
1675 1 5216 5215 5217
1676 1 5219 5218 5220
1677 1 5222 5221 5223
1678 1 5225 5224 5226
1679 1 5228 5227 5229
1680 1 5231 5230 5232
1681 1 5234 5233 5235
1682 1 5237 5236 5238
1683 1 5240 5239 5241
1684 1 5243 5242 5244
1685 1 5246 5245 5247
1686 1 5249 5248 5250
1687 1 5252 5251 5253
1688 1 5255 5254 5256
1689 1 5258 5257 5259
1690 1 5261 5260 5262
1691 1 5264 5263 5265
1692 1 5267 5266 5268
1693 1 5270 5269 5271
1694 1 5273 5272 5274
1695 1 5276 5275 5277
1696 1 5279 5278 5280
1697 1 5282 5281 5283
1698 1 5285 5284 5286
1699 1 5288 5287 5289
1700 1 5291 5290 5292
1701 1 5294 5293 5295
1702 1 5297 5296 5298
1703 1 5300 5299 5301
1704 1 5303 5302 5304
1705 1 5306 5305 5307
1706 1 5309 5308 5310
1707 1 5312 5311 5313
1708 1 5315 5314 5316
1709 1 5318 5317 5319
1710 1 5321 5320 5322
1711 1 5324 5323 5325
1712 1 5327 5326 5328
1713 1 5330 5329 5331
1714 1 5333 5332 5334
1715 1 5336 5335 5337
1716 1 5339 5338 5340
1717 1 5342 5341 5343
1718 1 5345 5344 5346
1719 1 5348 5347 5349
1720 1 5351 5350 5352
1721 1 5354 5353 5355
1722 1 5357 5356 5358
1723 1 5360 5359 5361
1724 1 5363 5362 5364
1725 1 5366 5365 5367
1726 1 5369 5368 5370
1727 1 5372 5371 5373
1728 1 5375 5374 5376
1729 1 5378 5377 5379
1730 1 5381 5380 5382
1731 1 5384 5383 5385
1732 1 5387 5386 5388
1733 1 5390 5389 5391
1734 1 5393 5392 5394
1735 1 5396 5395 5397
1736 1 5399 5398 5400
1737 1 5402 5401 5403
1738 1 5405 5404 5406
1739 1 5408 5407 5409
1740 1 5411 5410 5412
1741 1 5414 5413 5415
1742 1 5417 5416 5418
1743 1 5420 5419 5421
1744 1 5423 5422 5424
1745 1 5426 5425 5427
1746 1 5429 5428 5430
1747 1 5432 5431 5433
1748 1 5435 5434 5436
1749 1 5438 5437 5439
1750 1 5441 5440 5442
1751 1 5444 5443 5445
1752 1 5447 5446 5448
1753 1 5450 5449 5451
1754 1 5453 5452 5454
1755 1 5456 5455 5457
1756 1 5459 5458 5460
1757 1 5462 5461 5463
1758 1 5465 5464 5466
1759 1 5468 5467 5469
1760 1 5471 5470 5472
1761 1 5474 5473 5475
1762 1 5477 5476 5478
1763 1 5480 5479 5481
1764 1 5483 5482 5484
1765 1 5486 5485 5487
1766 1 5489 5488 5490
1767 1 5492 5491 5493
1768 1 5495 5494 5496
1769 1 5498 5497 5499
1770 1 5501 5500 5502
1771 1 5504 5503 5505
1772 1 5507 5506 5508
1773 1 5510 5509 5511
1774 1 5513 5512 5514
1775 1 5516 5515 5517
1776 1 5519 5518 5520
1777 1 5522 5521 5523
1778 1 5525 5524 5526
1779 1 5528 5527 5529
1780 1 5531 5530 5532
1781 1 5534 5533 5535
1782 1 5537 5536 5538
1783 1 5540 5539 5541
1784 1 5543 5542 5544
1785 1 5546 5545 5547
1786 1 5549 5548 5550
1787 1 5552 5551 5553
1788 1 5555 5554 5556
1789 1 5558 5557 5559
1790 1 5561 5560 5562
1791 1 5564 5563 5565
1792 1 5567 5566 5568
1793 1 5570 5569 5571
1794 1 5573 5572 5574
1795 1 5576 5575 5577
1796 1 5579 5578 5580
1797 1 5582 5581 5583
1798 1 5585 5584 5586
1799 1 5588 5587 5589
1800 1 5591 5590 5592
1801 1 5594 5593 5595
1802 1 5597 5596 5598
1803 1 5600 5599 5601
1804 1 5603 5602 5604
1805 1 5606 5605 5607
1806 1 5609 5608 5610
1807 1 5612 5611 5613
1808 1 5615 5614 5616
1809 1 5618 5617 5619
1810 1 5621 5620 5622
1811 1 5624 5623 5625
1812 1 5627 5626 5628
1813 1 5630 5629 5631
1814 1 5633 5632 5634
1815 1 5636 5635 5637
1816 1 5639 5638 5640
1817 1 5642 5641 5643
1818 1 5645 5644 5646
1819 1 5648 5647 5649
1820 1 5651 5650 5652
1821 1 5654 5653 5655
1822 1 5657 5656 5658
1823 1 5660 5659 5661
1824 1 5663 5662 5664
1825 1 5666 5665 5667
1826 1 5669 5668 5670
1827 1 5672 5671 5673
1828 1 5675 5674 5676
1829 1 5678 5677 5679
1830 1 5681 5680 5682
1831 1 5684 5683 5685
1832 1 5687 5686 5688
1833 1 5690 5689 5691
1834 1 5693 5692 5694
1835 1 5696 5695 5697
1836 1 5699 5698 5700
1837 1 5702 5701 5703
1838 1 5705 5704 5706
1839 1 5708 5707 5709
1840 1 5711 5710 5712
1841 1 5714 5713 5715
1842 1 5717 5716 5718
1843 1 5720 5719 5721
1844 1 5723 5722 5724
1845 1 5726 5725 5727
1846 1 5729 5728 5730
1847 1 5732 5731 5733
1848 1 5735 5734 5736
1849 1 5738 5737 5739
1850 1 5741 5740 5742
1851 1 5744 5743 5745
1852 1 5747 5746 5748
1853 1 5750 5749 5751
1854 1 5753 5752 5754
1855 1 5756 5755 5757
1856 1 5759 5758 5760
1857 1 5762 5761 5763
1858 1 5765 5764 5766
1859 1 5768 5767 5769
1860 1 5771 5770 5772
1861 1 5774 5773 5775
1862 1 5777 5776 5778
1863 1 5780 5779 5781
1864 1 5783 5782 5784
1865 1 5786 5785 5787
1866 1 5789 5788 5790
1867 1 5792 5791 5793
1868 1 5795 5794 5796
1869 1 5798 5797 5799
1870 1 5801 5800 5802
1871 1 5804 5803 5805
1872 1 5807 5806 5808
1873 1 5810 5809 5811
1874 1 5813 5812 5814
1875 1 5816 5815 5817
1876 1 5819 5818 5820
1877 1 5822 5821 5823
1878 1 5825 5824 5826
1879 1 5828 5827 5829
1880 1 5831 5830 5832
1881 1 5834 5833 5835
1882 1 5837 5836 5838
1883 1 5840 5839 5841
1884 1 5843 5842 5844
1885 1 5846 5845 5847
1886 1 5849 5848 5850
1887 1 5852 5851 5853
1888 1 5855 5854 5856
1889 1 5858 5857 5859
1890 1 5861 5860 5862
1891 1 5864 5863 5865
1892 1 5867 5866 5868
1893 1 5870 5869 5871
1894 1 5873 5872 5874
1895 1 5876 5875 5877
1896 1 5879 5878 5880
1897 1 5882 5881 5883
1898 1 5885 5884 5886
1899 1 5888 5887 5889
1900 1 5891 5890 5892
1901 1 5894 5893 5895
1902 1 5897 5896 5898
1903 1 5900 5899 5901
1904 1 5903 5902 5904
1905 1 5906 5905 5907
1906 1 5909 5908 5910
1907 1 5912 5911 5913
1908 1 5915 5914 5916
1909 1 5918 5917 5919
1910 1 5921 5920 5922
1911 1 5924 5923 5925
1912 1 5927 5926 5928
1913 1 5930 5929 5931
1914 1 5933 5932 5934
1915 1 5936 5935 5937
1916 1 5939 5938 5940
1917 1 5942 5941 5943
1918 1 5945 5944 5946
1919 1 5948 5947 5949
1920 1 5951 5950 5952
1921 1 5954 5953 5955
1922 1 5957 5956 5958
1923 1 5960 5959 5961
1924 1 5963 5962 5964
1925 1 5966 5965 5967
1926 1 5969 5968 5970
1927 1 5972 5971 5973
1928 1 5975 5974 5976
1929 1 5978 5977 5979
1930 1 5981 5980 5982
1931 1 5984 5983 5985
1932 1 5987 5986 5988
1933 1 5990 5989 5991
1934 1 5993 5992 5994
1935 1 5996 5995 5997
1936 1 5999 5998 6000
1937 1 6002 6001 6003
1938 1 6005 6004 6006
1939 1 6008 6007 6009
1940 1 6011 6010 6012
1941 1 6014 6013 6015
1942 1 6017 6016 6018
1943 1 6020 6019 6021
1944 1 6023 6022 6024
1945 1 6026 6025 6027
1946 1 6029 6028 6030
1947 1 6032 6031 6033
1948 1 6035 6034 6036
1949 1 6038 6037 6039
1950 1 6041 6040 6042
1951 1 6044 6043 6045
1952 1 6047 6046 6048
1953 1 6050 6049 6051
1954 1 6053 6052 6054
1955 1 6056 6055 6057
1956 1 6059 6058 6060
1957 1 6062 6061 6063
1958 1 6065 6064 6066
1959 1 6068 6067 6069
1960 1 6071 6070 6072
1961 1 6074 6073 6075
1962 1 6077 6076 6078
1963 1 6080 6079 6081
1964 1 6083 6082 6084
1965 1 6086 6085 6087
1966 1 6089 6088 6090
1967 1 6092 6091 6093
1968 1 6095 6094 6096
1969 1 6098 6097 6099
1970 1 6101 6100 6102
1971 1 6104 6103 6105
1972 1 6107 6106 6108
1973 1 6110 6109 6111
1974 1 6113 6112 6114
1975 1 6116 6115 6117
1976 1 6119 6118 6120
1977 1 6122 6121 6123
1978 1 6125 6124 6126
1979 1 6128 6127 6129
1980 1 6131 6130 6132
1981 1 6134 6133 6135
1982 1 6137 6136 6138
1983 1 6140 6139 6141
1984 1 6143 6142 6144
1985 1 6146 6145 6147
1986 1 6149 6148 6150
1987 1 6152 6151 6153
1988 1 6155 6154 6156
1989 1 6158 6157 6159
1990 1 6161 6160 6162
1991 1 6164 6163 6165
1992 1 6167 6166 6168
1993 1 6170 6169 6171
1994 1 6173 6172 6174
1995 1 6176 6175 6177
1996 1 6179 6178 6180
1997 1 6182 6181 6183
1998 1 6185 6184 6186
1999 1 6188 6187 6189
2000 1 6191 6190 6192
2001 1 6194 6193 6195
2002 1 6197 6196 6198
2003 1 6200 6199 6201
2004 1 6203 6202 6204
2005 1 6206 6205 6207
2006 1 6209 6208 6210
2007 1 6212 6211 6213
2008 1 6215 6214 6216
2009 1 6218 6217 6219
2010 1 6221 6220 6222
2011 1 6224 6223 6225
2012 1 6227 6226 6228
2013 1 6230 6229 6231
2014 1 6233 6232 6234
2015 1 6236 6235 6237
2016 1 6239 6238 6240
2017 1 6242 6241 6243
2018 1 6245 6244 6246
2019 1 6248 6247 6249
2020 1 6251 6250 6252
2021 1 6254 6253 6255
2022 1 6257 6256 6258
2023 1 6260 6259 6261
2024 1 6263 6262 6264
2025 1 6266 6265 6267
2026 1 6269 6268 6270
2027 1 6272 6271 6273
2028 1 6275 6274 6276
2029 1 6278 6277 6279
2030 1 6281 6280 6282
2031 1 6284 6283 6285
2032 1 6287 6286 6288
2033 1 6290 6289 6291
2034 1 6293 6292 6294
2035 1 6296 6295 6297
2036 1 6299 6298 6300
2037 1 6302 6301 6303
2038 1 6305 6304 6306
2039 1 6308 6307 6309
2040 1 6311 6310 6312
2041 1 6314 6313 6315
2042 1 6317 6316 6318
2043 1 6320 6319 6321
2044 1 6323 6322 6324
2045 1 6326 6325 6327
2046 1 6329 6328 6330
2047 1 6332 6331 6333
2048 1 6335 6334 6336
2049 1 6338 6337 6339
2050 1 6341 6340 6342
2051 1 6344 6343 6345
2052 1 6347 6346 6348
2053 1 6350 6349 6351
2054 1 6353 6352 6354
2055 1 6356 6355 6357
2056 1 6359 6358 6360
2057 1 6362 6361 6363
2058 1 6365 6364 6366
2059 1 6368 6367 6369
2060 1 6371 6370 6372
2061 1 6374 6373 6375
2062 1 6377 6376 6378
2063 1 6380 6379 6381
2064 1 6383 6382 6384
2065 1 6386 6385 6387
2066 1 6389 6388 6390
2067 1 6392 6391 6393
2068 1 6395 6394 6396
2069 1 6398 6397 6399
2070 1 6401 6400 6402
2071 1 6404 6403 6405
2072 1 6407 6406 6408
2073 1 6410 6409 6411
2074 1 6413 6412 6414
2075 1 6416 6415 6417
2076 1 6419 6418 6420
2077 1 6422 6421 6423
2078 1 6425 6424 6426
2079 1 6428 6427 6429
2080 1 6431 6430 6432
2081 1 6434 6433 6435
2082 1 6437 6436 6438
2083 1 6440 6439 6441
2084 1 6443 6442 6444
2085 1 6446 6445 6447
2086 1 6449 6448 6450
2087 1 6452 6451 6453
2088 1 6455 6454 6456
2089 1 6458 6457 6459
2090 1 6461 6460 6462
2091 1 6464 6463 6465
2092 1 6467 6466 6468
2093 1 6470 6469 6471
2094 1 6473 6472 6474
2095 1 6476 6475 6477
2096 1 6479 6478 6480
2097 1 6482 6481 6483
2098 1 6485 6484 6486
2099 1 6488 6487 6489
2100 1 6491 6490 6492
2101 1 6494 6493 6495
2102 1 6497 6496 6498
2103 1 6500 6499 6501
2104 1 6503 6502 6504
2105 1 6506 6505 6507
2106 1 6509 6508 6510
2107 1 6512 6511 6513
2108 1 6515 6514 6516
2109 1 6518 6517 6519
2110 1 6521 6520 6522
2111 1 6524 6523 6525
2112 1 6527 6526 6528
2113 1 6530 6529 6531
2114 1 6533 6532 6534
2115 1 6536 6535 6537
2116 1 6539 6538 6540
2117 1 6542 6541 6543
2118 1 6545 6544 6546
2119 1 6548 6547 6549
2120 1 6551 6550 6552
2121 1 6554 6553 6555
2122 1 6557 6556 6558
2123 1 6560 6559 6561
2124 1 6563 6562 6564
2125 1 6566 6565 6567
2126 1 6569 6568 6570
2127 1 6572 6571 6573
2128 1 6575 6574 6576
2129 1 6578 6577 6579
2130 1 6581 6580 6582
2131 1 6584 6583 6585
2132 1 6587 6586 6588
2133 1 6590 6589 6591
2134 1 6593 6592 6594
2135 1 6596 6595 6597
2136 1 6599 6598 6600
2137 1 6602 6601 6603
2138 1 6605 6604 6606
2139 1 6608 6607 6609
2140 1 6611 6610 6612
2141 1 6614 6613 6615
2142 1 6617 6616 6618
2143 1 6620 6619 6621
2144 1 6623 6622 6624
2145 1 6626 6625 6627
2146 1 6629 6628 6630
2147 1 6632 6631 6633
2148 1 6635 6634 6636
2149 1 6638 6637 6639
2150 1 6641 6640 6642
2151 1 6644 6643 6645
2152 1 6647 6646 6648
2153 1 6650 6649 6651
2154 1 6653 6652 6654
2155 1 6656 6655 6657
2156 1 6659 6658 6660
2157 1 6662 6661 6663
2158 1 6665 6664 6666
2159 1 6668 6667 6669
2160 1 6671 6670 6672
2161 1 6674 6673 6675
2162 1 6677 6676 6678
2163 1 6680 6679 6681
2164 1 6683 6682 6684
2165 1 6686 6685 6687
2166 1 6689 6688 6690
2167 1 6692 6691 6693
2168 1 6695 6694 6696
2169 1 6698 6697 6699
2170 1 6701 6700 6702
2171 1 6704 6703 6705
2172 1 6707 6706 6708
2173 1 6710 6709 6711
2174 1 6713 6712 6714
2175 1 6716 6715 6717
2176 1 6719 6718 6720
2177 1 6722 6721 6723
2178 1 6725 6724 6726
2179 1 6728 6727 6729
2180 1 6731 6730 6732
2181 1 6734 6733 6735
2182 1 6737 6736 6738
2183 1 6740 6739 6741
2184 1 6743 6742 6744
2185 1 6746 6745 6747
2186 1 6749 6748 6750
2187 1 6752 6751 6753
2188 1 6755 6754 6756
2189 1 6758 6757 6759
2190 1 6761 6760 6762
2191 1 6764 6763 6765
2192 1 6767 6766 6768
2193 1 6770 6769 6771
2194 1 6773 6772 6774
2195 1 6776 6775 6777
2196 1 6779 6778 6780
2197 1 6782 6781 6783
2198 1 6785 6784 6786
2199 1 6788 6787 6789
2200 1 6791 6790 6792
2201 1 6794 6793 6795
2202 1 6797 6796 6798
2203 1 6800 6799 6801
2204 1 6803 6802 6804
2205 1 6806 6805 6807
2206 1 6809 6808 6810
2207 1 6812 6811 6813
2208 1 6815 6814 6816
2209 1 6818 6817 6819
2210 1 6821 6820 6822
2211 1 6824 6823 6825
2212 1 6827 6826 6828
2213 1 6830 6829 6831
2214 1 6833 6832 6834
2215 1 6836 6835 6837
2216 1 6839 6838 6840
2217 1 6842 6841 6843
2218 1 6845 6844 6846
2219 1 6848 6847 6849
2220 1 6851 6850 6852
2221 1 6854 6853 6855
2222 1 6857 6856 6858
2223 1 6860 6859 6861
2224 1 6863 6862 6864
2225 1 6866 6865 6867
2226 1 6869 6868 6870
2227 1 6872 6871 6873
2228 1 6875 6874 6876
2229 1 6878 6877 6879
2230 1 6881 6880 6882
2231 1 6884 6883 6885
2232 1 6887 6886 6888
2233 1 6890 6889 6891
2234 1 6893 6892 6894
2235 1 6896 6895 6897
2236 1 6899 6898 6900
2237 1 6902 6901 6903
2238 1 6905 6904 6906
2239 1 6908 6907 6909
2240 1 6911 6910 6912
2241 1 6914 6913 6915
2242 1 6917 6916 6918
2243 1 6920 6919 6921
2244 1 6923 6922 6924
2245 1 6926 6925 6927
2246 1 6929 6928 6930
2247 1 6932 6931 6933
2248 1 6935 6934 6936
2249 1 6938 6937 6939
2250 1 6941 6940 6942
2251 1 6944 6943 6945
2252 1 6947 6946 6948
2253 1 6950 6949 6951
2254 1 6953 6952 6954
2255 1 6956 6955 6957
2256 1 6959 6958 6960
2257 1 6962 6961 6963
2258 1 6965 6964 6966
2259 1 6968 6967 6969
2260 1 6971 6970 6972
2261 1 6974 6973 6975
2262 1 6977 6976 6978
2263 1 6980 6979 6981
2264 1 6983 6982 6984
2265 1 6986 6985 6987
2266 1 6989 6988 6990
2267 1 6992 6991 6993
2268 1 6995 6994 6996
2269 1 6998 6997 6999
2270 1 7001 7000 7002
2271 1 7004 7003 7005
2272 1 7007 7006 7008
2273 1 7010 7009 7011
2274 1 7013 7012 7014
2275 1 7016 7015 7017
2276 1 7019 7018 7020
2277 1 7022 7021 7023
2278 1 7025 7024 7026
2279 1 7028 7027 7029
2280 1 7031 7030 7032
2281 1 7034 7033 7035
2282 1 7037 7036 7038
2283 1 7040 7039 7041
2284 1 7043 7042 7044
2285 1 7046 7045 7047
2286 1 7049 7048 7050
2287 1 7052 7051 7053
2288 1 7055 7054 7056
2289 1 7058 7057 7059
2290 1 7061 7060 7062
2291 1 7064 7063 7065
2292 1 7067 7066 7068
2293 1 7070 7069 7071
2294 1 7073 7072 7074
2295 1 7076 7075 7077
2296 1 7079 7078 7080
2297 1 7082 7081 7083
2298 1 7085 7084 7086
2299 1 7088 7087 7089
2300 1 7091 7090 7092
2301 1 7094 7093 7095
2302 1 7097 7096 7098
2303 1 7100 7099 7101
2304 1 7103 7102 7104

